 vasp.6.4.3 19Mar24 (build Oct 22 2024 11:23:12) complex

 executed on             LinuxIFC date 2025.04.30  02:16:55

 INCAR:
   SYSTEM = Si001 and Ge001 interface calculation
   ISTART = 0
   ICHARG = 2
   LWAVE = .FALSE.
   LREAL = AUTO
   ENCUT = 700
   ENAUG = 900
   ADDGRID = .TRUE.
   LMAXMIX = 6
   LASPH = .TRUE.
   LMIXTAU = .TRUE.
   NCORE = 16
   NELM = 100
   NBANDS = 106
   EDIFF = 1d-7
   AMIX = 0.6
   ISMEAR = 0
   SIGMA = 0.01
   NELECT = 176
   ISPIN = 2
   NUPDOWN = 1
   LVTOT = .FALSE.
   LVHAR = .TRUE.

 POTCAR:    PAW_PBE Si 05Jan2001
 POTCAR:    PAW_PBE Ge 05Jan2001
|           W    W    AA    RRRRR   N    N  II  N    N   GGGG   !!!           |
|           W    W   A  A   R    R  NN   N  II  NN   N  G    G  !!!           |
|           W    W  A    A  R    R  N N  N  II  N N  N  G       !!!           |
|           W WW W  AAAAAA  RRRRR   N  N N  II  N  N N  G  GGG   !            |
|           WW  WW  A    A  R   R   N   NN  II  N   NN  G    G                |
|           W    W  A    A  R    R  N    N  II  N    N   GGGG   !!!           |
|     You use a magnetic or noncollinear calculation, but did not specify     |
|     the initial magnetic moment with the MAGMOM tag. Note that a            |
|     default of 0.023 will be used for all atoms. This ferromagnetic         |
|     setup may break the symmetry of the crystal, in particular it may       |
|     rule out finding an antiferromagnetic solution. Thence, we              |
|     recommend setting the initial magnetic moment manually or verifying     |
|     carefully that this magnetic setup is desired.                          |

 POTCAR:    PAW_PBE Si 05Jan2001
   VRHFIN =Si: s2p2

   TITEL  = PAW_PBE Si 05Jan2001
   POMASS =   28.085; ZVAL   =    4.000    mass and valenz
   ENMAX  =  245.345; ENMIN  =  184.009 eV

 POTCAR:    PAW_PBE Ge 05Jan2001
   VRHFIN =Ge: s2p2

   TITEL  = PAW_PBE Ge 05Jan2001
   POMASS =   72.610; ZVAL   =    4.000    mass and valenz
   ENMAX  =  173.807; ENMIN  =  130.355 eV

 Optimization of the real space projectors (new method)

 maximal supplied QI-value         = 19.84
 optimisation between [QCUT,QGAM] = [ 13.49, 26.99] = [ 50.98,203.92] Ry
 Optimized for a Real-space Cutoff    1.07 Angstroem

   l    n(q)    QCUT    max X(q) W(low)/X(q) W(high)/X(q)  e(spline)
   0      9    13.493   159.560    0.22E-03    0.15E-03    0.72E-07
   0      9    13.493   115.863    0.21E-03    0.15E-03    0.71E-07
   1      8    13.493    88.339    0.15E-03    0.11E-03    0.13E-06
   1      8    13.493    48.592    0.15E-03    0.10E-03    0.13E-06
 Optimization of the real space projectors (new method)

 maximal supplied QI-value         = 16.25
 optimisation between [QCUT,QGAM] = [ 13.49, 26.98] = [ 50.95,203.80] Ry
 Optimized for a Real-space Cutoff    1.25 Angstroem

   l    n(q)    QCUT    max X(q) W(low)/X(q) W(high)/X(q)  e(spline)
   0     10    13.489    65.336    0.91E-04    0.11E-03    0.34E-06
   0     10    13.489    52.220    0.89E-04    0.11E-03    0.34E-06
   1     10    13.489    36.409    0.22E-03    0.27E-03    0.14E-06
   1     10    13.489    21.334    0.21E-03    0.27E-03    0.14E-06
   2      9    13.489     4.673    0.11E-03    0.12E-03    0.19E-06
  PAW_PBE Si 05Jan2001                  :
  PAW_PBE Ge 05Jan2001                  :

 POSCAR: fcc Si+fcc Ge
  positions in direct lattice

 exchange-correlation table for PE
   RHO(1)=    0.500       N(1)  =     2000
   RHO(2)=  100.500       N(2)  =     4000

 ion  position               nearest neighbor table
   1  0.250  0.000  0.049-  34 2.01  18 2.37  12 2.37  11 2.37  17 2.37  28 2.77
   2  0.750  0.000  0.148-  13 2.37  19 2.37  18 2.37  12 2.37
   3  0.250  0.000  0.246-  14 2.37  20 2.37  19 2.37  13 2.37
   4  0.750  0.000  0.344-  15 2.37  21 2.37  20 2.37  14 2.37
   5  0.250  0.000  0.443-  16 2.37  22 2.37  21 2.37  15 2.37  29 2.39  23 2.45
   6  0.750  0.500  0.049-  28 2.01  18 2.37  12 2.37  11 2.37  17 2.37  34 2.77
   7  0.250  0.500  0.148-  13 2.37  19 2.37  18 2.37  12 2.37
   8  0.750  0.500  0.246-  14 2.37  20 2.37  19 2.37  13 2.37
   9  0.250  0.500  0.344-  15 2.37  21 2.37  20 2.37  14 2.37
  10  0.750  0.500  0.443-  16 2.37  22 2.37  21 2.37  15 2.37  23 2.39  29 2.45
  11  0.000  0.250  0.000-  44 2.04   6 2.37   1 2.37  34 2.40  28 2.46  39 2.79  27 2.87
  12  0.500  0.250  0.098-   1 2.37   6 2.37   2 2.37   7 2.37  28 2.78
  13  0.000  0.250  0.197-   2 2.37   7 2.37   3 2.37   8 2.37
  14  0.500  0.250  0.295-   3 2.37   8 2.37   4 2.37   9 2.37
  15  0.000  0.250  0.394-   4 2.37   9 2.37   5 2.37  10 2.37  23 2.78
  16  0.500  0.250  0.492-   5 2.37  10 2.37  29 2.40  40 2.42  23 2.46  35 2.47  24 2.87
  17  0.500  0.750  0.000-  39 2.04   6 2.37   1 2.37  28 2.40  34 2.46  44 2.79  33 2.87
  18  0.000  0.750  0.098-   1 2.37   6 2.37   2 2.37   7 2.37  34 2.78
  19  0.500  0.750  0.197-   2 2.37   7 2.37   3 2.37   8 2.37
  20  0.000  0.750  0.295-   3 2.37   8 2.37   4 2.37   9 2.37
  21  0.500  0.750  0.394-   4 2.37   9 2.37   5 2.37  10 2.37  29 2.78
  22  0.000  0.750  0.492-   5 2.37  10 2.37  23 2.40  35 2.42  29 2.46  40 2.47  30 2.87
  23  0.056  0.315  0.492-  10 2.39  35 2.40  40 2.40  22 2.40   5 2.45  16 2.46  15 2.78
  24  0.556  0.315  0.594-  35 2.40  40 2.40  36 2.40  41 2.40  16 2.87
  25  0.056  0.315  0.695-  36 2.40  41 2.40  37 2.40  42 2.40
  26  0.556  0.315  0.797-  37 2.40  42 2.40  38 2.40  43 2.40
  27  0.056  0.315  0.898-  38 2.40  43 2.40  39 2.40  44 2.40  11 2.87
  28  0.556  0.315  0.000-   6 2.01  39 2.40  44 2.40  17 2.40  11 2.46   1 2.77  12 2.78
  29  0.556  0.815  0.492-   5 2.39  35 2.40  40 2.40  16 2.40  10 2.45  22 2.46  21 2.78
  30  0.056  0.815  0.594-  35 2.40  40 2.40  36 2.40  41 2.40  22 2.87
  31  0.556  0.815  0.695-  36 2.40  41 2.40  37 2.40  42 2.40
  32  0.056  0.815  0.797-  37 2.40  42 2.40  38 2.40  43 2.40
  33  0.556  0.815  0.898-  38 2.40  43 2.40  39 2.40  44 2.40  17 2.87
  34  0.056  0.815  0.000-   1 2.01  39 2.40  44 2.40  11 2.40  17 2.46   6 2.77  18 2.78
  35  0.306  0.565  0.543-  24 2.40  30 2.40  29 2.40  23 2.40  22 2.42  16 2.47
  36  0.806  0.565  0.644-  25 2.40  31 2.40  30 2.40  24 2.40
  37  0.306  0.565  0.746-  26 2.40  32 2.40  31 2.40  25 2.40
  38  0.806  0.565  0.848-  27 2.40  33 2.40  32 2.40  26 2.40
  39  0.306  0.565  0.949-  17 2.04  28 2.40  34 2.40  33 2.40  27 2.40  11 2.79
  40  0.806  0.065  0.543-  24 2.40  30 2.40  29 2.40  23 2.40  16 2.42  22 2.47
  41  0.306  0.065  0.644-  25 2.40  31 2.40  30 2.40  24 2.40
  42  0.806  0.065  0.746-  26 2.40  32 2.40  31 2.40  25 2.40
  43  0.306  0.065  0.848-  27 2.40  33 2.40  32 2.40  26 2.40
  44  0.806  0.065  0.949-  11 2.04  28 2.40  34 2.40  33 2.40  27 2.40  17 2.79

  LATTYP: Found a simple tetragonal cell.
 ALAT       =     5.4800000000
 C/A-ratio  =     5.0821167883

  Lattice vectors:

 A1 = (   5.4800000000,   0.0000000000,   0.0000000000)
 A2 = (   0.0000000000,   5.4800000000,   0.0000000000)
 A3 = (   0.0000000000,   0.0000000000,  27.8500000000)

Analysis of symmetry for initial positions (statically):
 Subroutine PRICEL returns following result:

[...]

   2 primitive cells build up your supercell.

 Routine SETGRP: Setting up the symmetry group for a
 simple tetragonal supercell.

 Subroutine GETGRP returns: Found  1 space group operations
 (whereof  1 operations were pure point group operations)
 out of a pool of 16 trial point group operations.

The static configuration has the point symmetry C_1 .

Analysis of symmetry for dynamics (positions and initial velocities):
 Subroutine PRICEL returns following result:

[...]

The dynamic configuration has the point symmetry C_1 .

Analysis of structural, dynamic, and magnetic symmetry:
 Subroutine PRICEL returns following result:

  LATTYP: Found a simple tetragonal cell.
 ALAT       =     3.8749451609
 C/A-ratio  =     7.1871984876

  Lattice vectors:

 A1 = (   2.7400000000,  -2.7400000000,   0.0000000000)
 A2 = (   2.7400000000,   2.7400000000,   0.0000000000)
 A3 = (   0.0000000000,   0.0000000000,  27.8500000000)

   2 primitive cells build up your supercell.

 Routine SETGRP: Setting up the symmetry group for a
 simple tetragonal supercell.

 Subroutine GETGRP returns: Found  1 space group operations
 (whereof  1 operations were pure point group operations)
 out of a pool of 16 trial point group operations.

The overall configuration has the point symmetry C_1 .

 Subroutine INISYM returns: Found  1 space group operations
 (whereof  1 operations are pure point group operations),
 and found     2 'primitive' translations

                                     Primitive cell

  volume of cell :     418.1733

  direct lattice vectors                    reciprocal lattice vectors
     2.740000000 -2.740000000  0.000000000     0.182481752 -0.182481752  0.000000000
     2.740000000  2.740000000  0.000000000     0.182481752  0.182481752  0.000000000
     0.000000000  0.000000000 27.850000000     0.000000000  0.000000000  0.035906643

  length of vectors
     3.874945161  3.874945161 27.850000000     0.258068168  0.258068168  0.035906643

  position of ions in fractional coordinates (direct lattice)
     0.250000000  0.250000000  0.049192101
     0.750000000  0.750000000  0.147576302
     0.250000000  0.250000000  0.245960503
     0.750000000  0.750000000  0.344344704
     0.250000000  0.250000000  0.442728905
     0.750000000  0.250000000  0.000000000
     0.250000000  0.750000000  0.098384201
     0.750000000  0.250000000  0.196768402
     0.250000000  0.750000000  0.295152603
     0.750000000  0.250000000  0.393536804
     0.250000000  0.750000000  0.491921005
     0.740740741  0.370370371  0.491921005
     0.240740741  0.870370371  0.593536804
     0.740740741  0.370370371  0.695152603
     0.240740741  0.870370371  0.796768402
     0.740740741  0.370370371  0.898384201
     0.240740741  0.870370371  0.000000000
     0.740740741  0.870370371  0.542728905
     0.240740741  0.370370371  0.644344704
     0.740740741  0.870370371  0.745960503
     0.240740741  0.370370371  0.847576302
     0.740740741  0.870370371  0.949192101

  ion indices of the primitive-cell ions
   primitive index   ion index
                 1           1
                 2           2
                 3           3
                 4           4
                 5           5
                 6          11
                 7          12
                 8          13
                 9          14
                10          15
                11          16
                12          29
                13          30
                14          31
                15          32
                16          33
                17          34
                18          35
                19          41
                20          37
                21          43
                22          39

 KPOINTS: Automatic KPOINTS generated

Automatic generation of k-mesh.
 Grid dimensions read from file:
 generate k-points for:    6    6    1

 Generating k-lattice:

  Cartesian coordinates                     Fractional coordinates (reciprocal lattice)
[...]
     17      -4.0199      1.00000
     18      -3.9898      1.00000
     19      -3.9615      1.00000
     20      -3.9596      1.00000
     21      -3.8318      1.00000
     22      -3.8155      1.00000
     23      -3.2811      1.00000
     24      -2.9427      1.00000
     25      -2.8662      1.00000
     26      -2.4258      1.00000
     27      -2.2891      1.00000
     28      -1.9934      1.00000
     29      -1.4604      1.00000
     30      -1.4361      1.00000
     31      -1.4132      1.00000
     32      -1.3662      1.00000
     33      -0.9566      1.00000
     34      -0.8823      1.00000
     35      -0.8307      1.00000
     36      -0.8263      1.00000
     37      -0.2139      1.00000
     38      -0.1586      1.00000
     39      -0.0753      1.00000
     40      -0.0414      1.00000
     41       0.0952      1.00000
     42       0.1127      1.00000
     43       0.1284      1.00000
     44       0.2521      1.00000
     45       1.2674      1.00000
     46       1.6631      1.00000
     47       1.8735      1.00000
     48       1.9335      1.00000
     49       1.9841      1.00000
     50       2.0199      1.00000
     51       2.0232      1.00000
     52       2.0933      1.00000
     53       2.3072      1.00000
     54       2.5469      1.00000
     55       2.7357      1.00000
     56       2.8014      1.00000
     57       2.8867      1.00000
     58       2.9131      1.00000
     59       3.0284      1.00000
     60       3.2705      1.00000
[...]
     92       6.2497      0.00000
     93       6.3307      0.00000
     94       6.4608      0.00000
     95       6.7056      0.00000
     96       6.8946      0.00000
     97       7.1119      0.00000
     98       7.2502      0.00000
     99       7.2667      0.00000
    100       7.3480      0.00000
    101       7.7282      0.00000
    102       7.7641      0.00000
    103       7.7812      0.00000
    104       7.8427      0.00000
    105       8.0761      0.00000
    106       8.1247      0.00000
 Fermi energy:         5.8856342491

 spin component 2

[...]

 k-point    20 :       0.5000    0.5000    0.0000
  band No.  band energies     occupation
      1      -8.1384      1.00000
      2      -7.2717      1.00000
      3      -7.1333      1.00000
      4      -7.0189      1.00000
      5      -6.8547      1.00000
      6      -6.4897      1.00000
      7      -6.0436      1.00000
      8      -5.4573      1.00000
      9      -5.1506      1.00000
     10      -5.1174      1.00000
     11      -5.0920      1.00000
     12      -5.0741      1.00000
     13      -4.9940      1.00000
     14      -4.7876      1.00000
     15      -4.3173      1.00000
     16      -4.1439      1.00000
     17      -4.0043      1.00000
     18      -3.9770      1.00000
     19      -3.9519      1.00000
     20      -3.9508      1.00000
     21      -3.8081      1.00000
     22      -3.7869      1.00000
     23      -3.2554      1.00000
     24      -2.9198      1.00000
     25      -2.8306      1.00000
     26      -2.3925      1.00000
     27      -2.2536      1.00000
     28      -1.9764      1.00000
     29      -1.4452      1.00000
     30      -1.4241      1.00000
     31      -1.3983      1.00000
     32      -1.3528      1.00000
     33      -0.9357      1.00000
     34      -0.8651      1.00000
     35      -0.8153      1.00000
     36      -0.8096      1.00000
     37      -0.1881      1.00000
     38      -0.1370      1.00000
     39      -0.0480      1.00000
     40      -0.0175      1.00000
     41       0.1177      1.00000
     42       0.1363      1.00000
     43       0.1474      1.00000
     44       0.2706      1.00000
     45       1.3039      1.00000
     46       1.6803      1.00000
     47       1.9032      1.00000
     48       1.9582      1.00000
     49       2.0217      1.00000
     50       2.0368      1.00000
     51       2.0441      1.00000
     52       2.1118      1.00000
     53       2.3268      1.00000
     54       2.5659      1.00000
     55       2.7797      1.00000
     56       2.8305      1.00000
     57       2.9062      1.00000
     58       2.9405      1.00000
     59       3.0565      1.00000
     60       3.2886      1.00000
[...]
     92       6.2897      0.00000
     93       6.3618      0.00000
     94       6.4894      0.00000
     95       6.7338      0.00000
     96       6.9449      0.00000
     97       7.1313      0.00000
     98       7.2674      0.00000
     99       7.2845      0.00000
    100       7.3707      0.00000
    101       7.7466      0.00000
    102       7.7812      0.00000
    103       7.7983      0.00000
    104       7.8626      0.00000
    105       8.0932      0.00000
    106       8.1601      0.00000

 soft charge-density along one line, spin component           1
         0         1         2         3         4         5         6         7         8         9
 total charge-density along one line

 soft charge-density along one line, spin component           2
         0         1         2         3         4         5         6         7         8         9
 total charge-density along one line

------------------------ aborting loop because EDIFF is reached ----------------------------------------

  FORCE on cell =-STRESS in cart. coord.  units (eV):
  Direction    XX          YY          ZZ          XY          YZ          ZX
  Alpha Z   260.18158   260.18158   260.18158
  Ewald   -1378.85664 -1377.00531 -2044.22752   -22.24328    84.48768    99.49495
  Hartree   398.32594   398.32400  -195.27776    -7.72629     9.42435    11.13902
  E(xc)    -596.35291  -596.42865  -596.90569    -0.30149    -0.92399    -1.06500
  Local   -1173.10000 -1175.01539    84.76179    30.61152   -78.21428   -92.09847
  n-local  1331.78093  1332.62981  1338.34622     3.89410    12.12627    13.97857
  augment  -102.63707  -102.71713  -103.19930     0.08933     0.49271     0.56606
  Kinetic  1340.14530  1340.51557  1351.31796    -2.34534   -10.46792   -13.12963
  Fock        0.00000     0.00000     0.00000     0.00000     0.00000     0.00000
  Total      79.48712    80.48449    94.99729     1.97854    16.92481    18.88550
  in kB     152.27235   154.18299   181.98496     3.79025    32.42263    36.17869

 VOLUME and BASIS-vectors are now :
  energy-cutoff  :      700.00
  volume of cell :      836.35
      direct lattice vectors                 reciprocal lattice vectors
     5.480000000  0.000000000  0.000000000     0.182481752  0.000000000  0.000000000
     0.000000000  5.480000000  0.000000000     0.000000000  0.182481752  0.000000000
     0.000000000  0.000000000 27.850000000     0.000000000  0.000000000  0.035906643

  length of vectors
     5.480000000  5.480000000 27.850000000     0.182481752  0.182481752  0.035906643

 FORCES acting on ions
    electron-ion (+dipol)            ewald-force                    non-local-force                 convergence-correction
   -.154E+02 -.146E+02 -.575E+02   0.143E+02 0.134E+02 0.586E+02   0.429E+01 0.430E+01 0.442E+01   0.116E-04 0.101E-04 -.654E-04
   -.108E+00 -.127E+00 -.313E+02   -.130E+00 -.110E+00 0.316E+02   0.317E-01 0.245E-01 -.170E+00   -.473E-06 -.213E-06 -.102E-03
   0.557E-01 0.516E-01 0.607E-01   0.290E-03 0.342E-03 0.155E-02   -.902E-01 -.916E-01 -.706E-01   0.393E-06 0.616E-07 -.728E-04
   0.303E+00 0.301E+00 0.314E+02   0.127E+00 0.106E+00 -.317E+02   -.375E+00 -.371E+00 0.180E+00   -.216E-05 -.170E-05 0.136E-03
   0.531E+01 0.321E+01 0.479E+02   -.530E+01 -.330E+01 -.501E+02   -.524E+00 -.115E+00 -.528E-01   0.227E-05 0.147E-05 0.336E-03
   -.154E+02 -.146E+02 -.575E+02   0.143E+02 0.134E+02 0.586E+02   0.429E+01 0.430E+01 0.442E+01   0.137E-04 0.101E-04 -.650E-04
   -.108E+00 -.127E+00 -.313E+02   -.130E+00 -.110E+00 0.316E+02   0.317E-01 0.245E-01 -.170E+00   -.980E-06 0.590E-07 -.102E-03
   0.557E-01 0.516E-01 0.607E-01   0.290E-03 0.342E-03 0.155E-02   -.902E-01 -.916E-01 -.706E-01   0.193E-06 -.690E-07 -.730E-04
   0.303E+00 0.301E+00 0.314E+02   0.127E+00 0.106E+00 -.317E+02   -.375E+00 -.371E+00 0.180E+00   -.194E-05 -.173E-05 0.137E-03
   0.531E+01 0.321E+01 0.479E+02   -.530E+01 -.330E+01 -.501E+02   -.524E+00 -.115E+00 -.528E-01   0.497E-05 0.625E-06 0.336E-03
   -.198E+02 -.205E+02 0.282E+01   0.207E+02 0.216E+02 -.232E+01   0.315E+01 0.316E+01 0.418E+01   0.891E-05 0.105E-04 -.248E-04
   0.278E+01 0.297E+01 -.518E+02   -.137E+01 -.157E+01 0.519E+02   -.138E+01 -.138E+01 0.950E+00   -.701E-05 -.762E-05 -.907E-04
   0.298E+00 0.305E+00 -.155E+02   0.126E-01 0.145E-01 0.158E+02   -.281E+00 -.287E+00 -.290E+00   0.451E-06 0.130E-05 -.981E-04
   -.436E-01 -.594E-02 0.157E+02   0.975E-02 0.121E-01 -.158E+02   -.302E-01 -.645E-01 0.151E+00   0.639E-06 0.508E-06 0.490E-05
   0.645E+00 0.102E+01 0.525E+02   -.113E+01 -.137E+01 -.520E+02   0.130E+00 -.805E-02 -.151E+01   0.467E-05 0.290E-05 0.276E-03
   -.243E+01 -.595E+01 -.113E+02   0.227E+01 0.595E+01 0.104E+02   -.358E-01 0.486E+00 -.735E+00   -.989E-05 -.122E-04 0.136E-03
   -.198E+02 -.205E+02 0.282E+01   0.207E+02 0.216E+02 -.232E+01   0.315E+01 0.316E+01 0.418E+01   0.950E-05 0.119E-04 -.239E-04
   0.278E+01 0.297E+01 -.518E+02   -.137E+01 -.157E+01 0.519E+02   -.138E+01 -.138E+01 0.950E+00   -.688E-05 -.758E-05 -.910E-04
   0.298E+00 0.305E+00 -.155E+02   0.126E-01 0.145E-01 0.158E+02   -.281E+00 -.287E+00 -.290E+00   0.489E-06 0.952E-06 -.980E-04
   -.436E-01 -.594E-02 0.157E+02   0.975E-02 0.121E-01 -.158E+02   -.302E-01 -.645E-01 0.151E+00   0.105E-05 0.169E-06 0.483E-05
   0.645E+00 0.102E+01 0.525E+02   -.113E+01 -.137E+01 -.520E+02   0.130E+00 -.805E-02 -.151E+01   0.383E-05 0.202E-05 0.275E-03
   -.243E+01 -.595E+01 -.113E+02   0.227E+01 0.595E+01 0.104E+02   -.358E-01 0.486E+00 -.735E+00   -.856E-05 -.135E-04 0.136E-03
   0.203E+01 0.558E+01 -.226E+02   -.180E+01 -.556E+01 0.219E+02   -.542E-01 -.584E+00 0.105E+01   0.564E-05 0.120E-04 0.145E-03
   -.629E+00 -.933E+00 -.719E+02   0.954E+00 0.116E+01 0.719E+02   -.405E-01 0.831E-01 0.116E+01   -.372E-05 -.199E-05 -.195E-03
   0.197E-01 -.958E-02 -.226E+02   -.725E-02 -.899E-02 0.227E+02   0.495E-01 0.776E-01 -.864E-01   0.840E-07 0.153E-05 -.953E-04
   -.248E+00 -.257E+00 0.225E+02   -.952E-02 -.109E-01 -.227E+02   0.215E+00 0.222E+00 0.184E+00   0.286E-05 0.271E-05 0.638E-04
   -.214E+01 -.231E+01 0.714E+02   0.118E+01 0.135E+01 -.718E+02   0.103E+01 0.102E+01 -.632E+00   0.704E-05 0.712E-05 0.310E-04
   0.198E+02 0.205E+02 0.303E+02   -.214E+02 -.222E+02 -.304E+02   -.307E+01 -.310E+01 -.377E+01   -.170E-04 -.187E-04 -.361E-04
   0.203E+01 0.558E+01 -.226E+02   -.180E+01 -.556E+01 0.219E+02   -.542E-01 -.584E+00 0.105E+01   0.563E-05 0.111E-04 0.146E-03
   -.629E+00 -.933E+00 -.719E+02   0.954E+00 0.116E+01 0.719E+02   -.405E-01 0.831E-01 0.116E+01   -.399E-05 -.267E-05 -.196E-03
   0.197E-01 -.957E-02 -.226E+02   -.725E-02 -.899E-02 0.227E+02   0.495E-01 0.776E-01 -.864E-01   0.610E-06 0.136E-05 -.953E-04
   -.248E+00 -.257E+00 0.225E+02   -.952E-02 -.109E-01 -.227E+02   0.215E+00 0.222E+00 0.184E+00   0.221E-05 0.260E-05 0.638E-04
   -.214E+01 -.231E+01 0.714E+02   0.118E+01 0.135E+01 -.718E+02   0.103E+01 0.102E+01 -.632E+00   0.824E-05 0.754E-05 0.304E-04
   0.198E+02 0.205E+02 0.303E+02   -.214E+02 -.222E+02 -.304E+02   -.307E+01 -.310E+01 -.377E+01   -.186E-04 -.168E-04 -.354E-04
   -.483E+01 -.297E+01 -.769E+02   0.498E+01 0.310E+01 0.781E+02   0.482E+00 0.227E+00 0.954E+00   -.561E-05 -.352E-05 -.113E-03
   -.194E+00 -.192E+00 -.453E+02   -.100E+00 -.834E-01 0.455E+02   0.230E+00 0.239E+00 0.126E+00   0.127E-05 0.889E-07 -.180E-03
   -.176E-01 -.142E-01 -.695E-01   -.210E-03 -.248E-03 -.108E-02   0.656E-01 0.638E-01 0.378E-01   -.781E-06 -.141E-05 0.656E-05
   0.130E+00 0.151E+00 0.451E+02   0.105E+00 0.901E-01 -.453E+02   0.106E-01 0.259E-01 -.292E-01   -.169E-05 -.286E-05 0.618E-04
   0.133E+02 0.125E+02 0.847E+02   -.134E+02 -.125E+02 -.862E+02   -.256E+01 -.255E+01 -.365E+01   -.122E-04 -.133E-04 0.775E-05
   -.483E+01 -.297E+01 -.769E+02   0.498E+01 0.310E+01 0.781E+02   0.482E+00 0.227E+00 0.954E+00   -.330E-05 -.255E-05 -.112E-03
   -.194E+00 -.192E+00 -.453E+02   -.100E+00 -.834E-01 0.455E+02   0.230E+00 0.239E+00 0.126E+00   0.141E-05 0.362E-06 -.180E-03
   -.176E-01 -.142E-01 -.695E-01   -.210E-03 -.248E-03 -.108E-02   0.656E-01 0.638E-01 0.378E-01   -.104E-05 -.109E-05 0.662E-05
   0.130E+00 0.151E+00 0.451E+02   0.105E+00 0.901E-01 -.453E+02   0.106E-01 0.259E-01 -.292E-01   -.227E-05 -.173E-05 0.618E-04
   0.133E+02 0.125E+02 0.847E+02   -.134E+02 -.125E+02 -.862E+02   -.256E+01 -.255E+01 -.365E+01   -.104E-04 -.117E-04 0.856E-05
   -.249E+01 -.269E+01 -.469E+01   0.142E-13 -.711E-14 -.483E-12   0.249E+01 0.277E+01 0.478E+01   -.209E-04 -.240E-04 0.266E-03

 POSITION                                       TOTAL-FORCE (eV/Angst)
      1.37000      0.00000      1.37000         3.209368      3.051549      5.575308
      4.11000      0.00000      4.11000        -0.205354     -0.214361      0.164282
      1.37000      0.00000      6.85000        -0.034048     -0.041429     -0.010492
      4.11000      0.00000      9.59000         0.054495      0.033901     -0.120966
      1.37000      0.00000     12.33000        -0.511891     -0.207519     -2.309498
      4.11000      2.74000      1.37000         3.209368      3.051549      5.575308
      1.37000      2.74000      4.11000        -0.205354     -0.214361      0.164282
      4.11000      2.74000      6.85000        -0.034048     -0.041429     -0.010492
      1.37000      2.74000      9.59000         0.054495      0.033901     -0.120966
      4.11000      2.74000     12.33000        -0.511891     -0.207519     -2.309498
      0.00000      1.37000      0.00000         4.028644      4.174632      4.676626
      2.74000      1.37000      2.74000         0.028988      0.021319      1.007124
      0.00000      1.37000      5.48000         0.029650      0.030217     -0.000108
      2.74000      1.37000      8.22000        -0.063951     -0.060207      0.036451
      0.00000      1.37000     10.96000        -0.359261     -0.362956     -0.993900
      2.74000      1.37000     13.70000        -0.197428      0.484574     -1.599944
      2.74000      4.11000      0.00000         4.028644      4.174632      4.676626
      0.00000      4.11000      2.74000         0.028988      0.021319      1.007124
      2.74000      4.11000      5.48000         0.029650      0.030217     -0.000108
      0.00000      4.11000      8.22000        -0.063951     -0.060207      0.036451
      2.74000      4.11000     10.96000        -0.359261     -0.362956     -0.993900
      0.00000      4.11000     13.70000        -0.197428      0.484574     -1.599944
      0.30444      1.72519     13.70000         0.178598     -0.567543      0.436433
      3.04444      1.72519     16.53000         0.284830      0.307230      1.229935
      0.30444      1.72519     19.36000         0.062039      0.057280      0.028120
      3.04444      1.72519     22.19000        -0.043240     -0.047432     -0.023040
      0.30444      1.72519     25.02000         0.062631      0.052941     -1.118101
      3.04444      1.72519      0.00000        -4.708489     -4.828744     -3.924168
      3.04444      4.46519     13.70000         0.178598     -0.567543      0.436433
      0.30444      4.46519     16.53000         0.284830      0.307230      1.229935
      3.04444      4.46519     19.36000         0.062039      0.057280      0.028120
      0.30444      4.46519     22.19000        -0.043240     -0.047432     -0.023040
      3.04444      4.46519     25.02000         0.062631      0.052941     -1.118101
      0.30444      4.46519      0.00000        -4.708489     -4.828744     -3.924168
      1.67444      3.09519     15.11500         0.627907      0.360101      2.169087
      4.41444      3.09519     17.94500        -0.063349     -0.038411      0.227232
      1.67444      3.09519     20.77500         0.047861      0.047539     -0.034852
      4.41444      3.09519     23.60500         0.246355      0.265298     -0.271012
      1.67444      3.09519     26.43500        -2.674354     -2.517978     -5.144514
      4.41444      0.35519     15.11500         0.627907      0.360101      2.169087
      1.67444      0.35519     17.94500        -0.063349     -0.038411      0.227232
      4.41444      0.35519     20.77500         0.047861      0.047539     -0.034852
      1.67444      0.35519     23.60500         0.246355      0.265298     -0.271012
      4.41444      0.35519     26.43500        -2.674354     -2.517978     -5.144514
    total drift:                               -0.004847      0.079239      0.091403

  FREE ENERGIE OF THE ION-ELECTRON SYSTEM (eV)
  free  energy   TOTEN  =      -194.92452142 eV

  energy  without entropy=     -194.92392883  energy(sigma->0) =     -194.92422513