 vasp.6.4.3 19Mar24 (build Oct 22 2024 11:23:12) complex

 executed on             LinuxIFC date 2025.06.14  13:27:31

 INCAR:
   SYSTEM = Si and Ge interface calculation
   ISTART = 0
   ICHARG = 2
   LWAVE = .FALSE.
   LREAL = AUTO
   ENCUT = 700
   ENAUG = 900
   ADDGRID = .TRUE.
   LMAXMIX = 6
   LASPH = .TRUE.
   LMIXTAU = .TRUE.
   NCORE = 16
   NELM = 100
   NBANDS = 20
   EDIFF = 1d-7
   AMIX = 0.6
   ISMEAR = 0
   SIGMA = 0.01
   NELECT = 32
   ISPIN = 2
   NUPDOWN = 1
   LVTOT = .FALSE.
   LVHAR = .TRUE.

 POTCAR:    PAW_PBE Si 05Jan2001
 POTCAR:    PAW_PBE Ge 05Jan2001
 POTCAR:    PAW_PBE Si 05Jan2001
 POTCAR:    PAW_PBE Ge 05Jan2001
 POTCAR:    PAW_PBE Si 05Jan2001
 POTCAR:    PAW_PBE Ge 05Jan2001
 POTCAR:    PAW_PBE Si 05Jan2001
 POTCAR:    PAW_PBE Ge 05Jan2001
|           W    W    AA    RRRRR   N    N  II  N    N   GGGG   !!!           |
|           W    W   A  A   R    R  NN   N  II  NN   N  G    G  !!!           |
|           W    W  A    A  R    R  N N  N  II  N N  N  G       !!!           |
|           W WW W  AAAAAA  RRRRR   N  N N  II  N  N N  G  GGG   !            |
|           WW  WW  A    A  R   R   N   NN  II  N   NN  G    G                |
|           W    W  A    A  R    R  N    N  II  N    N   GGGG   !!!           |
|     You use a magnetic or noncollinear calculation, but did not specify     |
|     the initial magnetic moment with the MAGMOM tag. Note that a            |
|     default of 0.125 will be used for all atoms. This ferromagnetic         |
|     setup may break the symmetry of the crystal, in particular it may       |
|     rule out finding an antiferromagnetic solution. Thence, we              |
|     recommend setting the initial magnetic moment manually or verifying     |
|     carefully that this magnetic setup is desired.                          |

 POTCAR:    PAW_PBE Si 05Jan2001
   VRHFIN =Si: s2p2

   TITEL  = PAW_PBE Si 05Jan2001
   POMASS =   28.085; ZVAL   =    4.000    mass and valenz
   ENMAX  =  245.345; ENMIN  =  184.009 eV

 POTCAR:    PAW_PBE Ge 05Jan2001
   VRHFIN =Ge: s2p2

[...]

 POTCAR:    PAW_PBE Si 05Jan2001
   VRHFIN =Si: s2p2

[...]

 POTCAR:    PAW_PBE Ge 05Jan2001
   VRHFIN =Ge: s2p2

   TITEL  = PAW_PBE Ge 05Jan2001
   POMASS =   72.610; ZVAL   =    4.000    mass and valenz
   ENMAX  =  173.807; ENMIN  =  130.355 eV

 Optimization of the real space projectors (new method)

 maximal supplied QI-value         = 19.84
 optimisation between [QCUT,QGAM] = [ 13.49, 26.99] = [ 50.98,203.92] Ry
 Optimized for a Real-space Cutoff    1.07 Angstroem

   l    n(q)    QCUT    max X(q) W(low)/X(q) W(high)/X(q)  e(spline)
   0      9    13.493   159.560    0.22E-03    0.15E-03    0.72E-07
   0      9    13.493   115.863    0.21E-03    0.15E-03    0.71E-07
   1      8    13.493    88.339    0.15E-03    0.11E-03    0.13E-06
   1      8    13.493    48.592    0.15E-03    0.10E-03    0.13E-06
 Optimization of the real space projectors (new method)

[...]

   l    n(q)    QCUT    max X(q) W(low)/X(q) W(high)/X(q)  e(spline)
   0      9    13.493   159.560    0.22E-03    0.15E-03    0.72E-07
   0      9    13.493   115.863    0.21E-03    0.15E-03    0.71E-07
   1      8    13.493    88.339    0.15E-03    0.11E-03    0.13E-06
   1      8    13.493    48.592    0.15E-03    0.10E-03    0.13E-06
 Optimization of the real space projectors (new method)

 maximal supplied QI-value         = 16.25
 optimisation between [QCUT,QGAM] = [ 13.49, 26.98] = [ 50.95,203.80] Ry
 Optimized for a Real-space Cutoff    1.25 Angstroem

   l    n(q)    QCUT    max X(q) W(low)/X(q) W(high)/X(q)  e(spline)
   0     10    13.489    65.336    0.91E-04    0.11E-03    0.34E-06
   0     10    13.489    52.220    0.89E-04    0.11E-03    0.34E-06
   1     10    13.489    36.409    0.22E-03    0.27E-03    0.14E-06
   1     10    13.489    21.334    0.21E-03    0.27E-03    0.14E-06
   2      9    13.489     4.673    0.11E-03    0.12E-03    0.19E-06
  PAW_PBE Si 05Jan2001                  :
  PAW_PBE Ge 05Jan2001                  :
  PAW_PBE Si 05Jan2001                  :
  PAW_PBE Ge 05Jan2001                  :
  PAW_PBE Si 05Jan2001                  :
  PAW_PBE Ge 05Jan2001                  :
  PAW_PBE Si 05Jan2001                  :
  PAW_PBE Ge 05Jan2001                  :

 POSCAR: Si Ge Si Ge Si Ge Si Ge
  positions in direct lattice

 exchange-correlation table for PE
   RHO(1)=    0.500       N(1)  =     2000
   RHO(2)=  100.500       N(2)  =     4000

 ion  position               nearest neighbor table
   1  0.000  0.000  0.000-   2 2.40   4 2.40   6 2.40   8 2.40
   2  0.250  0.250  0.250-   1 2.40   3 2.40   5 2.40   7 2.40
   3  0.000  0.500  0.500-   2 2.40   4 2.40   6 2.40   8 2.40
   4  0.250  0.750  0.750-   1 2.40   3 2.40   5 2.40   7 2.40
   5  0.500  0.000  0.500-   2 2.40   4 2.40   6 2.40   8 2.40
   6  0.750  0.250  0.750-   1 2.40   3 2.40   5 2.40   7 2.40
   7  0.500  0.500  0.000-   2 2.40   4 2.40   6 2.40   8 2.40
   8  0.750  0.750  0.250-   1 2.40   3 2.40   5 2.40   7 2.40

  LATTYP: Found a simple cubic cell.
 ALAT       =     5.5450000000

  Lattice vectors:

 A1 = (   5.5450000000,   0.0000000000,   0.0000000000)
 A2 = (   0.0000000000,   5.5450000000,   0.0000000000)
 A3 = (   0.0000000000,   0.0000000000,   5.5450000000)

Analysis of symmetry for initial positions (statically):
 Subroutine PRICEL returns:
 Original cell was already a primitive cell.

 Routine SETGRP: Setting up the symmetry group for a
 simple cubic supercell.

 Subroutine GETGRP returns: Found  1 space group operations
 (whereof  1 operations were pure point group operations)
 out of a pool of 48 trial point group operations.

The static configuration has the point symmetry C_1 .

Analysis of symmetry for dynamics (positions and initial velocities):
 Subroutine PRICEL returns:
 Original cell was already a primitive cell.

[...]

The dynamic configuration has the point symmetry C_1 .

Analysis of structural, dynamic, and magnetic symmetry:
 Subroutine PRICEL returns:
 Original cell was already a primitive cell.

 Routine SETGRP: Setting up the symmetry group for a
 simple cubic supercell.

 Subroutine GETGRP returns: Found  1 space group operations
 (whereof  1 operations were pure point group operations)
 out of a pool of 48 trial point group operations.

The overall configuration has the point symmetry C_1 .

 Subroutine INISYM returns: Found  1 space group operations
 (whereof  1 operations are pure point group operations),
 and found     1 'primitive' translations

                                     Primitive cell

  volume of cell :     170.4923

  direct lattice vectors                    reciprocal lattice vectors
     5.545000000  0.000000000  0.000000000     0.180342651  0.000000000  0.000000000
     0.000000000  5.545000000  0.000000000     0.000000000  0.180342651  0.000000000
     0.000000000  0.000000000  5.545000000     0.000000000  0.000000000  0.180342651

  length of vectors
     5.545000000  5.545000000  5.545000000     0.180342651  0.180342651  0.180342651

  position of ions in fractional coordinates (direct lattice)
     0.000000000  0.000000000  0.000000000
     0.250000000  0.250000000  0.250000000
     0.000000000  0.500000000  0.500000000
     0.250000000  0.750000000  0.750000000
     0.500000000  0.000000000  0.500000000
     0.750000000  0.250000000  0.750000000
     0.500000000  0.500000000  0.000000000
     0.750000000  0.750000000  0.250000000

  ion indices of the primitive-cell ions
   primitive index   ion index
                 1           1
                 2           2
                 3           3
                 4           4
                 5           5
                 6           6
                 7           7
                 8           8

 KPOINTS: Automatic KPOINTS generated

Automatic generation of k-mesh.
 Grid dimensions read from file:
 generate k-points for:    6    6    6

 Generating k-lattice:

  Cartesian coordinates                     Fractional coordinates (reciprocal lattice)
     0.030057109  0.000000000  0.000000000     0.166666667  0.000000000  0.000000000
     0.000000000  0.030057109  0.000000000     0.000000000  0.166666667  0.000000000
     0.000000000  0.000000000  0.030057109     0.000000000  0.000000000  0.166666667

  Length of vectors
     0.030057109  0.030057109  0.030057109

  Shift w.r.t. Gamma in fractional coordinates (k-lattice)
     0.000000000  0.000000000  0.000000000

 Subroutine IBZKPT returns following result:

 Found    112 irreducible k-points:

 Following reciprocal coordinates:
            Coordinates               Weight
  0.000000  0.000000  0.000000      1.000000
  0.166667  0.000000  0.000000      2.000000
  0.000000  0.166667  0.000000      2.000000
  0.000000  0.000000  0.166667      2.000000
  0.333333  0.000000  0.000000      2.000000
  0.000000  0.333333  0.000000      2.000000
  0.000000  0.000000  0.333333      2.000000
  0.500000  0.000000  0.000000      1.000000
  0.000000  0.500000  0.000000      1.000000
  0.000000  0.000000  0.500000      1.000000
  0.166667  0.166667  0.000000      2.000000
  0.000000  0.166667  0.166667      2.000000
  0.166667  0.000000  0.166667      2.000000
 -0.166667  0.166667  0.000000      2.000000
 -0.166667  0.000000  0.166667      2.000000
  0.000000 -0.166667  0.166667      2.000000
  0.333333  0.166667  0.000000      2.000000
  0.000000  0.333333  0.166667      2.000000
  0.166667  0.000000  0.333333      2.000000
 -0.166667  0.333333  0.000000      2.000000
 -0.333333  0.000000  0.166667      2.000000
  0.000000  0.166667  0.333333      2.000000
  0.000000 -0.333333  0.166667      2.000000
 -0.166667  0.000000  0.333333      2.000000
  0.333333  0.000000  0.166667      2.000000
  0.000000 -0.166667  0.333333      2.000000
  0.333333 -0.166667  0.000000      2.000000
  0.166667  0.333333  0.000000      2.000000
  0.500000  0.166667  0.000000      2.000000
  0.000000  0.500000  0.166667      2.000000
  0.166667  0.000000  0.500000      2.000000
 -0.166667  0.500000  0.000000      2.000000
  0.500000  0.000000  0.166667      2.000000
  0.000000  0.166667  0.500000      2.000000
  0.333333  0.333333  0.000000      2.000000
  0.000000  0.333333  0.333333      2.000000
  0.333333  0.000000  0.333333      2.000000
 -0.333333  0.333333  0.000000      2.000000
 -0.333333  0.000000  0.333333      2.000000
  0.000000 -0.333333  0.333333      2.000000
  0.500000  0.333333  0.000000      2.000000
  0.000000  0.500000  0.333333      2.000000
  0.333333  0.000000  0.500000      2.000000
 -0.333333  0.500000  0.000000      2.000000
  0.500000  0.000000  0.333333      2.000000
  0.000000  0.333333  0.500000      2.000000
  0.500000  0.500000  0.000000      1.000000
  0.000000  0.500000  0.500000      1.000000
  0.500000  0.000000  0.500000      1.000000
  0.166667  0.166667  0.166667      2.000000
 -0.166667  0.166667  0.166667      2.000000
 -0.166667 -0.166667  0.166667      2.000000
  0.166667 -0.166667  0.166667      2.000000
  0.333333  0.166667  0.166667      2.000000
  0.166667  0.333333  0.166667      2.000000
  0.166667  0.166667  0.333333      2.000000
 -0.166667  0.333333  0.166667      2.000000
[...]
   0.75000000  0.25000000  0.75000000
   0.50000000  0.50000000  0.00000000
   0.75000000  0.75000000  0.25000000

 position of ions in cartesian coordinates  (Angst):
   0.00000000  0.00000000  0.00000000
   1.38625000  1.38625000  1.38625000
   0.00000000  2.77250000  2.77250000
   1.38625000  4.15875000  4.15875000
   2.77250000  0.00000000  2.77250000
   4.15875000  1.38625000  4.15875000
   2.77250000  2.77250000  0.00000000
   4.15875000  4.15875000  1.38625000

 k-point     1 :   0.0000 0.0000 0.0000  plane waves:    7123
 k-point     2 :   0.1667 0.0000 0.0000  plane waves:    7148
 k-point     3 :   0.0000 0.1667 0.0000  plane waves:    7148
 k-point     4 :   0.0000 0.0000 0.1667  plane waves:    7148
 k-point     5 :   0.3333 0.0000 0.0000  plane waves:    7124
 k-point     6 :   0.0000 0.3333 0.0000  plane waves:    7124
 k-point     7 :   0.0000 0.0000 0.3333  plane waves:    7124
 k-point     8 :   0.5000 0.0000 0.0000  plane waves:    7160
 k-point     9 :   0.0000 0.5000 0.0000  plane waves:    7160
 k-point    10 :   0.0000 0.0000 0.5000  plane waves:    7160
 k-point    11 :   0.1667 0.1667 0.0000  plane waves:    7165
 k-point    12 :   0.0000 0.1667 0.1667  plane waves:    7165
 k-point    13 :   0.1667 0.0000 0.1667  plane waves:    7165
 k-point    14 :  -0.1667 0.1667 0.0000  plane waves:    7165
 k-point    15 :  -0.1667 0.0000 0.1667  plane waves:    7165
 k-point    16 :   0.0000-0.1667 0.1667  plane waves:    7165
 k-point    17 :   0.3333 0.1667 0.0000  plane waves:    7160
 k-point    18 :   0.0000 0.3333 0.1667  plane waves:    7160
 k-point    19 :   0.1667 0.0000 0.3333  plane waves:    7160
 k-point    20 :  -0.1667 0.3333 0.0000  plane waves:    7160
 k-point    21 :  -0.3333 0.0000 0.1667  plane waves:    7160
 k-point    22 :   0.0000 0.1667 0.3333  plane waves:    7160
 k-point    23 :   0.0000-0.3333 0.1667  plane waves:    7160
 k-point    24 :  -0.1667 0.0000 0.3333  plane waves:    7160
 k-point    25 :   0.3333 0.0000 0.1667  plane waves:    7160
 k-point    26 :   0.0000-0.1667 0.3333  plane waves:    7160
 k-point    27 :   0.3333-0.1667 0.0000  plane waves:    7160
 k-point    28 :   0.1667 0.3333 0.0000  plane waves:    7160
 k-point    29 :   0.5000 0.1667 0.0000  plane waves:    7176
 k-point    30 :   0.0000 0.5000 0.1667  plane waves:    7176
 k-point    31 :   0.1667 0.0000 0.5000  plane waves:    7176
 k-point    32 :  -0.1667 0.5000 0.0000  plane waves:    7176
 k-point    33 :   0.5000 0.0000 0.1667  plane waves:    7176
 k-point    34 :   0.0000 0.1667 0.5000  plane waves:    7176
 k-point    35 :   0.3333 0.3333 0.0000  plane waves:    7183
 k-point    36 :   0.0000 0.3333 0.3333  plane waves:    7183
 k-point    37 :   0.3333 0.0000 0.3333  plane waves:    7183
 k-point    38 :  -0.3333 0.3333 0.0000  plane waves:    7183
 k-point    39 :  -0.3333 0.0000 0.3333  plane waves:    7183
 k-point    40 :   0.0000-0.3333 0.3333  plane waves:    7183
 k-point    41 :   0.5000 0.3333 0.0000  plane waves:    7194
 k-point    42 :   0.0000 0.5000 0.3333  plane waves:    7194
 k-point    43 :   0.3333 0.0000 0.5000  plane waves:    7194
 k-point    44 :  -0.3333 0.5000 0.0000  plane waves:    7194
 k-point    45 :   0.5000 0.0000 0.3333  plane waves:    7194
 k-point    46 :   0.0000 0.3333 0.5000  plane waves:    7194
 k-point    47 :   0.5000 0.5000 0.0000  plane waves:    7184
 k-point    48 :   0.0000 0.5000 0.5000  plane waves:    7184
 k-point    49 :   0.5000 0.0000 0.5000  plane waves:    7184
 k-point    50 :   0.1667 0.1667 0.1667  plane waves:    7163
 k-point    51 :  -0.1667 0.1667 0.1667  plane waves:    7163
 k-point    52 :  -0.1667-0.1667 0.1667  plane waves:    7163
 k-point    53 :   0.1667-0.1667 0.1667  plane waves:    7163
 k-point    54 :   0.3333 0.1667 0.1667  plane waves:    7159
 k-point    55 :   0.1667 0.3333 0.1667  plane waves:    7159
 k-point    56 :   0.1667 0.1667 0.3333  plane waves:    7159
 k-point    57 :  -0.1667 0.3333 0.1667  plane waves:    7159
 k-point    58 :  -0.3333 0.1667 0.1667  plane waves:    7159
 k-point    59 :  -0.1667 0.1667 0.3333  plane waves:    7159
 k-point    60 :  -0.3333-0.1667 0.1667  plane waves:    7159
[...]
 k-point    98 :   0.5000 0.1667 0.5000  plane waves:    7152
 k-point    99 :   0.3333 0.3333 0.3333  plane waves:    7181
 k-point   100 :  -0.3333 0.3333 0.3333  plane waves:    7181
 k-point   101 :  -0.3333-0.3333 0.3333  plane waves:    7181
 k-point   102 :   0.3333-0.3333 0.3333  plane waves:    7181
 k-point   103 :   0.5000 0.3333 0.3333  plane waves:    7168
 k-point   104 :   0.3333 0.5000 0.3333  plane waves:    7168
 k-point   105 :   0.3333 0.3333 0.5000  plane waves:    7168
 k-point   106 :  -0.3333 0.5000 0.3333  plane waves:    7168
 k-point   107 :  -0.3333 0.3333 0.5000  plane waves:    7168
 k-point   108 :   0.5000-0.3333 0.3333  plane waves:    7168
 k-point   109 :   0.5000 0.5000 0.3333  plane waves:    7172
 k-point   110 :   0.3333 0.5000 0.5000  plane waves:    7172
 k-point   111 :   0.5000 0.3333 0.5000  plane waves:    7172
 k-point   112 :   0.5000 0.5000 0.5000  plane waves:    7208

 maximum and minimum number of plane-waves per node :       468      422

 maximum number of plane-waves:      7208
 maximum index in each direction:
   IXMAX=   12   IYMAX=   12   IZMAX=   11
   IXMIN=  -12   IYMIN=  -12   IZMIN=  -12

 real space projection operators:
  max/ min on nodes  :         81.09         62.97

 parallel 3D FFT for wavefunctions:
    minimum data exchange during FFTs selected (reduces bandwidth)
 parallel 3D FFT for charge:
    minimum data exchange during FFTs selected (reduces bandwidth)

 Broyden mixing: mesh for mixing (old mesh)
   NGX = 23   NGY = 23   NGZ = 23
  (NGX  = 72   NGY  = 72   NGZ  = 72)
  gives a total of  12167 points

 initial charge density was supplied:
 charge density of overlapping atoms calculated
 number of electron      32.0000000 magnetization       1.0000000
 keeping initial charge density in first step

 Maximum index for non-local projection operator          242
 Maximum index for augmentation-charges         3342 (set IRDMAX)

 First call to EWALD:  gamma=   0.320
 Maximum number of real-space cells 3x 3x 3
 Maximum number of reciprocal cells 3x 3x 3

--------------------------------------- Ionic step        1  -------------------------------------------

--------------------------------------- Iteration      1(   1)  ---------------------------------------

 eigenvalue-minimisations  :  8960
 total energy-change (2. order) : 0.1239160E+03  (-0.1406871E+04)
 number of electron      32.0000000 magnetization       1.0000000
 augmentation part       32.0000000 magnetization       1.0000000

 Free energy of the ion-electron system (eV)
  alpha Z        PSCENC =        42.19226472
  Ewald energy   TEWEN  =      -895.29304594
  -Hartree energ DENC   =       -47.31609819
  -exchange      EXHF   =         0.00000000
  -V(xc)+E(xc)   XCENC  =       -67.32774621
  PAW double counting   =       705.06534181     -576.74040175
  entropy T*S    EENTRO =        -0.00013180
  eigenvalues    EBANDS =       131.08566050
  atomic energy  EATOM  =       832.25013412
  Solvation  Ediel_sol  =         0.00000000
  free energy    TOTEN  =       123.91597726 eV

  energy without entropy =      123.91610907  energy(sigma->0) =      123.91604316

[...]

 eigenvalue-minimisations  : 11836
 total energy-change (2. order) :-0.1530686E+03  (-0.1474094E+03)
 number of electron      32.0000000 magnetization       1.0000000
 augmentation part       32.0000000 magnetization       1.0000000

[...]

 Broyden mixing:
  rms(total) = 0.75646E+00    rms(broyden)= 0.75646E+00
  rms(prec ) = 0.10580E+01
  weight for this iteration     100.00

[...]

 eigenvalues of (default mixing * dielectric matrix)
  average eigenvalue GAMMA=   1.7983
  1.7983

[...]

 eigenvalue-minimisations  : 10104
 total energy-change (2. order) : 0.5265153E-01  (-0.1691457E-01)
 number of electron      32.0000000 magnetization       1.0000000
 augmentation part       -3.4919928 magnetization      -0.0598175

[...]

 Broyden mixing:
  rms(total) = 0.13112E-03    rms(broyden)= 0.13112E-03
  rms(prec ) = 0.15135E-03
  weight for this iteration     100.00

 eigenvalues of (default mixing * dielectric matrix)
  average eigenvalue GAMMA=   1.0335
  2.0987  1.7685  1.5351  1.0834  0.8107  0.5544  0.5212  0.4529  0.4762

[...]

--------------------------------------- Iteration      1(  15)  ---------------------------------------

 eigenvalue-minimisations  :  6104
 total energy-change (2. order) :-0.9846269E-07  (-0.2929236E-07)
 number of electron      32.0000000 magnetization       1.0000000
 augmentation part       -3.4919976 magnetization      -0.0534495

 Free energy of the ion-electron system (eV)
  alpha Z        PSCENC =        42.19226472
  Ewald energy   TEWEN  =      -895.29304594
  -Hartree energ DENC   =       -59.17579783
  -exchange      EXHF   =         0.00000000
  -V(xc)+E(xc)   XCENC  =       -65.05691350
  PAW double counting   =      2452.29238961    -2325.06793883
  entropy T*S    EENTRO =        -0.00022470
  eigenvalues    EBANDS =       -20.69149076
  atomic energy  EATOM  =       832.25013412
  Solvation  Ediel_sol  =         0.00000000
  free energy    TOTEN  =       -38.55062311 eV

  energy without entropy =      -38.55039841  energy(sigma->0) =      -38.55051076

 average (electrostatic) potential at core
  the test charge radii are     0.9892  1.1631  0.9892  1.1631  0.9892  1.1631  0.9892  1.1631
  (the norm of the test charge is              1.0000)
       1 -84.9085       2 -31.7026       3 -84.9081       4 -31.7026       5 -84.9094
       6 -31.7026       7 -84.9094       8 -31.7026

 E-fermi :   3.8492     XC(G=0):  -9.3063     alpha+bet :-10.4906

 val. band max:        5.8140029758   @ k =   0.0000   0.1667   0.0000
 cond. band min:       3.9527790523   @ k =  -0.1667   0.3333   0.0000
 fundamental gap:     -1.8612239235
 Fermi energy:         5.9060949746

 spin component 1

 k-point     1 :       0.0000    0.0000    0.0000
  band No.  band energies     occupation
      1      -7.7615      1.00000
      2      -4.1226      1.00000
      3      -4.1226      1.00000
      4      -4.1226      1.00000
      5      -3.3401      1.00000
      6      -3.3400      1.00000
      7      -3.3400      1.00000
      8       1.6515      1.00000
      9       1.6516      1.00000
     10       1.6516      1.00000
     11       1.6517      1.00000
     12       1.6517      1.00000
     13       1.6520      1.00000
     14       4.6273      1.00000
     15       4.6273      1.00000
     16       4.6274      1.00000
     17       5.2201      1.00000
     18       5.2201      1.00000
     19       5.2203      1.00000
     20       5.5527      1.00000

[...]

 k-point   112 :       0.5000    0.5000    0.5000
  band No.  band energies     occupation
      1      -5.5872      1.00000
      2      -5.5871      1.00000
      3      -5.5870      1.00000
      4      -5.5870      1.00000
      5      -2.6087      1.00000
      6      -2.6087      1.00000
      7      -2.6085      1.00000
      8      -2.6085      1.00000
      9       3.3141      1.00000
     10       3.3141      1.00000
     11       3.3142      1.00000
     12       3.3142      1.00000
     13       3.3143      1.00000
     14       3.3144      1.00000
     15       3.3145      1.00000
     16       3.3146      1.00000
     17       5.5114      1.00000
     18       5.5115      1.00000
     19       5.5118      1.00000
     20       5.5118      1.00000
 Fermi energy:         3.8491595085

 spin component 2

[...]

 k-point   112 :       0.5000    0.5000    0.5000
  band No.  band energies     occupation
      1      -5.4741      1.00000
      2      -5.4741      1.00000
      3      -5.4740      1.00000
      4      -5.4740      1.00000
      5      -2.4779      1.00000
      6      -2.4778      1.00000
      7      -2.4771      1.00000
      8      -2.4767      1.00000
      9       3.4335      1.00000
     10       3.4335      1.00000
     11       3.4338      1.00000
     12       3.4339      1.00000
     13       3.4339      1.00000
     14       3.4340      1.00000
     15       3.4340      1.00000
     16       3.4340      1.00000
     17       5.6442      0.00000
     18       5.6442      0.00000
     19       5.6446      0.00000
     20       5.6448      0.00000

 soft charge-density along one line, spin component           1
         0         1         2         3         4         5         6         7         8         9
 total charge-density along one line

 soft charge-density along one line, spin component           2
         0         1         2         3         4         5         6         7         8         9
 total charge-density along one line

------------------------ aborting loop because EDIFF is reached ----------------------------------------

  FORCE on cell =-STRESS in cart. coord.  units (eV):
  Direction    XX          YY          ZZ          XY          YZ          ZX
  Alpha Z    42.19226    42.19226    42.19226
  Ewald    -298.43152  -298.43152  -298.43152    -0.00000    -0.00000    -0.00000
  Hartree    19.72560    19.72516    19.72520    -0.00000     0.00000    -0.00000
  E(xc)    -105.97566  -105.97666  -105.97658    -0.00000    -0.00000    -0.00000
  Local    -105.45660  -105.47445  -105.47295    -0.00002    -0.00004     0.00000
  n-local   236.34645   236.35899   236.35794     0.00002     0.00003    -0.00000
  augment   -18.98451   -18.98472   -18.98470    -0.00000    -0.00000     0.00000
  Kinetic   233.64794   233.63439   233.63553    -0.00005    -0.00008    -0.00000
  Fock        0.00000     0.00000     0.00000     0.00000     0.00000     0.00000
  Total       3.06396     3.04345     3.04518    -0.00006    -0.00009     0.00000
  in kB      28.79315    28.60044    28.61666    -0.00052    -0.00089     0.00000

 VOLUME and BASIS-vectors are now :
  energy-cutoff  :      700.00
  volume of cell :      170.49
      direct lattice vectors                 reciprocal lattice vectors
     5.545000000  0.000000000  0.000000000     0.180342651  0.000000000  0.000000000
     0.000000000  5.545000000  0.000000000     0.000000000  0.180342651  0.000000000
     0.000000000  0.000000000  5.545000000     0.000000000  0.000000000  0.180342651

  length of vectors
     5.545000000  5.545000000  5.545000000     0.180342651  0.180342651  0.180342651

 FORCES acting on ions
    electron-ion (+dipol)            ewald-force                    non-local-force                 convergence-correction
   0.150E-04 -.253E-04 0.542E-05   0.284E-13 0.355E-14 0.142E-13   -.356E-05 0.819E-05 0.448E-05   -.107E-04 0.208E-04 -.109E-04
   0.444E-02 -.750E-03 -.103E-02   0.183E-13 0.182E-13 0.107E-13   0.717E-03 -.131E-03 -.173E-03   -.107E-04 -.121E-04 -.322E-06
   0.268E-04 0.183E-04 0.120E-04   0.711E-14 -.355E-14 0.711E-14   -.178E-04 -.773E-05 -.130E-04   -.156E-04 -.883E-05 -.101E-05
   0.444E-02 0.748E-03 0.104E-02   -.316E-14 0.106E-13 0.368E-14   0.721E-03 0.128E-03 0.169E-03   0.601E-06 0.153E-04 -.495E-05
   -.956E-05 0.247E-05 -.155E-05   -.355E-14 -.107E-13 -.355E-14   0.171E-05 -.114E-05 -.950E-06   0.280E-05 -.602E-05 -.155E-06
   -.445E-02 -.752E-03 0.104E-02   -.712E-14 0.340E-14 -.698E-14   -.723E-03 -.121E-03 0.165E-03   0.276E-04 -.171E-04 -.697E-07
   0.111E-04 0.248E-05 0.517E-05   -.213E-13 -.178E-13 -.107E-13   -.110E-04 0.141E-05 -.653E-05   -.628E-05 -.430E-05 -.292E-05
   -.444E-02 0.750E-03 -.105E-02   -.248E-13 -.360E-14 -.142E-13   -.714E-03 0.126E-03 -.161E-03   0.958E-05 0.130E-04 0.182E-04
   0.364E-04 -.620E-05 0.194E-04   -.617E-14 0.256E-15 0.297E-15   -.297E-04 0.327E-05 -.158E-04   -.270E-05 0.652E-06 -.222E-05

 POSITION                                       TOTAL-FORCE (eV/Angst)
      0.00000      0.00000      0.00000         0.000000      0.000004     -0.000001
      1.38625      1.38625      1.38625         0.005150     -0.000893     -0.001203
      0.00000      2.77250      2.77250        -0.000007      0.000002     -0.000002
      1.38625      4.15875      4.15875         0.005156      0.000892      0.001204
      2.77250      0.00000      2.77250        -0.000006     -0.000004     -0.000003
      4.15875      1.38625      4.15875        -0.005142     -0.000890      0.001206
      2.77250      2.77250      0.00000        -0.000007     -0.000000     -0.000004
      4.15875      4.15875      1.38625        -0.005145      0.000890     -0.001196
    total drift:                                0.000004     -0.000002      0.000001

  FREE ENERGIE OF THE ION-ELECTRON SYSTEM (eV)
  free  energy   TOTEN  =       -38.55062311 eV

  energy  without entropy=      -38.55039841  energy(sigma->0) =      -38.55051076