 vasp.6.4.3 19Mar24 (build Oct 22 2024 11:23:12) complex

 executed on             LinuxIFC date 2025.06.08  17:00:15

 INCAR:
   SYSTEM = Si and Ge interface calculation
   ISTART = 0
   ICHARG = 2
   LWAVE = .FALSE.
   LREAL = AUTO
   ENCUT = 700
   ENAUG = 900
   ADDGRID = .TRUE.
   LMAXMIX = 6
   LASPH = .TRUE.
   LMIXTAU = .TRUE.
   NCORE = 16
   NELM = 100
   NBANDS = 346
   EDIFF = 1d-7
   AMIX = 0.6
   ISMEAR = 0
   SIGMA = 0.01
   NELECT = 576
   ISPIN = 2
   NUPDOWN = 1
   LVTOT = .FALSE.
   LVHAR = .TRUE.

 POTCAR:    PAW_PBE Si 05Jan2001
 POTCAR:    PAW_PBE Sn 08Apr2002
|           W    W    AA    RRRRR   N    N  II  N    N   GGGG   !!!           |
|           W    W   A  A   R    R  NN   N  II  NN   N  G    G  !!!           |
|           W    W  A    A  R    R  N N  N  II  N N  N  G       !!!           |
|           W WW W  AAAAAA  RRRRR   N  N N  II  N  N N  G  GGG   !            |
|           WW  WW  A    A  R   R   N   NN  II  N   NN  G    G                |
|           W    W  A    A  R    R  N    N  II  N    N   GGGG   !!!           |
|     You use a magnetic or noncollinear calculation, but did not specify     |
|     the initial magnetic moment with the MAGMOM tag. Note that a            |
|     default of 6.944e-3 will be used for all atoms. This ferromagnetic      |
|     setup may break the symmetry of the crystal, in particular it may       |
|     rule out finding an antiferromagnetic solution. Thence, we              |
|     recommend setting the initial magnetic moment manually or verifying     |
|     carefully that this magnetic setup is desired.                          |

 POTCAR:    PAW_PBE Si 05Jan2001
   VRHFIN =Si: s2p2

   TITEL  = PAW_PBE Si 05Jan2001
   POMASS =   28.085; ZVAL   =    4.000    mass and valenz
   ENMAX  =  245.345; ENMIN  =  184.009 eV

 POTCAR:    PAW_PBE Sn 08Apr2002
   VRHFIN =Sn: s2p2

   TITEL  = PAW_PBE Sn 08Apr2002
   POMASS =  118.710; ZVAL   =    4.000    mass and valenz
   ENMAX  =  103.236; ENMIN  =   77.427 eV

 Optimization of the real space projectors (new method)

 maximal supplied QI-value         = 19.84
 optimisation between [QCUT,QGAM] = [ 13.49, 26.99] = [ 50.98,203.92] Ry
 Optimized for a Real-space Cutoff    1.07 Angstroem

   l    n(q)    QCUT    max X(q) W(low)/X(q) W(high)/X(q)  e(spline)
   0      9    13.493   159.560    0.22E-03    0.15E-03    0.72E-07
   0      9    13.493   115.863    0.21E-03    0.15E-03    0.71E-07
   1      8    13.493    88.339    0.15E-03    0.11E-03    0.13E-06
   1      8    13.493    48.592    0.15E-03    0.10E-03    0.13E-06
 Optimization of the real space projectors (new method)

 maximal supplied QI-value         = 12.47
 optimisation between [QCUT,QGAM] = [ 12.47, 27.06] = [ 43.56,205.12] Ry
 Optimized for a Real-space Cutoff    1.58 Angstroem

   l    n(q)    QCUT    max X(q) W(low)/X(q) W(high)/X(q)  e(spline)
   0     13    12.472    14.688    0.45E-04    0.45E-04    0.25E-05
   0     13    12.472     7.308    0.94E-04    0.11E-03    0.61E-05
   1     12    12.472    45.102    0.34E-03    0.14E-03    0.21E-05
   1     12    12.472    30.691    0.31E-03    0.13E-03    0.20E-05
   2     12    12.472     7.156    0.86E-04    0.11E-03    0.17E-05
 WARNING: PSMAXN for non-local potential too small
          PSMAXN should be >   13.5545592237991       NTYP=           2
  PAW_PBE Si 05Jan2001                  :
  PAW_PBE Sn 08Apr2002                  :

 POSCAR: Si+Sn
  positions in direct lattice

 exchange-correlation table for PE
   RHO(1)=    0.500       N(1)  =     2000
   RHO(2)=  100.500       N(2)  =     4000

 ion  position               nearest neighbor table
   1  0.000  0.994  0.000-  19 2.35  70 2.35 132 2.99
   2  0.000  0.827  0.119-  31 2.35  70 2.35  20 2.35  71 2.35
   3  0.000  0.661  0.238-  32 2.35  71 2.35  72 2.35  21 2.35
   4  0.500  0.994  0.000-  22 2.35  67 2.35 120 2.67 102 2.94
   5  0.500  0.827  0.119-  34 2.35  67 2.35  23 2.35  68 2.35
   6  0.500  0.661  0.238-  35 2.35  68 2.35  69 2.35  24 2.35
   7  0.000  0.327  0.000-  58 2.35  25 2.35  96 2.68 114 2.99 144 3.44
   8  0.000  0.161  0.119-  58 2.35  26 2.35  19 2.35  59 2.35
   9  0.000  0.994  0.238-  59 2.35  20 2.35  27 2.35  60 2.35
  10  0.500  0.327  0.000-  28 2.35  55 2.35  84 2.95
  11  0.500  0.161  0.119-  29 2.35  55 2.35  22 2.35  56 2.35
  12  0.500  0.994  0.238-  23 2.35  30 2.35  56 2.35  57 2.35
  13  0.000  0.661  0.000-  64 2.35  31 2.35  78 2.69 126 3.45
  14  0.000  0.494  0.119-  65 2.35  25 2.35  32 2.35  64 2.35
  15  0.000  0.327  0.238-  33 2.35  66 2.35  26 2.35  65 2.35
  16  0.500  0.661  0.000-  61 2.35  34 2.35 138 2.67
  17  0.500  0.494  0.119-  62 2.35  28 2.35  35 2.35  61 2.35
  18  0.500  0.327  0.238-  36 2.35  63 2.35  29 2.35  62 2.35
  19  0.125  0.077  0.060-   8 2.35  37 2.35   1 2.35  38 2.35
  20  0.125  0.911  0.179-   9 2.35   2 2.35  38 2.35  39 2.35
  21  0.125  0.744  0.298-  39 2.35   3 2.35 109 2.64
  22  0.625  0.077  0.060-  11 2.35   4 2.35  40 2.35  41 2.35
  23  0.625  0.911  0.179-  12 2.35   5 2.35  41 2.35  42 2.35
  24  0.625  0.744  0.298-  42 2.35   6 2.35 103 2.81 133 3.17
  25  0.125  0.411  0.060-   7 2.35  44 2.35  14 2.35  43 2.35
  26  0.125  0.244  0.179-   8 2.35  45 2.35  15 2.35  44 2.35
  27  0.125  0.077  0.298-   9 2.35  45 2.35 127 2.64  73 2.77
  28  0.625  0.411  0.060-  10 2.35  17 2.35  47 2.35  46 2.35
  29  0.625  0.244  0.179-  11 2.35  18 2.35  48 2.35  47 2.35
  30  0.625  0.077  0.298-  12 2.35  48 2.35 121 3.23
  31  0.125  0.744  0.060-   2 2.35  13 2.35  49 2.35  50 2.35
  32  0.125  0.577  0.179-   3 2.35  51 2.35  14 2.35  50 2.35
  33  0.125  0.411  0.298-  15 2.35  51 2.35  91 2.78
  34  0.625  0.744  0.060-   5 2.35  16 2.35  52 2.35  53 2.35
  35  0.625  0.577  0.179-   6 2.35  54 2.35  17 2.35  53 2.35
  36  0.625  0.411  0.298-  18 2.35  54 2.35  85 2.80 115 3.17 139 3.23
  37  0.250  0.161  0.000-  19 2.35  55 2.35  96 3.45
  38  0.250  0.994  0.119-  67 2.35  20 2.35  19 2.35  56 2.35
  39  0.250  0.827  0.238-  68 2.35  21 2.35  20 2.35  57 2.35
  40  0.750  0.161  0.000-  58 2.35  22 2.35  90 2.67 144 2.69
  41  0.750  0.994  0.119-  70 2.35  59 2.35  23 2.35  22 2.35
  42  0.750  0.827  0.238-  71 2.35  60 2.35  24 2.35  23 2.35
  43  0.250  0.494  0.000-  25 2.35  61 2.35 114 2.94  84 2.99
  44  0.250  0.327  0.119-  55 2.35  25 2.35  26 2.35  62 2.35
  45  0.250  0.161  0.238-  56 2.35  26 2.35  27 2.35  63 2.35
  46  0.750  0.494  0.000-  28 2.35  64 2.35 108 2.67
  47  0.750  0.327  0.119-  58 2.35  28 2.35  29 2.35  65 2.35
  48  0.750  0.161  0.238-  59 2.35  29 2.35  66 2.35  30 2.35
  49  0.250  0.827  0.000-  67 2.35  31 2.35 132 2.95 102 2.99  78 3.44
  50  0.250  0.661  0.119-  61 2.35  68 2.35  31 2.35  32 2.35
  51  0.250  0.494  0.238-  69 2.35  62 2.35  32 2.35  33 2.35
  52  0.750  0.827  0.000-  70 2.35  34 2.35 126 2.68
  53  0.750  0.661  0.119-  64 2.35  71 2.35  34 2.35  35 2.35
  54  0.750  0.494  0.238-  72 2.35  65 2.35  35 2.35  36 2.35
  55  0.375  0.244  0.060-  11 2.35  44 2.35  10 2.35  37 2.35
  56  0.375  0.077  0.179-  45 2.35  12 2.35  11 2.35  38 2.35
  57  0.375  0.911  0.298-  39 2.35  12 2.35 133 2.80
  58  0.875  0.244  0.060-   8 2.35  47 2.35   7 2.35  40 2.35
  59  0.875  0.077  0.179-  48 2.35   9 2.35   8 2.35  41 2.35
  60  0.875  0.911  0.298-  42 2.35   9 2.35 121 2.78 103 3.17  73 3.23
[...]
 130  0.130  0.411  0.699- 100 2.72  95 2.82  75 2.82  76 2.86
 131  0.130  0.161  0.800- 101 2.72  76 2.82  96 2.82  77 2.86
 132  0.130  0.911  0.901- 102 2.72  77 2.82  78 2.86  49 2.95   1 2.99
 133  0.463  0.828  0.397- 103 2.72  57 2.80  98 2.82  79 2.86  24 3.17
 134  0.463  0.578  0.498- 104 2.72  79 2.82  99 2.82  80 2.86
 135  0.463  0.328  0.599- 105 2.72 100 2.82  80 2.82  81 2.86
 136  0.463  0.078  0.699- 106 2.72 101 2.82  81 2.82  82 2.86
 137  0.463  0.828  0.800- 107 2.72 102 2.82  82 2.82  83 2.86
 138  0.463  0.578  0.901-  16 2.67 108 2.72  83 2.82  84 2.86
 139  0.796  0.494  0.397-  91 2.72  72 2.77 104 2.82  85 2.86  36 3.23
 140  0.796  0.244  0.498-  92 2.72  85 2.82 105 2.82  86 2.86
 141  0.796  0.994  0.599-  93 2.72 106 2.82  86 2.82  87 2.86
 142  0.796  0.744  0.699-  94 2.72 107 2.82  87 2.82  88 2.86
 143  0.796  0.494  0.800-  95 2.72 108 2.82  88 2.82  89 2.86
 144  0.796  0.244  0.901-  40 2.69  96 2.72  89 2.82  90 2.86   7 3.44

  LATTYP: Found a simple orthorhombic cell.
 ALAT       =    10.8620004650
 B/A-ratio  =     1.5000000440
 C/A-ratio  =     2.0976556488

  Lattice vectors:

 A1 = (  10.8620004650,   0.0000000000,   0.0000000000)
 A2 = (   0.0000000000,  16.2930011750,   0.0000000000)
 A3 = (   0.0000000000,   0.0000000000,  22.7847366330)

Analysis of symmetry for initial positions (statically):
 Subroutine PRICEL returns:
 Original cell was already a primitive cell.

 Routine SETGRP: Setting up the symmetry group for a
 simple orthorhombic supercell.

 Subroutine GETGRP returns: Found  1 space group operations
 (whereof  1 operations were pure point group operations)
 out of a pool of  8 trial point group operations.

The static configuration has the point symmetry C_1 .

Analysis of symmetry for dynamics (positions and initial velocities):
 Subroutine PRICEL returns:
 Original cell was already a primitive cell.

[...]

The dynamic configuration has the point symmetry C_1 .

Analysis of structural, dynamic, and magnetic symmetry:
 Subroutine PRICEL returns:
 Original cell was already a primitive cell.

 Routine SETGRP: Setting up the symmetry group for a
 simple orthorhombic supercell.

 Subroutine GETGRP returns: Found  1 space group operations
 (whereof  1 operations were pure point group operations)
 out of a pool of  8 trial point group operations.

The overall configuration has the point symmetry C_1 .

 Subroutine INISYM returns: Found  1 space group operations
 (whereof  1 operations are pure point group operations),
 and found     1 'primitive' translations

                                     Primitive cell

  volume of cell :    4032.3193

  direct lattice vectors                    reciprocal lattice vectors
    10.862000465  0.000000000  0.000000000     0.092064073  0.000000000  0.000000000
     0.000000000 16.293001175  0.000000000     0.000000000  0.061376047  0.000000000
     0.000000000  0.000000000 22.784736633     0.000000000  0.000000000  0.043889030

  length of vectors
    10.862000465 16.293001175 22.784736633     0.092064073  0.061376047  0.043889030

  position of ions in fractional coordinates (direct lattice)
     0.000000000  0.994067729  0.000000000
     0.000000000  0.827401042  0.119180664
     0.000000000  0.660734296  0.238361344
     0.500000000  0.994067729  0.000000000
     0.500000000  0.827401042  0.119180664
     0.500000000  0.660734296  0.238361344
     0.000000000  0.327401072  0.000000000
     0.000000000  0.160734385  0.119180664
     0.000000000  0.994067669  0.238361344
     0.500000000  0.327401072  0.000000000
     0.500000000  0.160734385  0.119180664
     0.500000000  0.994067669  0.238361344
     0.000000000  0.660734475  0.000000000
     0.000000000  0.494067729  0.119180664
     0.000000000  0.327401042  0.238361344
[...]
     0.000000000  0.000000000 22.784736633     0.000000000  0.000000000  0.043889030

  length of vectors
    10.862000465 16.293001175 22.784736633     0.092064073  0.061376047  0.043889030

 FORCES acting on ions
    electron-ion (+dipol)            ewald-force                    non-local-force                 convergence-correction
   0.445E+01 -.535E+01 0.135E+03   -.558E+01 0.650E+01 -.135E+03   0.130E+01 -.135E+01 -.114E+01   0.472E-04 0.214E-04 0.583E-03
   0.191E+00 -.618E+00 0.268E+02   -.255E+00 0.336E+00 -.269E+02   0.138E+00 0.228E+00 0.172E+00   0.336E-04 -.105E-04 0.321E-03
   0.360E+01 -.168E+01 -.803E+02   -.263E+01 0.265E+01 0.802E+02   -.779E+00 -.752E+00 0.447E+00   -.985E-04 0.813E-05 -.238E-03
   -.608E+01 0.703E+01 0.117E+03   0.636E+01 -.724E+01 -.115E+03   -.832E-01 -.235E+00 -.116E+01   -.355E-04 -.264E-04 0.516E-03
   -.242E+00 0.477E+00 0.297E+02   0.254E+00 -.335E+00 -.290E+02   -.115E+00 -.923E-01 -.641E+00   -.160E-04 0.311E-04 0.285E-03
   -.353E+01 0.174E+01 -.800E+02   0.264E+01 -.265E+01 0.799E+02   0.712E+00 0.693E+00 0.319E+00   0.973E-04 -.172E-04 -.225E-03
   0.631E+01 -.768E+01 0.117E+03   -.663E+01 0.789E+01 -.116E+03   0.745E-01 0.196E+00 -.927E+00   0.267E-04 0.209E-04 0.542E-03
   -.947E+00 0.551E+00 0.282E+02   0.409E+00 -.642E+00 -.279E+02   0.463E+00 0.106E+00 -.232E+00   0.227E-05 0.533E-06 0.327E-03
   -.167E+01 0.957E+00 -.765E+02   0.831E+00 -.127E+01 0.763E+02   0.447E+00 0.482E+00 0.132E+00   -.666E-04 -.176E-04 -.214E-03
   -.481E+01 0.609E+01 0.134E+03   0.594E+01 -.720E+01 -.134E+03   -.127E+01 0.132E+01 -.127E+01   -.435E-04 -.248E-04 0.589E-03
   0.931E+00 -.528E+00 0.283E+02   -.409E+00 0.642E+00 -.280E+02   -.464E+00 -.166E+00 -.320E+00   -.864E-05 0.201E-04 0.344E-03
   0.150E+01 -.119E+01 -.838E+02   -.894E+00 0.127E+01 0.837E+02   -.392E+00 -.255E+00 0.327E+00   0.149E-04 -.234E-05 -.243E-03
   -.370E+01 0.149E+02 0.126E+03   0.458E+01 -.144E+02 -.124E+03   -.249E+00 -.201E+00 -.149E+01   0.901E-04 -.340E-04 0.654E-03
   0.229E+00 -.439E+00 0.297E+02   -.235E+00 0.306E+00 -.291E+02   0.116E+00 0.683E-01 -.594E+00   0.984E-05 -.348E-04 0.280E-03
   -.166E+01 0.128E+01 -.837E+02   0.997E+00 -.138E+01 0.836E+02   0.431E+00 0.273E+00 0.389E+00   -.316E-04 0.812E-05 -.243E-03
   0.382E+01 -.151E+02 0.126E+03   -.467E+01 0.145E+02 -.124E+03   0.238E+00 0.263E+00 -.144E+01   -.817E-04 0.494E-04 0.635E-03
   -.139E+00 0.571E+00 0.268E+02   0.237E+00 -.307E+00 -.268E+02   -.168E+00 -.255E+00 0.109E+00   -.142E-04 -.172E-04 0.353E-03
   0.180E+01 -.106E+01 -.765E+02   -.942E+00 0.138E+01 0.763E+02   -.452E+00 -.499E+00 0.541E-01   0.838E-04 0.326E-04 -.203E-03
   0.724E+00 -.593E+00 0.839E+02   -.406E+00 0.628E+00 -.840E+02   -.194E+00 -.145E+00 -.913E-01   0.111E-04 0.114E-04 0.566E-03
   -.347E+00 0.538E+00 -.296E+02   0.334E+00 -.466E+00 0.288E+02   -.326E-01 0.300E-01 0.825E+00   -.102E-04 0.114E-04 0.142E-04
   0.503E+01 -.146E+02 -.127E+03   -.570E+01 0.142E+02 0.126E+03   0.142E+00 0.288E+00 0.134E+01   -.882E-04 0.839E-04 -.382E-03
   -.844E+00 0.466E+00 0.766E+02   0.351E+00 -.622E+00 -.761E+02   0.262E+00 0.253E+00 -.498E+00   -.552E-04 -.177E-04 0.560E-03
   0.422E+00 -.781E+00 -.269E+02   -.334E+00 0.466E+00 0.271E+02   -.944E-02 0.250E+00 -.340E+00   0.273E-04 -.231E-04 0.645E-04
   -.412E+01 0.137E+02 -.125E+03   0.492E+01 -.134E+02 0.124E+03   -.142E+00 0.433E-01 0.148E+01   0.895E-04 -.166E-04 -.410E-03
   0.214E+01 -.179E+01 0.766E+02   -.155E+01 0.192E+01 -.768E+02   -.231E+00 -.296E+00 0.318E+00   -.103E-04 -.516E-05 0.533E-03
   0.749E+00 -.509E+00 -.289E+02   -.402E+00 0.616E+00 0.283E+02   -.349E+00 -.183E+00 0.660E+00   -.271E-04 0.992E-05 -.141E-04
   -.356E+01 0.368E+01 -.114E+03   0.363E+01 -.372E+01 0.112E+03   -.288E-01 -.293E+00 0.165E+01   -.332E-04 -.963E-05 -.272E-03
   -.240E+01 0.160E+01 0.833E+02   0.155E+01 -.192E+01 -.831E+02   0.609E+00 0.417E+00 -.677E+00   0.362E-04 -.130E-04 0.591E-03
   -.846E+00 0.684E+00 -.275E+02   0.400E+00 -.615E+00 0.276E+02   0.349E+00 -.418E-01 -.154E+00   0.242E-05 0.106E-04 0.738E-04
   0.221E+01 -.225E+01 -.136E+03   -.294E+01 0.307E+01 0.137E+03   0.907E+00 -.909E+00 0.294E+00   0.323E-04 0.321E-04 -.309E-03
   -.289E+01 0.215E+01 0.783E+02   0.248E+01 -.255E+01 -.786E+02   0.268E+00 0.269E+00 0.289E+00   0.404E-04 0.227E-05 0.533E-03
   0.280E-01 0.310E+00 -.269E+02   0.121E+00 -.150E+00 0.267E+02   -.179E+00 -.161E+00 0.970E-01   -.369E-04 -.345E-04 -.201E-04
   -.606E+01 0.980E+01 -.132E+03   0.699E+01 -.104E+02 0.131E+03   -.788E+00 0.835E+00 0.156E+01   0.109E-05 -.562E-04 -.375E-03
   0.353E+01 -.166E+01 0.817E+02   -.242E+01 0.254E+01 -.814E+02   -.879E+00 -.751E+00 -.788E+00   -.385E-04 0.536E-04 0.566E-03
   0.182E+00 -.213E+00 -.297E+02   -.119E+00 0.150E+00 0.292E+02   0.462E-01 0.571E-01 0.393E+00   0.513E-04 -.378E-04 0.121E-03
   0.658E+01 -.102E+02 -.120E+03   -.690E+01 0.103E+02 0.120E+03   -.528E-01 -.183E-01 0.506E+00   0.501E-05 -.301E-05 -.330E-03
   -.255E+00 0.257E+00 0.136E+03   0.337E+00 -.354E+00 -.137E+03   -.103E+00 0.110E+00 -.395E-02   -.779E-05 -.308E-06 0.547E-03
   0.663E+00 -.777E+00 0.272E+02   -.380E+00 0.564E+00 -.274E+02   -.194E+00 0.162E+00 0.327E+00   0.140E-04 -.162E-04 0.276E-03
   0.297E+01 -.168E+01 -.827E+02   -.198E+01 0.226E+01 0.825E+02   -.756E+00 -.580E+00 0.820E+00   -.231E-04 0.485E-04 -.256E-03
   0.416E+00 -.484E+00 0.113E+03   -.426E+00 0.476E+00 -.111E+03   0.117E-01 0.596E-01 -.168E+01   0.133E-04 0.324E-05 0.507E-03
   -.548E+00 0.528E+00 0.293E+02   0.381E+00 -.565E+00 -.285E+02   0.167E+00 0.131E+00 -.817E+00   0.331E-05 -.290E-05 0.366E-03
   -.233E+01 0.223E+01 -.771E+02   0.203E+01 -.227E+01 0.775E+02   0.661E-01 0.895E-01 -.509E+00   0.219E-04 -.239E-05 -.205E-03
   0.526E+01 -.123E+02 0.123E+03   -.581E+01 0.122E+02 -.122E+03   -.103E-01 -.129E+00 -.105E+01   -.655E-04 -.213E-04 0.622E-03
   -.609E+00 0.795E+00 0.271E+02   0.374E+00 -.547E+00 -.273E+02   0.148E+00 -.198E+00 0.347E+00   -.274E-04 0.189E-04 0.282E-03
   0.112E+00 -.311E-01 -.767E+02   -.336E-01 0.625E-01 0.761E+02   -.461E-01 -.456E-01 0.646E+00   0.401E-05 0.585E-05 -.236E-03
   -.592E+01 0.130E+02 0.129E+03   0.659E+01 -.129E+02 -.128E+03   -.263E+00 0.827E-01 -.146E+01   0.732E-04 -.650E-04 0.605E-03
   0.494E+00 -.536E+00 0.293E+02   -.375E+00 0.548E+00 -.286E+02   -.114E+00 -.117E+00 -.839E+00   0.102E-04 0.713E-05 0.376E-03
   -.850E-01 0.571E-01 -.840E+02   0.415E-01 -.644E-01 0.840E+02   0.265E-01 0.163E-01 0.635E-02   0.173E-05 0.221E-04 -.237E-03
   -.566E+01 0.118E+02 0.123E+03   0.614E+01 -.118E+02 -.122E+03   0.324E-01 0.128E+00 -.835E+00   0.275E-04 0.175E-04 0.617E-03
   -.306E-01 0.287E-01 0.297E+02   0.131E-01 -.167E-01 -.292E+02   -.258E-02 -.140E-01 -.324E+00   -.220E-04 0.985E-05 0.227E-03
   -.312E+01 0.167E+01 -.826E+02   0.208E+01 -.232E+01 0.823E+02   0.799E+00 0.617E+00 0.833E+00   0.208E-04 -.633E-04 -.256E-03
   0.613E+01 -.125E+02 0.130E+03   -.683E+01 0.125E+02 -.128E+03   0.347E+00 -.223E+00 -.148E+01   -.478E-04 0.546E-04 0.596E-03
   -.943E-02 -.391E-01 0.269E+02   -.135E-01 0.168E-01 -.266E+02   0.265E-01 0.192E-01 -.142E+00   0.136E-04 -.317E-05 0.376E-03
   0.241E+01 -.227E+01 -.773E+02   -.214E+01 0.233E+01 0.777E+02   -.640E-01 -.869E-01 -.506E+00   -.328E-04 -.204E-04 -.197E-03
   -.883E+00 0.708E+00 0.839E+02   0.495E+00 -.752E+00 -.839E+02   0.239E+00 0.164E+00 -.133E+00   -.220E-04 -.132E-04 0.575E-03
   -.803E+00 0.505E+00 -.288E+02   0.404E+00 -.625E+00 0.282E+02   0.392E+00 0.195E+00 0.599E+00   0.187E-04 -.383E-06 -.955E-05
   0.597E+01 -.903E+01 -.132E+03   -.695E+01 0.978E+01 0.131E+03   0.917E+00 -.968E+00 0.154E+01   0.974E-06 0.495E-04 -.356E-03
   0.106E+01 -.525E+00 0.766E+02   -.432E+00 0.743E+00 -.761E+02   -.346E+00 -.346E+00 -.418E+00   0.704E-04 0.331E-04 0.565E-03
   0.890E+00 -.650E+00 -.276E+02   -.402E+00 0.624E+00 0.277E+02   -.388E+00 0.867E-02 -.814E-01   0.619E-05 0.177E-04 0.607E-04
   -.673E+01 0.964E+01 -.120E+03   0.704E+01 -.986E+01 0.119E+03   0.152E-01 0.995E-03 0.533E+00   0.213E-05 -.794E-05 -.326E-03
[...]
   0.243E+01 0.182E+01 0.605E+02   -.253E+01 -.189E+01 -.602E+02   -.471E+00 -.421E+00 -.293E+00   0.252E-04 -.175E-04 -.256E-03
   0.106E+02 -.918E+01 0.106E+03   -.985E+01 0.903E+01 -.107E+03   -.195E+01 0.496E+00 0.196E+01   0.547E-04 0.873E-04 0.169E-04
   0.956E+01 -.558E+01 -.106E+03   -.872E+01 0.567E+01 0.107E+03   -.179E+01 0.287E+00 -.164E+01   0.261E-04 0.926E-04 -.104E-03
   0.235E+01 0.183E+01 -.604E+02   -.223E+01 -.192E+01 0.603E+02   -.654E+00 -.181E+00 0.533E-01   0.413E-04 -.754E-04 0.181E-04
   0.308E+01 0.121E+01 -.206E+02   -.306E+01 -.102E+01 0.206E+02   -.601E+00 -.413E+00 0.425E-01   0.155E-04 -.105E-03 -.735E-04
   0.328E+01 0.912E+00 0.205E+02   -.306E+01 -.102E+01 -.206E+02   -.839E+00 -.171E+00 0.737E-01   -.689E-06 0.695E-04 -.198E-03
   0.248E+01 0.194E+01 0.601E+02   -.231E+01 -.191E+01 -.600E+02   -.761E+00 -.345E+00 -.118E+00   0.158E-05 0.106E-03 -.214E-03
   0.102E+02 -.280E+01 0.109E+03   -.978E+01 0.267E+01 -.109E+03   -.904E+00 0.484E+00 0.674E+00   -.650E-04 -.272E-05 0.734E-04
   0.102E+02 -.529E+01 -.108E+03   -.101E+02 0.500E+01 0.109E+03   -.691E+00 0.726E+00 -.981E+00   -.929E-04 -.569E-04 -.176E-03
   0.229E+01 0.199E+01 -.607E+02   -.251E+01 -.189E+01 0.603E+02   -.302E+00 -.527E+00 0.578E+00   -.927E-05 -.924E-04 0.468E-04
   0.320E+01 0.958E+00 -.205E+02   -.306E+01 -.102E+01 0.206E+02   -.804E+00 -.185E+00 -.192E-01   -.370E-05 0.112E-03 -.913E-04
   0.309E+01 0.104E+01 0.206E+02   -.305E+01 -.103E+01 -.206E+02   -.682E+00 -.229E+00 -.164E-01   0.802E-05 0.713E-04 -.240E-03
   0.232E+01 0.196E+01 0.606E+02   -.228E+01 -.191E+01 -.604E+02   -.525E+00 -.272E+00 -.220E+00   0.291E-04 -.134E-03 -.238E-03
   0.978E+01 -.143E+02 0.109E+03   -.961E+01 0.142E+02 -.109E+03   -.139E+01 0.447E+00 0.944E-01   0.434E-04 0.457E-05 -.472E-04
   0.449E-02 -.639E-01 0.130E-01   -.639E-13 0.551E-13 -.924E-12   -.420E-01 0.327E-01 0.136E+00   -.435E-05 0.854E-05 0.427E-02

 POSITION                                       TOTAL-FORCE (eV/Angst)
      0.00000     16.19635      0.00000         0.177157     -0.197991     -0.814583
      0.00000     13.48085      2.71550         0.073312     -0.053206      0.120427
      0.00000     10.76534      5.43100         0.188309      0.215030      0.333038
      5.43100     16.19635      0.00000         0.194507     -0.443152      0.338199
      5.43100     13.48085      2.71550        -0.102401      0.049452     -0.002393
      5.43100     10.76534      5.43100        -0.177632     -0.222548      0.273140
      0.00000      5.33435      0.00000        -0.240519      0.408038      0.332045
      0.00000      2.61885      2.71550        -0.075281      0.016186      0.020887
      0.00000     16.19635      5.43100        -0.394800      0.171617     -0.069634
      5.43100      5.33435      0.00000        -0.138485      0.216777     -0.754340
      5.43100      2.61885      2.71550         0.058178     -0.051948      0.005676
      5.43100     16.19635      5.43100         0.214790     -0.172398      0.257204
      0.00000     10.76535      0.00000         0.626970      0.353450      0.123632
      0.00000      8.04985      2.71550         0.110307     -0.064867      0.014833
      0.00000      5.33435      5.43100        -0.227669      0.168521      0.296192
      5.43100     10.76535      0.00000        -0.611077     -0.311623      0.170340
      5.43100      8.04985      2.71550        -0.069619      0.009381      0.111751
      5.43100      5.33435      5.43100         0.406166     -0.182558     -0.068064
      1.35775      1.26110      1.35775         0.124118     -0.109703     -0.111859
      1.35775     14.83860      4.07325        -0.045774      0.102741      0.064252
      1.35775     12.12310      6.78875        -0.528544     -0.167982     -0.198185
      6.78875      1.26110      1.35775        -0.230237      0.097823      0.027828
      6.78875     14.83860      4.07325         0.078799     -0.064824     -0.143994
      6.78875     12.12310      6.78875         0.658718      0.383146      0.030097
      1.35775      6.69210      1.35775         0.351391     -0.165098      0.095520
      1.35775      3.97659      4.07325        -0.000645     -0.075653      0.051327
      1.35775      1.26109      6.78875         0.044007     -0.329246     -0.383472
      6.78875      6.69210      1.35775        -0.239522      0.099774     -0.472978
      6.78875      3.97659      4.07325        -0.097046      0.027416     -0.092646
      6.78875      1.26109      6.78875         0.172115     -0.086079      1.005700
      1.35775     12.12310      1.35775        -0.142552     -0.127947     -0.010481
      1.35775      9.40760      4.07325        -0.030252     -0.001697     -0.094780
      1.35775      6.69209      6.78875         0.134879      0.228614      0.381288
      6.78875     12.12310      1.35775         0.234422      0.128778     -0.520012
      6.78875      9.40760      4.07325         0.109607     -0.005743     -0.080418
      6.78875      6.69209      6.78875        -0.364052      0.154833     -0.119943
      2.71550      2.61885      0.00000        -0.019940      0.013822     -1.042273
      2.71550     16.19635      2.71550         0.089774     -0.050755      0.126346
      2.71550     13.48085      5.43100         0.243255     -0.000582      0.559687
      8.14650      2.61885      0.00000         0.002215      0.052277      0.396141
      8.14650     16.19635      2.71550         0.000319      0.094186     -0.077350
      8.14650     13.48085      5.43100        -0.231274      0.053435     -0.103270
      2.71550      8.04985      0.00000        -0.558346     -0.200245     -0.051559
      2.71550      5.33435      2.71550        -0.087127      0.049915      0.131114
      2.71550      2.61884      5.43100         0.032391     -0.013972      0.012738
      8.14650      8.04985      0.00000         0.408280      0.164794      0.003172
      8.14650      5.33435      2.71550         0.005462     -0.104551     -0.079060
      8.14650      2.61884      5.43100        -0.016740      0.009255      0.059189
      2.71550     13.48085      0.00000         0.508529      0.114184     -0.035710
      2.71550     10.76535      2.71550        -0.019763     -0.001758      0.097694
      2.71550      8.04985      5.43100        -0.244162     -0.039122      0.563270
      8.14650     13.48085      0.00000        -0.355573     -0.166307     -0.052531
      8.14650     10.76535      2.71550         0.003889     -0.002968      0.083115
      8.14650      8.04985      5.43100         0.202365     -0.021395     -0.093736
      4.07325      3.97660      1.35775        -0.148785      0.120500     -0.136778
      4.07325      1.26109      4.07325        -0.007051      0.075674      0.041009
      4.07325     14.83859      6.78875        -0.064307     -0.217921      0.460489
      9.50425      3.97660      1.35775         0.283943     -0.127630      0.043121
      9.50425      1.26109      4.07325         0.100168     -0.017255     -0.077649
      9.50425     14.83859      6.78875         0.328635     -0.213578     -0.167628
[...]
      1.40804      6.69695     15.93388        -0.609904     -0.222442     -0.006242
      1.40803      2.62370     18.22816        -0.571164     -0.488990     -0.040691
      1.40803     14.84345     20.52244        -1.235317      0.338403      1.192244
      5.02870     13.48571      9.05105        -0.949945      0.378635     -0.881336
      5.02870      9.41246     11.34532        -0.533428     -0.273892     -0.035449
      5.02870      5.33920     13.63961        -0.573690     -0.223073     -0.011944
      5.02870      1.26595     15.93388        -0.618586     -0.279770     -0.001520
      5.02870     13.48570     18.22816        -0.588670     -0.322555      0.017712
      5.02870      9.41245     20.52244        -0.520063      0.355262     -0.001708
      8.64937      8.05471      9.05105        -0.661779      0.442032     -0.039213
      8.64937      3.98146     11.34532        -0.520364     -0.424565      0.146479
      8.64937     16.20121     13.63961        -0.654553     -0.247996      0.008096
      8.64937     12.12795     15.93388        -0.645867     -0.218170     -0.008364
      8.64937      8.05470     18.22816        -0.489354     -0.227232     -0.012684
      8.64937      3.98145     20.52244        -1.219416      0.372351     -0.105056
    total drift:                               -0.037482     -0.031231      0.152854

  FREE ENERGIE OF THE ION-ELECTRON SYSTEM (eV)
  free  energy   TOTEN  =      -627.39955356 eV

  energy  without entropy=     -627.39705193  energy(sigma->0) =     -627.39830274