 vasp.6.4.3 19Mar24 (build Oct 22 2024 11:23:12) complex

 executed on             LinuxIFC date 2025.06.04  01:18:42

 INCAR:
   SYSTEM = Si and Ge interface calculation
   ISTART = 0
   ICHARG = 2
   LWAVE = .FALSE.
   LREAL = AUTO
   ENCUT = 700
   ENAUG = 900
   ADDGRID = .TRUE.
   LMAXMIX = 6
   LASPH = .TRUE.
   LMIXTAU = .TRUE.
   NCORE = 16
   NELM = 100
   NBANDS = 144
   EDIFF = 1d-7
   AMIX = 0.6
   ISMEAR = 0
   SIGMA = 0.01
   NELECT = 240
   ISPIN = 2
   NUPDOWN = 1
   LVTOT = .FALSE.
   LVHAR = .TRUE.

 POTCAR:    PAW_PBE Ge 05Jan2001
 POTCAR:    PAW_PBE Si 05Jan2001
|           W    W    AA    RRRRR   N    N  II  N    N   GGGG   !!!           |
|           W    W   A  A   R    R  NN   N  II  NN   N  G    G  !!!           |
|           W    W  A    A  R    R  N N  N  II  N N  N  G       !!!           |
|           W WW W  AAAAAA  RRRRR   N  N N  II  N  N N  G  GGG   !            |
|           WW  WW  A    A  R   R   N   NN  II  N   NN  G    G                |
|           W    W  A    A  R    R  N    N  II  N    N   GGGG   !!!           |
|     You use a magnetic or noncollinear calculation, but did not specify     |
|     the initial magnetic moment with the MAGMOM tag. Note that a            |
|     default of 0.017 will be used for all atoms. This ferromagnetic         |
|     setup may break the symmetry of the crystal, in particular it may       |
|     rule out finding an antiferromagnetic solution. Thence, we              |
|     recommend setting the initial magnetic moment manually or verifying     |
|     carefully that this magnetic setup is desired.                          |

 POTCAR:    PAW_PBE Ge 05Jan2001
   VRHFIN =Ge: s2p2

   TITEL  = PAW_PBE Ge 05Jan2001
   POMASS =   72.610; ZVAL   =    4.000    mass and valenz
   ENMAX  =  173.807; ENMIN  =  130.355 eV

 POTCAR:    PAW_PBE Si 05Jan2001
   VRHFIN =Si: s2p2

   TITEL  = PAW_PBE Si 05Jan2001
   POMASS =   28.085; ZVAL   =    4.000    mass and valenz
   ENMAX  =  245.345; ENMIN  =  184.009 eV

 Optimization of the real space projectors (new method)

 maximal supplied QI-value         = 16.25
 optimisation between [QCUT,QGAM] = [ 13.49, 26.98] = [ 50.95,203.80] Ry
 Optimized for a Real-space Cutoff    1.25 Angstroem

   l    n(q)    QCUT    max X(q) W(low)/X(q) W(high)/X(q)  e(spline)
   0     10    13.489    65.336    0.91E-04    0.11E-03    0.34E-06
   0     10    13.489    52.220    0.89E-04    0.11E-03    0.34E-06
   1     10    13.489    36.409    0.22E-03    0.27E-03    0.14E-06
   1     10    13.489    21.334    0.21E-03    0.27E-03    0.14E-06
   2      9    13.489     4.673    0.11E-03    0.12E-03    0.19E-06
 Optimization of the real space projectors (new method)

 maximal supplied QI-value         = 19.84
 optimisation between [QCUT,QGAM] = [ 13.49, 26.99] = [ 50.98,203.92] Ry
 Optimized for a Real-space Cutoff    1.07 Angstroem

   l    n(q)    QCUT    max X(q) W(low)/X(q) W(high)/X(q)  e(spline)
   0      9    13.493   159.560    0.22E-03    0.15E-03    0.72E-07
   0      9    13.493   115.863    0.21E-03    0.15E-03    0.71E-07
   1      8    13.493    88.339    0.15E-03    0.11E-03    0.13E-06
   1      8    13.493    48.592    0.15E-03    0.10E-03    0.13E-06
  PAW_PBE Ge 05Jan2001                  :
  PAW_PBE Si 05Jan2001                  :

 POSCAR: Ge+Si
  positions in direct lattice

 exchange-correlation table for PE
   RHO(1)=    0.500       N(1)  =     2000
   RHO(2)=  100.500       N(2)  =     4000

 ion  position               nearest neighbor table
   1  0.000  0.994  0.000-  53 1.10  60 1.60  34 2.45  10 2.45  46 2.76
   2  0.000  0.828  0.249-  11 2.45  34 2.45  16 2.45  35 2.45
   3  0.000  0.661  0.498-  49 2.11  56 2.42  17 2.45  35 2.45  12 2.45  36 2.45
   4  0.000  0.328  0.000-  58 2.07  54 2.21  13 2.45  28 2.45  41 2.73  51 2.79  47 2.80
   5  0.000  0.161  0.249-  10 2.45  14 2.45  28 2.45  29 2.45
   6  0.000  0.994  0.498-  37 2.08  11 2.45  15 2.45  29 2.45  30 2.45
   7  0.000  0.661  0.000-  48 1.65  31 2.45  16 2.45  59 2.47  52 2.86
   8  0.000  0.494  0.249-  17 2.45  32 2.45  13 2.45  31 2.45
   9  0.000  0.328  0.498-  14 2.45  18 2.45  33 2.45  32 2.45  55 2.47
  10  0.250  0.078  0.124-   5 2.45  19 2.45   1 2.45  20 2.45  60 2.63  53 2.96
  11  0.250  0.911  0.373-   2 2.45  21 2.45   6 2.45  20 2.45
  12  0.250  0.744  0.622-  43 1.52  39 1.97  21 2.45   3 2.45  56 2.64  49 2.96
  13  0.250  0.411  0.124-   4 2.45  23 2.45  22 2.45   8 2.45  41 2.65  54 2.86
  14  0.250  0.244  0.373-   5 2.45  24 2.45   9 2.45  23 2.45
  15  0.250  0.078  0.622-  37 0.80  57 2.02   6 2.45  24 2.45  44 2.90
  16  0.250  0.744  0.124-  59 2.38   7 2.45  26 2.45  25 2.45   2 2.45  42 2.84
  17  0.250  0.578  0.373-  27 2.45   8 2.45   3 2.45  26 2.45  49 2.94
  18  0.250  0.411  0.622-  55 1.57  38 2.22   9 2.45  27 2.45  45 2.67  49 2.92  51 2.97
  19  0.500  0.161  0.000-  47 1.61  40 1.92  10 2.45  28 2.45  60 2.49  54 2.87
  20  0.500  0.994  0.249-  34 2.45  29 2.45  10 2.45  11 2.45
  21  0.500  0.828  0.498-  43 1.62  11 2.45  35 2.45  12 2.45  30 2.45  50 2.89
  22  0.500  0.494  0.000-  41 2.39  13 2.45  31 2.45  48 2.46  45 2.75  52 2.89  54 2.92
  23  0.500  0.328  0.249-  28 2.45  13 2.45  14 2.45  32 2.45  54 2.90
  24  0.500  0.161  0.498-  29 2.45  14 2.45  15 2.45  33 2.45  37 2.99
  25  0.500  0.828  0.000-  42 0.62  59 2.08  34 2.45  16 2.45  46 2.78
  26  0.500  0.661  0.249-  31 2.45  16 2.45  17 2.45  35 2.45
  27  0.500  0.494  0.498-  17 2.45  32 2.45  36 2.45  18 2.45  38 2.62  49 2.97
  28  0.750  0.244  0.124-  54 2.14  23 2.45  19 2.45   5 2.45   4 2.45
  29  0.750  0.078  0.373-  24 2.45   6 2.45  20 2.45   5 2.45
  30  0.750  0.911  0.622-  50 1.20   6 2.45  21 2.45  43 2.64  46 2.71
  31  0.750  0.578  0.124-  48 1.54   7 2.45  26 2.45   8 2.45  22 2.45
  32  0.750  0.411  0.373-  27 2.45   8 2.45   9 2.45  23 2.45
  33  0.750  0.244  0.622-  44 1.57   9 2.45  24 2.45  55 2.61  51 2.71
  34  0.750  0.911  0.124-  42 2.17   1 2.45   2 2.45  25 2.45  20 2.45
  35  0.750  0.744  0.373-  21 2.45   3 2.45   2 2.45  26 2.45
  36  0.750  0.578  0.622-  56 1.98  49 2.03  27 2.45   3 2.45  52 2.82  38 2.83  45 2.93
  37  0.109  0.076  0.622-  15 0.80   6 2.08  44 2.37  57 2.38  24 2.99
  38  0.609  0.426  0.698-  18 2.22  45 2.37  55 2.37  58 2.38  27 2.62  36 2.83
  39  0.109  0.776  0.773-  12 1.97  56 2.37  46 2.37  59 2.38  43 2.38
  40  0.609  0.126  0.849-  19 1.92  47 2.37  57 2.37  44 2.38  60 2.38
  41  0.109  0.476  0.924-  48 2.37  58 2.37  45 2.38  22 2.39  13 2.65   4 2.73
  42  0.609  0.826  1.000-  25 0.62  34 2.17  59 2.37  46 2.38  16 2.84
  43  0.359  0.826  0.622-  12 1.52  21 1.62  50 2.37  39 2.38  30 2.64
  44  0.859  0.176  0.698-  33 1.57  51 2.37  37 2.37  40 2.38  15 2.90
  45  0.359  0.526  0.773-  38 2.37  52 2.37  41 2.38  49 2.38  18 2.67  22 2.75  36 2.93
  46  0.859  0.876  0.849-  39 2.37  53 2.37  50 2.38  42 2.38  30 2.71   1 2.76  25 2.78
  47  0.359  0.226  0.924-  19 1.61  40 2.37  54 2.37  51 2.38   4 2.80
  48  0.859  0.576  1.000-  31 1.54   7 1.65  41 2.37  52 2.38  22 2.46
  49  0.109  0.576  0.622-  36 2.03   3 2.11  56 2.37  45 2.38  18 2.92  17 2.94  12 2.96  27 2.97

  50  0.609  0.926  0.698-  30 1.20  43 2.37  57 2.37  46 2.38  21 2.89
  51  0.109  0.276  0.773-  44 2.37  58 2.37  47 2.38  55 2.38  33 2.71   4 2.79  18 2.97
  52  0.609  0.626  0.849-  59 2.37  45 2.37  56 2.38  48 2.38  36 2.82   7 2.86  22 2.89
  53  0.109  0.976  0.924-   1 1.10  60 2.37  46 2.37  57 2.38  10 2.96
  54  0.609  0.326  1.000-  28 2.14   4 2.21  47 2.37  58 2.38  13 2.86  19 2.87  23 2.90  22 2.92

  55  0.359  0.326  0.622-  18 1.57  38 2.37  51 2.38   9 2.47  33 2.61
  56  0.859  0.676  0.698-  36 1.98  39 2.37  49 2.37  52 2.38   3 2.42  12 2.64
  57  0.359  0.026  0.773-  15 2.02  50 2.37  40 2.37  53 2.38  37 2.38
  58  0.859  0.376  0.849-   4 2.07  51 2.37  41 2.37  38 2.38  54 2.38
  59  0.359  0.726  0.924-  25 2.08  52 2.37  42 2.37  16 2.38  39 2.38   7 2.47
  60  0.859  0.076  0.000-   1 1.60  53 2.37  40 2.38  19 2.49  10 2.63

  LATTYP: Found a simple orthorhombic cell.
 ALAT       =     5.6578001980
 B/A-ratio  =     2.0088796989
 C/A-ratio  =     2.9999999155

  Lattice vectors:

 A1 = (  -5.6578001980,   0.0000000000,   0.0000000000)
 A2 = (   0.0000000000,   0.0000000000,  11.3658399580)
 A3 = (   0.0000000000,  16.9734001160,   0.0000000000)

Analysis of symmetry for initial positions (statically):
 Subroutine PRICEL returns:
 Original cell was already a primitive cell.

 Routine SETGRP: Setting up the symmetry group for a
 simple orthorhombic supercell.

 Subroutine GETGRP returns: Found  1 space group operations
 (whereof  1 operations were pure point group operations)
 out of a pool of  8 trial point group operations.

The static configuration has the point symmetry C_1 .

Analysis of symmetry for dynamics (positions and initial velocities):
 Subroutine PRICEL returns:
 Original cell was already a primitive cell.

[...]

The dynamic configuration has the point symmetry C_1 .

Analysis of structural, dynamic, and magnetic symmetry:
 Subroutine PRICEL returns:
 Original cell was already a primitive cell.

 Routine SETGRP: Setting up the symmetry group for a
 simple orthorhombic supercell.

 Subroutine GETGRP returns: Found  1 space group operations
 (whereof  1 operations were pure point group operations)
 out of a pool of  8 trial point group operations.

The overall configuration has the point symmetry C_1 .

 Subroutine INISYM returns: Found  1 space group operations
 (whereof  1 operations are pure point group operations),
 and found     1 'primitive' translations

                                     Primitive cell

  volume of cell :    1091.4856

  direct lattice vectors                    reciprocal lattice vectors
     5.657800198  0.000000000  0.000000000     0.176747139  0.000000000  0.000000000
     0.000000000 16.973400116  0.000000000     0.000000000  0.058915715  0.000000000
     0.000000000  0.000000000 11.365839958     0.000000000  0.000000000  0.087982939

  length of vectors
     5.657800198 16.973400116 11.365839958     0.176747139  0.058915715  0.087982939

  position of ions in fractional coordinates (direct lattice)
     0.000000000  0.994305491  0.000000000
     0.000000000  0.827638865  0.248894915
     0.000000000  0.660972118  0.497789860
     0.000000000  0.327638835  0.000000000
     0.000000000  0.160972148  0.248894915
     0.000000000  0.994305432  0.497789860
     0.000000000  0.660972118  0.000000000
     0.000000000  0.494305462  0.248894915
     0.000000000  0.327638775  0.497789860
     0.249999985  0.077638842  0.124447457
     0.249999985  0.910972118  0.373342425
     0.249999985  0.744305491  0.622237384
     0.249999985  0.410972118  0.124447457
     0.249999985  0.244305432  0.373342425
     0.249999985  0.077638723  0.622237384
     0.249999985  0.744305491  0.124447457
     0.249999985  0.577638745  0.373342425
     0.249999985  0.410972089  0.622237384
     0.499999970  0.160972163  0.000000000
     0.499999970  0.994305491  0.248894915
     0.499999970  0.827638805  0.497789860
     0.499999970  0.494305462  0.000000000
[...]
     38      -2.0724      1.00000
     39      -1.9004      1.00000
     40      -1.7138      1.00000
     41      -1.6752      1.00000
     42      -1.5929      1.00000
     43      -1.3999      1.00000
     44      -1.3138      1.00000
     45      -1.1063      1.00000
     46      -0.9933      1.00000
     47      -0.9203      1.00000
     48      -0.7803      1.00000
     49      -0.7556      1.00000
     50      -0.5532      1.00000
     51      -0.4085      1.00000
     52      -0.2689      1.00000
     53      -0.1853      1.00000
     54      -0.0929      1.00000
     55       0.0718      1.00000
     56       0.2049      1.00000
     57       0.3159      1.00000
     58       0.4200      1.00000
     59       0.6042      1.00000
     60       0.7171      1.00000
[...]
    130       7.0268      0.00000
    131       7.0929      0.00000
    132       7.1954      0.00000
    133       7.2622      0.00000
    134       7.3256      0.00000
    135       7.4125      0.00000
    136       7.4750      0.00000
    137       7.5455      0.00000
    138       7.5814      0.00000
    139       7.6839      0.00000
    140       7.7618      0.00000
    141       7.8137      0.00000
    142       7.8861      0.00000
    143       7.9412      0.00000
    144       7.9885      0.00000

 soft charge-density along one line, spin component           1
         0         1         2         3         4         5         6         7         8         9
 total charge-density along one line

 soft charge-density along one line, spin component           2
         0         1         2         3         4         5         6         7         8         9
 total charge-density along one line

------------------------ aborting loop because EDIFF is reached ----------------------------------------

  FORCE on cell =-STRESS in cart. coord.  units (eV):
  Direction    XX          YY          ZZ          XY          YZ          ZX
  Alpha Z   422.65398   422.65398   422.65398
  Ewald   -1542.00094 -2041.75657 -2462.18958   139.64302   103.47615  -130.53484
  Hartree   424.23617   451.99780   -24.44367    68.94353    24.32393    -1.06006
  E(xc)    -854.27722  -854.66036  -853.81327     1.41216     0.28423     1.39294
  Local   -1333.21254 -1517.79423  -517.91138  -259.20078   -89.57506    -5.57615
  n-local  1920.36172  1996.77224  1977.69261   -11.17081    -7.13594    -6.23993
  augment   -91.58804  -112.07655  -101.36195    -4.30853     3.69640   -13.87759
  Kinetic  1994.68605  2027.80323  2024.55840    -4.25235    -4.59686     0.60187
  Fock        0.00000     0.00000     0.00000     0.00000     0.00000     0.00000
  Total     940.85918   372.93955   465.18514   -68.93376    30.47285  -155.29376
  in kB    1381.07485   547.43307   682.83916  -101.18697    44.73069  -227.95367

 VOLUME and BASIS-vectors are now :
  energy-cutoff  :      700.00
  volume of cell :     1091.49
      direct lattice vectors                 reciprocal lattice vectors
     5.657800198  0.000000000  0.000000000     0.176747139  0.000000000  0.000000000
     0.000000000 16.973400116  0.000000000     0.000000000  0.058915715  0.000000000
     0.000000000  0.000000000 11.365839958     0.000000000  0.000000000  0.087982939

  length of vectors
     5.657800198 16.973400116 11.365839958     0.176747139  0.058915715  0.087982939

 FORCES acting on ions
    electron-ion (+dipol)            ewald-force                    non-local-force                 convergence-correction
   -.328E+01 0.258E+02 -.612E+02   -.562E+02 -.620E+01 0.156E+03   -.111E+02 -.411E+01 0.269E+02   0.371E-03 0.471E-03 -.422E-03
   -.169E+01 0.737E+00 -.197E+02   0.203E+01 -.414E+00 0.197E+02   -.253E+00 -.148E+00 0.244E+00   0.214E-03 -.267E-03 0.358E-03
   0.653E+01 -.186E+02 0.791E+02   -.637E+01 0.195E+02 -.804E+02   -.869E+00 0.262E+01 -.410E+01   -.172E-04 -.561E-03 0.254E-03
   -.266E+02 0.149E+02 -.534E+02   0.287E+02 -.158E+02 0.539E+02   0.334E+01 -.163E+01 0.393E+01   -.312E-04 0.494E-03 -.295E-03
   -.147E+01 -.412E+01 -.208E+02   0.209E+01 0.365E+01 0.211E+02   -.355E+00 0.625E+00 -.691E-01   -.292E-04 0.396E-03 -.259E-03
   0.112E+02 0.234E+02 0.647E+02   -.122E+02 -.240E+02 -.647E+02   -.594E+00 -.284E+01 -.410E+01   0.136E-03 0.109E-03 -.284E-03
   -.217E+02 -.437E+02 -.286E+02   0.277E+02 0.541E+02 0.272E+02   0.797E+01 0.158E+02 0.724E+00   0.144E-03 -.102E-02 -.235E-03
   -.167E+01 0.285E+01 -.243E+02   0.208E+01 -.323E+01 0.243E+02   -.504E+00 0.360E+00 0.538E+00   0.882E-04 -.169E-03 -.185E-03
   0.147E+02 -.383E+01 0.548E+02   -.157E+02 0.321E+01 -.555E+02   -.673E+00 0.409E-01 -.491E+00   0.581E-04 0.538E-03 0.341E-03
   -.128E+02 -.180E+01 -.535E+02   0.133E+02 0.252E+01 0.544E+02   0.213E+00 -.135E+00 0.499E+00   -.116E-03 0.354E-03 -.277E-03
   0.285E+01 -.238E+01 0.242E+02   -.245E+01 0.224E+01 -.244E+02   -.101E+00 0.405E+00 -.505E+00   -.130E-03 -.137E-03 -.184E-03
   -.323E+01 0.530E+02 0.487E+02   -.463E+01 -.734E+02 -.508E+02   -.718E+01 -.231E+02 -.374E+01   0.144E-04 -.300E-03 0.390E-03
   0.515E+00 0.573E+00 -.545E+02   -.570E+00 -.119E+00 0.549E+02   -.221E+00 -.326E+00 0.480E+00   0.621E-04 0.228E-05 -.551E-03
   0.960E+00 0.237E+01 0.241E+02   -.103E+01 -.235E+01 -.242E+02   -.965E-01 -.150E+00 -.718E-01   -.867E-04 0.575E-03 -.199E-04
   -.367E+02 -.124E+02 0.458E+02   0.343E+03 0.224E+02 -.460E+02   0.259E+02 0.310E+01 -.363E+01   0.503E-04 0.359E-03 0.397E-03
   0.143E+02 0.184E+01 -.626E+02   -.149E+02 -.225E+01 0.635E+02   0.223E+00 0.768E+00 0.853E+00   -.546E-03 -.794E-03 0.219E-03
   -.472E+01 -.517E-02 0.271E+02   0.437E+01 0.104E+00 -.274E+02   0.428E+00 -.459E-01 -.518E+00   0.837E-04 -.328E-03 0.186E-03
   0.450E+02 -.394E+02 0.343E+02   -.532E+02 0.563E+02 -.343E+02   -.103E+02 0.196E+02 -.967E+00   0.925E-04 0.137E-03 0.434E-03
   0.417E+00 0.249E+02 -.761E+02   0.394E+01 -.335E+02 0.874E+02   0.645E+01 -.110E+02 0.155E+02   -.862E-04 0.499E-03 -.193E-03
   0.143E+01 -.155E+00 -.192E+02   -.191E+01 0.247E+00 0.191E+02   0.464E+00 -.311E+00 0.128E+00   -.112E-03 0.311E-03 0.608E-04
   -.279E+02 0.664E+01 0.956E+02   0.353E+02 -.513E+01 -.106E+03   0.848E+01 -.101E+01 -.192E+02   -.310E-03 -.596E-03 0.930E-04
   0.351E+01 0.629E+01 -.361E+02   -.344E+01 -.712E+01 0.353E+02   -.554E-01 -.684E+00 0.222E+00   -.111E-03 -.382E-03 -.452E-03
   0.222E+01 -.632E+00 -.270E+02   -.262E+01 0.873E+00 0.273E+02   0.160E+00 -.442E+00 0.565E+00   -.686E-05 0.376E-03 -.289E-03
   -.397E+01 0.345E+00 0.490E+02   0.433E+01 -.202E+00 -.488E+02   -.230E+00 -.149E+00 -.110E+01   0.896E-04 0.590E-03 0.176E-04
   0.331E+02 -.268E+02 -.312E+02   -.592E+03 0.491E+02 0.318E+02   -.134E+02 0.422E+01 0.699E+00   -.771E-03 -.496E-03 -.165E-03
   0.170E+01 0.126E+01 -.209E+02   -.182E+01 -.112E+01 0.213E+02   0.476E+00 -.361E+00 -.510E+00   -.529E-04 -.593E-03 0.202E-03
   -.615E+01 -.687E+01 0.598E+02   0.642E+01 0.674E+01 -.603E+02   -.823E-01 0.307E+00 -.594E+00   -.833E-04 -.163E-03 0.485E-03
   -.174E+02 0.151E+02 -.653E+02   0.173E+02 -.161E+02 0.663E+02   0.179E+01 -.205E+01 0.270E+01   0.668E-04 0.534E-03 -.347E-03
   0.339E+01 0.535E+00 0.196E+02   -.378E+01 -.326E+00 -.194E+02   0.162E+00 -.141E+00 -.403E+00   0.485E-04 0.314E-03 -.262E-03
   -.485E+02 0.531E+01 0.661E+02   0.105E+03 -.221E+02 -.127E+03   0.269E+02 -.832E+01 -.283E+02   -.707E-04 -.169E-03 0.101E-03
   0.258E+02 -.145E+01 -.978E+02   -.340E+02 0.154E+01 0.117E+03   -.913E+01 0.571E+00 0.223E+02   0.127E-03 -.431E-03 -.481E-03
   -.238E+01 -.520E+00 0.190E+02   0.229E+01 0.709E+00 -.189E+02   0.202E+00 -.379E-02 -.223E+00   -.279E-05 -.148E-04 0.218E-03
   0.219E+02 -.312E+02 0.547E+02   -.296E+02 0.441E+02 -.640E+02   -.878E+01 0.166E+02 -.126E+02   -.184E-04 0.848E-03 0.238E-03
   -.688E+01 -.162E+02 -.679E+02   0.587E+01 0.148E+02 0.672E+02   0.944E+00 0.215E+01 0.300E+01   0.656E-03 0.710E-03 0.602E-03
   -.971E+00 0.249E+00 0.183E+02   0.733E+00 -.379E+00 -.186E+02   -.546E-01 0.268E-01 -.271E-02   0.795E-04 -.459E-03 0.508E-04
   0.370E+02 0.233E+02 0.425E+02   -.383E+02 -.247E+02 -.429E+02   -.723E+01 -.590E+01 -.259E+01   0.123E-04 -.526E-03 0.374E-03
   0.326E+02 -.103E+02 0.251E+02   -.342E+03 0.347E+00 -.266E+02   -.231E+02 0.184E+01 0.494E+01   -.909E-04 0.404E-03 0.331E-03
   -.371E+02 0.221E+01 0.677E+01   0.389E+02 -.161E+01 -.770E+01   0.177E+01 0.170E+00 0.233E+01   -.854E-04 0.856E-04 0.370E-03
   0.172E+02 -.141E+02 -.254E+02   -.174E+02 0.129E+02 0.271E+02   -.319E+01 0.298E+01 0.600E+01   0.177E-03 -.608E-03 -.261E-03
   -.145E+02 0.126E+02 0.303E+02   0.156E+02 -.148E+02 -.307E+02   0.307E+01 -.188E+01 -.946E+01   -.481E-04 0.509E-03 0.153E-03
   -.280E-01 -.116E+01 -.105E+02   -.937E+00 0.266E+01 0.102E+02   -.156E+00 -.111E+01 -.817E+00   0.126E-03 -.253E-03 -.279E-03
   -.233E+02 0.132E+02 -.290E+02   0.590E+03 -.297E+02 0.297E+02   0.661E+01 -.842E+01 -.260E+01   0.698E-04 -.548E-03 -.156E-03
   0.129E+02 -.463E+02 -.786E+01   -.960E+01 0.561E+02 0.983E+01   -.875E+00 0.302E+02 0.255E+02   -.317E-03 -.814E-03 0.105E-03
   -.974E+01 0.404E+02 -.128E+02   0.131E+02 -.453E+02 0.157E+02   0.117E+02 -.239E+02 0.196E+02   0.862E-05 0.552E-03 0.389E-03
   0.711E+01 -.895E+01 -.104E+01   -.759E+01 0.982E+01 0.142E+01   0.363E-02 -.424E+00 0.723E-02   0.552E-04 -.529E-03 0.629E-04
   -.968E+01 0.863E+01 0.182E+01   0.874E+01 -.842E+01 -.125E+01   -.864E-01 -.904E+00 0.101E+00   0.110E-02 0.445E-04 -.346E-03
   0.452E+02 -.324E+02 0.102E+02   -.480E+02 0.367E+02 -.114E+02   -.143E+02 0.195E+02 -.168E+02   -.293E-04 0.556E-03 -.482E-04
   -.971E+01 0.371E+02 0.135E+02   0.132E+02 -.390E+02 -.219E+02   0.100E+01 -.229E+02 -.314E+02   0.173E-03 -.415E-03 -.272E-03
   -.337E+02 0.279E+02 0.238E+02   0.327E+02 -.280E+02 -.225E+02   0.808E+01 -.361E+01 0.236E+01   -.141E-04 -.508E-03 0.330E-03
   0.312E+02 -.251E+02 -.277E+02   -.788E+02 0.425E+02 0.774E+02   -.345E+02 0.955E+01 0.406E+02   -.200E-03 0.411E-04 -.121E-03
   -.103E+02 0.804E+01 -.134E+01   0.100E+02 -.823E+01 0.107E+01   0.113E+01 -.701E+00 0.465E+00   0.343E-04 0.735E-03 0.238E-03
   0.893E+01 -.899E+01 -.311E+00   -.882E+01 0.896E+01 -.393E+00   -.527E+00 0.441E+00 0.841E+00   -.589E-05 -.100E-02 -.253E-03
   -.503E+02 0.263E+02 0.258E+02   0.114E+03 -.594E+02 -.111E+03   0.240E+02 -.117E+02 -.381E+02   -.177E-03 0.580E-03 0.122E-04
   0.240E+02 -.259E+02 -.225E+02   -.253E+02 0.254E+02 0.221E+02   -.318E+01 0.430E+01 -.283E+01   0.266E-04 0.533E-03 -.331E-03
   -.311E+02 0.634E+02 0.370E+02   0.331E+02 -.697E+02 -.364E+02   0.142E+02 -.310E+02 0.213E+00   0.387E-04 0.778E-03 0.331E-03
   0.209E+02 -.382E+02 -.283E+01   -.215E+02 0.366E+02 0.364E+01   0.137E+01 0.819E+01 0.441E+01   0.177E-03 -.719E-03 0.881E-04
   -.115E+02 0.156E+02 -.250E+02   0.133E+02 -.171E+02 0.240E+02   -.286E+00 -.701E+00 0.585E+01   -.276E-03 0.403E-03 0.482E-03
   0.148E+02 -.149E+02 0.214E+02   -.141E+02 0.151E+02 -.219E+02   -.236E+01 0.182E+01 -.430E+01   -.121E-03 0.395E-03 -.139E-04
   0.103E+02 0.317E+02 0.284E+01   -.850E+01 -.296E+02 -.363E+01   -.199E+01 -.495E+01 -.285E+01   -.796E-03 -.114E-02 -.558E-03
   0.287E+02 -.544E+02 -.370E+02   -.316E+02 0.601E+02 0.387E+02   -.131E+02 0.236E+02 -.192E+01   0.362E-03 0.273E-03 -.228E-03
   0.115E+02 0.535E+01 0.255E+01   0.139E-12 0.213E-13 -.924E-13   -.116E+02 -.529E+01 -.234E+01   0.324E-05 -.436E-03 0.145E-03

 POSITION                                       TOTAL-FORCE (eV/Angst)
      0.00000     16.87674      0.00000       -70.591661     15.502237    121.631628
      0.00000     14.04785      2.82890         0.079116      0.173902      0.206304
      0.00000     11.21894      5.65780        -0.711116      3.497537     -5.401819
      0.00000      5.56115      0.00000         5.439035     -2.610436      4.490257
      0.00000      2.73224      2.82890         0.267946      0.155369      0.266664
      0.00000     16.87674      5.65780        -1.508182     -3.466797     -4.035000
      0.00000     11.21894      0.00000        13.933038     26.190868     -0.650131
      0.00000      8.39004      2.82890        -0.093387     -0.021178      0.534181
      0.00000      5.56114      5.65780        -1.655649     -0.582576     -1.270781
      1.41445      1.31780      1.41445         0.737647      0.590919      1.465124
      1.41445     15.46229      4.24335         0.308048      0.263653     -0.685127
      1.41445     12.63339      7.07225       -15.039771    -43.513458     -5.913114
      1.41445      6.97559      1.41445        -0.274685      0.127541      0.859615
      1.41445      4.14669      4.24335        -0.162179     -0.132470     -0.161935
      1.41445      1.31779      7.07225       332.524348     13.046639     -3.897433
      1.41445     12.63339      1.41445        -0.380444      0.353335      1.727406
      1.41445      9.80449      4.24335         0.080137      0.051391     -0.766626
      1.41445      6.97559      7.07225       -18.382639     36.501934     -0.944072
      2.82890      2.73224      0.00000        10.803618    -19.545185     26.701020
      2.82890     16.87674      2.82890        -0.010145     -0.219790      0.055549
      2.82890     14.04784      5.65780        15.838974      0.500106    -29.872124
      2.82890      8.39004      0.00000         0.007445     -1.520628     -0.534643
      2.82890      5.56114      2.82890        -0.241966     -0.201842      0.863653
      2.82890      2.73224      5.65780         0.130595     -0.006654     -0.823252
      2.82890     14.04785      0.00000      -572.084385     26.505851      1.335948
      2.82890     11.21894      2.82890         0.360275     -0.226758     -0.047923
      2.82890      8.39004      5.65780         0.191954      0.172649     -1.087503
      4.24335      4.14669      1.41445         1.731499     -3.052575      3.676486
      4.24335      1.31779      4.24335        -0.229990      0.066951     -0.268734
      4.24335     15.46229      7.07225        83.835637    -25.065262    -88.694028
      4.24335      9.80450      1.41445       -17.333901      0.656405     41.307892
      4.24335      6.97560      4.24335         0.114558      0.184442     -0.155165
      4.24335      4.14669      7.07225       -16.466538     29.533994    -21.966922
      4.24335     15.46230      1.41445        -0.067832      0.731397      2.233905
      4.24335     12.63339      4.24335        -0.291784     -0.104267     -0.232156
      4.24335      9.80449      7.07225        -8.569211     -7.247981     -2.977350
      0.61592      1.29344      7.07225      -332.026108     -8.126091      3.454188
      3.44482      7.23413      7.93097         3.545673      0.767709      1.396703
      0.61592     13.17482      8.78969        -3.378069      1.783056      7.664422
      3.44482      2.14211      9.64840         4.228908     -4.125701     -9.855009
      0.61592      8.08280     10.50712        -1.119265      0.389908     -1.145771
      3.44482     14.02350     11.36584       573.189869    -24.878263     -1.871644
      2.03037     14.02349      7.07225         2.441645     39.950247     27.444664
      4.85927      2.99078      7.93097        15.140096    -28.770550     22.464696
      2.03037      8.93147      8.78969        -0.475812      0.439882      0.385173
      4.85927     14.87216      9.64840        -1.021415     -0.696615      0.661706
      2.03037      3.83945     10.50712       -17.073947     23.662870    -18.019951
      4.85927      9.78015     11.36584         4.471224    -24.820099    -39.786612
      0.61592      9.78014      7.07225         7.034070     -3.642593      3.633301
      3.44482     15.72083      7.93097       -82.038310     27.019903     90.237896
      0.61592      4.68812      8.78969         0.876818     -0.888559      0.187606
      3.44482     10.62881      9.64840        -0.414397      0.409665      0.133096
      0.61592     16.56950     10.50712        88.106302    -44.878573   -123.120619
      3.44482      5.53680     11.36584        -4.460591      3.756656     -3.184900
      2.03037      5.53679      7.07225        16.224786    -37.371707      0.895372
      4.85927     11.47748      7.93097         0.741920      6.602442      5.214461
      2.03037      0.44477      8.78969         1.508091     -2.226277      4.893934
      4.85927      6.38546      9.64840        -1.686696      1.936708     -4.808147
      2.03037     12.32615     10.50712        -0.156665     -2.914759     -3.650236
      4.85927      1.29344      0.00000       -15.946530     29.331483     -0.194120
    total drift:                               -0.050662      0.052884      0.202114

  FREE ENERGIE OF THE ION-ELECTRON SYSTEM (eV)
  free  energy   TOTEN  =       240.64647593 eV

  energy  without entropy=      240.64807205  energy(sigma->0) =      240.64727399