 vasp.6.4.3 19Mar24 (build Oct 22 2024 11:23:12) complex

 executed on             LinuxIFC date 2025.04.30  06:44:03

 INCAR:
   SYSTEM = Si123 and Ge123 interface calculation
   ISTART = 0
   ICHARG = 2
   LWAVE = .FALSE.
   LREAL = AUTO
   ENCUT = 700
   ENAUG = 900
   ADDGRID = .TRUE.
   LMAXMIX = 6
   LASPH = .TRUE.
   LMIXTAU = .TRUE.
   NCORE = 16
   NELM = 100
   NBANDS = 116
   EDIFF = 1d-7
   AMIX = 0.6
   ISMEAR = 0
   SIGMA = 0.01
   NELECT = 192
   ISPIN = 2
   NUPDOWN = 1
   LVTOT = .FALSE.
   LVHAR = .TRUE.

 POTCAR:    PAW_PBE Si 05Jan2001
 POTCAR:    PAW_PBE Ge 05Jan2001
|           W    W    AA    RRRRR   N    N  II  N    N   GGGG   !!!           |
|           W    W   A  A   R    R  NN   N  II  NN   N  G    G  !!!           |
|           W    W  A    A  R    R  N N  N  II  N N  N  G       !!!           |
|           W WW W  AAAAAA  RRRRR   N  N N  II  N  N N  G  GGG   !            |
|           WW  WW  A    A  R   R   N   NN  II  N   NN  G    G                |
|           W    W  A    A  R    R  N    N  II  N    N   GGGG   !!!           |
|     You use a magnetic or noncollinear calculation, but did not specify     |
|     the initial magnetic moment with the MAGMOM tag. Note that a            |
|     default of 0.021 will be used for all atoms. This ferromagnetic         |
|     setup may break the symmetry of the crystal, in particular it may       |
|     rule out finding an antiferromagnetic solution. Thence, we              |
|     recommend setting the initial magnetic moment manually or verifying     |
|     carefully that this magnetic setup is desired.                          |

 POTCAR:    PAW_PBE Si 05Jan2001
   VRHFIN =Si: s2p2

   TITEL  = PAW_PBE Si 05Jan2001
   POMASS =   28.085; ZVAL   =    4.000    mass and valenz
   ENMAX  =  245.345; ENMIN  =  184.009 eV

 POTCAR:    PAW_PBE Ge 05Jan2001
   VRHFIN =Ge: s2p2

   TITEL  = PAW_PBE Ge 05Jan2001
   POMASS =   72.610; ZVAL   =    4.000    mass and valenz
   ENMAX  =  173.807; ENMIN  =  130.355 eV

 Optimization of the real space projectors (new method)

 maximal supplied QI-value         = 19.84
 optimisation between [QCUT,QGAM] = [ 13.49, 26.99] = [ 50.98,203.92] Ry
 Optimized for a Real-space Cutoff    1.07 Angstroem

   l    n(q)    QCUT    max X(q) W(low)/X(q) W(high)/X(q)  e(spline)
   0      9    13.493   159.560    0.22E-03    0.15E-03    0.72E-07
   0      9    13.493   115.863    0.21E-03    0.15E-03    0.71E-07
   1      8    13.493    88.339    0.15E-03    0.11E-03    0.13E-06
   1      8    13.493    48.592    0.15E-03    0.10E-03    0.13E-06
 Optimization of the real space projectors (new method)

 maximal supplied QI-value         = 16.25
 optimisation between [QCUT,QGAM] = [ 13.49, 26.98] = [ 50.95,203.80] Ry
 Optimized for a Real-space Cutoff    1.25 Angstroem

   l    n(q)    QCUT    max X(q) W(low)/X(q) W(high)/X(q)  e(spline)
   0     10    13.489    65.336    0.91E-04    0.11E-03    0.34E-06
   0     10    13.489    52.220    0.89E-04    0.11E-03    0.34E-06
   1     10    13.489    36.409    0.22E-03    0.27E-03    0.14E-06
   1     10    13.489    21.334    0.21E-03    0.27E-03    0.14E-06
   2      9    13.489     4.673    0.11E-03    0.12E-03    0.19E-06
  PAW_PBE Si 05Jan2001                  :
  PAW_PBE Ge 05Jan2001                  :

 POSCAR: fcc Si+fcc Ge
  positions in direct lattice

 exchange-correlation table for PE
   RHO(1)=    0.500       N(1)  =     2000
   RHO(2)=  100.500       N(2)  =     4000

 ion  position               nearest neighbor table
   1  0.000  0.000  0.000-  20 2.37  19 2.37  15 2.37  36 2.44  27 2.95  46 2.96
   2  0.429  0.607  0.087-  20 2.37  16 2.37  21 2.37  36 2.40  42 2.77
   3  0.857  0.214  0.173-  17 2.37  22 2.37  21 2.37  30 2.84  25 2.88
   4  0.286  0.821  0.260-  18 2.37  13 2.37  22 2.37  23 2.37  43 2.92
   5  0.714  0.429  0.347-  24 2.37  23 2.37  14 2.37
   6  0.143  0.036  0.434-  24 2.37  15 2.37  32 2.42  31 2.44  38 2.78  27 2.87
   7  0.000  0.500  0.000-  14 2.37  13 2.37  21 2.37  30 2.44  33 2.95  40 2.96
   8  0.429  0.107  0.087-  14 2.37  22 2.37  15 2.37  30 2.40  48 2.77
   9  0.857  0.714  0.173-  23 2.37  16 2.37  15 2.37  36 2.84  31 2.88
  10  0.286  0.321  0.260-  24 2.37  19 2.37  16 2.37  17 2.37  37 2.92
  11  0.714  0.929  0.347-  18 2.37  17 2.37  20 2.37
  12  0.143  0.536  0.434-  18 2.37  21 2.37  26 2.42  25 2.44  44 2.78  33 2.87
  13  0.250  0.750  0.000-   4 2.37   7 2.37  48 2.43  40 2.63  47 2.76  34 2.96
  14  0.679  0.357  0.087-   7 2.37   8 2.37   5 2.37  30 2.77
  15  0.107  0.964  0.173-   9 2.37   1 2.37   8 2.37   6 2.37
  16  0.536  0.571  0.260-   9 2.37  10 2.37   2 2.37  37 2.59  42 2.82  31 2.92
  17  0.964  0.179  0.347-   3 2.37  11 2.37  10 2.37  43 2.75
  18  0.393  0.786  0.434-   4 2.37  11 2.37  12 2.37  43 2.43  26 2.78  40 2.89
  19  0.250  0.250  0.000-  10 2.37   1 2.37  42 2.43  46 2.63  41 2.76  28 2.96
  20  0.679  0.857  0.087-   1 2.37   2 2.37  11 2.37  36 2.77
  21  0.107  0.464  0.173-   3 2.37   7 2.37   2 2.37  12 2.37
  22  0.536  0.071  0.260-   3 2.37   4 2.37   8 2.37  43 2.59  48 2.82  25 2.92
  23  0.964  0.679  0.347-   9 2.37   5 2.37   4 2.37  37 2.75
  24  0.393  0.286  0.434-  10 2.37   5 2.37   6 2.37  37 2.43  32 2.78  46 2.89
  25  0.869  0.279  0.493-  43 2.37  44 2.38  39 2.40  12 2.44   3 2.88  22 2.92
  26  0.440  0.672  0.582-  44 2.37  45 2.38  40 2.40  12 2.42  18 2.78
  27  0.012  0.065  0.672-  45 2.37  46 2.38  41 2.40   6 2.87   1 2.95
  28  0.583  0.458  0.762-  46 2.37  47 2.38  42 2.40  37 2.44  19 2.96
  29  0.155  0.850  0.851-  47 2.37  48 2.38  38 2.44
  30  0.726  0.243  0.941-  48 2.37   8 2.40  39 2.44   7 2.44  14 2.77   3 2.84
  31  0.869  0.779  0.493-  37 2.37  38 2.38  45 2.40   6 2.44   9 2.88  16 2.92
  32  0.440  0.172  0.582-  38 2.37  39 2.38  46 2.40   6 2.42  24 2.78
  33  0.012  0.565  0.672-  39 2.37  40 2.38  47 2.40  12 2.87   7 2.95
  34  0.583  0.958  0.762-  40 2.37  41 2.38  48 2.40  43 2.44  13 2.96
  35  0.155  0.350  0.851-  41 2.37  42 2.38  44 2.44
  36  0.726  0.743  0.941-  42 2.37   2 2.40  45 2.44   1 2.44  20 2.77   9 2.84
  37  0.619  0.529  0.493-  31 2.37  24 2.43  28 2.44  16 2.59  23 2.75  10 2.92
  38  0.190  0.922  0.582-  32 2.37  31 2.38  29 2.44   6 2.78
  39  0.762  0.315  0.672-  33 2.37  32 2.38  25 2.40  30 2.44
  40  0.333  0.708  0.762-  34 2.37  33 2.38  26 2.40  13 2.63  18 2.89   7 2.96
  41  0.905  0.100  0.851-  35 2.37  34 2.38  27 2.40  19 2.76
  42  0.476  0.493  0.941-  36 2.37  35 2.38  28 2.40  19 2.43   2 2.77  16 2.82
  43  0.619  0.029  0.493-  25 2.37  18 2.43  34 2.44  22 2.59  17 2.75   4 2.92
  44  0.190  0.422  0.582-  26 2.37  25 2.38  35 2.44  12 2.78
  45  0.762  0.815  0.672-  27 2.37  26 2.38  31 2.40  36 2.44
  46  0.333  0.208  0.762-  28 2.37  27 2.38  32 2.40  19 2.63  24 2.89   1 2.96
  47  0.905  0.600  0.851-  29 2.37  28 2.38  33 2.40  13 2.76
  48  0.476  0.993  0.941-  30 2.37  29 2.38  34 2.40  13 2.43   8 2.77  22 2.82

  LATTYP: Found a simple monoclinic cell.
 ALAT       =     9.4916384256
 B/A-ratio  =     0.8895435338
 C/A-ratio  =     1.2909944488
 COS(beta)  =    -0.2581988897

  Lattice vectors:

 A1 = (  -2.4507305030,   9.1697938910,   0.0000000000)
 A2 = (   0.0000000000,   0.0000000000,   8.4432255870)
 A3 = (  12.2536525170,   0.0000000000,   0.0000000000)

Analysis of symmetry for initial positions (statically):
 Subroutine PRICEL returns following result:

  Warning from LATTYP: Monoclinic adjustment (A1->A3, A2->A1, A3->A2)!
  Warning from LATTYP: Got some problem with cell dimensions!
  Tried to take original basis but could not verify dimensions!
  LATTYP: Found a simple monoclinic cell.
 ALAT       =     6.7116018955
 B/A-ratio  =     1.2580045298
 C/A-ratio  =     1.2909944487
 COS(beta)  =    -0.2581988898

[...]

   2 primitive cells build up your supercell.

 Routine SETGRP: Setting up the symmetry group for a
 simple monoclinic supercell.

 Subroutine GETGRP returns: Found  1 space group operations
 (whereof  1 operations were pure point group operations)
 out of a pool of  4 trial point group operations.

The static configuration has the point symmetry C_1 .

Analysis of symmetry for dynamics (positions and initial velocities):
 Subroutine PRICEL returns following result:

[...]

The dynamic configuration has the point symmetry C_1 .

Analysis of structural, dynamic, and magnetic symmetry:
 Subroutine PRICEL returns following result:

  Warning from LATTYP: Monoclinic adjustment (A1->A3, A2->A1, A3->A2)!
  Warning from LATTYP: Got some problem with cell dimensions!
  Tried to take original basis but could not verify dimensions!
  LATTYP: Found a simple monoclinic cell.
 ALAT       =     6.7116018955
 B/A-ratio  =     1.2580045298
 C/A-ratio  =     1.2909944487
 COS(beta)  =    -0.2581988898

  Lattice vectors:

 A1 = (   4.9014610070,   4.5848969455,   0.0000000000)
 A2 = (   0.0000000000,   0.0000000000,  -8.4432255870)
 A3 = (  -7.3521915100,   4.5848969455,   0.0000000000)

   2 primitive cells build up your supercell.

 Routine SETGRP: Setting up the symmetry group for a
 simple monoclinic supercell.

 Subroutine GETGRP returns: Found  1 space group operations
 (whereof  1 operations were pure point group operations)
 out of a pool of  4 trial point group operations.

The overall configuration has the point symmetry C_1 .

 Subroutine INISYM returns: Found  1 space group operations
 (whereof  1 operations are pure point group operations),
 and found     2 'primitive' translations

                                     Primitive cell

  volume of cell :     474.3551

  direct lattice vectors                    reciprocal lattice vectors
     4.901461007  4.584896945  0.000000000     0.081608320  0.130864446  0.000000000
     0.000000000  0.000000000 -8.443225587     0.000000000  0.000000000 -0.118438148
    -7.352191510  4.584896945  0.000000000    -0.081608320  0.087242964  0.000000000

  length of vectors
     6.711601896  8.443225587  8.664640789     0.154225229  0.118438148  0.119462349

  position of ions in fractional coordinates (direct lattice)
     0.000000000  0.000000000  0.000000000
     0.428571429  0.913268241  0.785714285
     0.857142857  0.826536483  0.571428571
     0.285714286  0.739804724  0.357142856
     0.714285714  0.653072966  0.142857144
     0.142857143  0.566341207  0.928571429
     0.250000000  0.000000000  0.250000000
     0.678571429  0.913268241  0.035714285
     0.107142857  0.826536483  0.821428571
     0.535714286  0.739804724  0.607142856
     0.964285714  0.653072966  0.392857144
     0.392857143  0.566341207  0.178571429
     0.868852459  0.507122133  0.689287075
     0.440281030  0.417541522  0.903572790
     0.011709602  0.327960910  0.117858504
     0.583138173  0.238380298  0.332144219
     0.154566745  0.148799686  0.546429933
     0.725995316  0.059219074  0.760715648
     0.618852459  0.507122133  0.439287075
     0.190281030  0.417541522  0.653572790
     0.761709602  0.327960910  0.867858504
     0.333138173  0.238380298  0.082144219
     0.904566745  0.148799686  0.296429933
     0.475995316  0.059219074  0.510715648

  ion indices of the primitive-cell ions
[...]
     42      -0.3621      1.00000
     43      -0.1520      1.00000
     44      -0.0703      1.00000
     45       0.3626      1.00000
     46       0.4647      1.00000
     47       0.6239      1.00000
     48       0.7506      1.00000
     49       0.8106      1.00000
     50       0.8716      1.00000
     51       0.9045      1.00000
     52       0.9515      1.00000
     53       1.0903      1.00000
     54       1.1838      1.00000
     55       1.2353      1.00000
     56       1.3024      1.00000
     57       1.4578      1.00000
     58       1.4803      1.00000
     59       1.4884      1.00000
     60       1.5313      1.00000
[...]
    102       6.0364      0.00000
    103       6.1260      0.00000
    104       6.2744      0.00000
    105       6.3427      0.00000
    106       6.3514      0.00000
    107       6.4942      0.00000
    108       6.5605      0.00000
    109       6.7092      0.00000
    110       6.7747      0.00000
    111       7.0360      0.00000
    112       7.0432      0.00000
    113       7.0781      0.00000
    114       7.1177      0.00000
    115       7.3837      0.00000
    116       7.4558      0.00000
 Fermi energy:         5.3538162336

 spin component 2

[...]

 k-point    31 :      -0.2000    0.3333    0.5000
  band No.  band energies     occupation
      1      -7.6957      1.00000
      2      -7.3156      1.00000
      3      -7.2915      1.00000
      4      -7.1094      1.00000
      5      -6.4378      1.00000
      6      -6.4029      1.00000
      7      -6.1108      1.00000
      8      -5.9663      1.00000
      9      -5.8513      1.00000
     10      -5.5812      1.00000
     11      -5.4681      1.00000
     12      -5.2918      1.00000
     13      -5.0802      1.00000
     14      -4.8828      1.00000
     15      -4.5897      1.00000
     16      -4.2888      1.00000
     17      -4.1446      1.00000
     18      -4.0208      1.00000
     19      -3.8708      1.00000
     20      -3.7111      1.00000
     21      -3.6313      1.00000
     22      -3.3745      1.00000
     23      -3.1276      1.00000
     24      -3.0869      1.00000
     25      -2.9691      1.00000
     26      -2.9137      1.00000
     27      -2.4223      1.00000
     28      -2.3478      1.00000
     29      -2.3113      1.00000
     30      -2.1575      1.00000
     31      -2.0579      1.00000
     32      -1.7341      1.00000
     33      -1.6043      1.00000
     34      -1.6012      1.00000
     35      -1.4824      1.00000
     36      -1.4390      1.00000
     37      -1.1380      1.00000
     38      -0.9122      1.00000
     39      -0.6889      1.00000
     40      -0.5908      1.00000
     41      -0.4811      1.00000
     42      -0.3415      1.00000
     43      -0.1328      1.00000
     44      -0.0502      1.00000
     45       0.3825      1.00000
     46       0.4851      1.00000
     47       0.6437      1.00000
     48       0.7711      1.00000
     49       0.8313      1.00000
     50       0.8905      1.00000
     51       0.9240      1.00000
     52       0.9722      1.00000
     53       1.1099      1.00000
     54       1.2050      1.00000
     55       1.2559      1.00000
     56       1.3226      1.00000
     57       1.4780      1.00000
     58       1.5009      1.00000
     59       1.5087      1.00000
     60       1.5515      1.00000
[...]
    102       6.0611      0.00000
    103       6.1500      0.00000
    104       6.3012      0.00000
    105       6.3663      0.00000
    106       6.3796      0.00000
    107       6.5155      0.00000
    108       6.5820      0.00000
    109       6.7320      0.00000
    110       6.7964      0.00000
    111       7.0596      0.00000
    112       7.0656      0.00000
    113       7.1004      0.00000
    114       7.1416      0.00000
    115       7.4073      0.00000
    116       7.4911      0.00000

 soft charge-density along one line, spin component           1
         0         1         2         3         4         5         6         7         8         9
 total charge-density along one line

 soft charge-density along one line, spin component           2
         0         1         2         3         4         5         6         7         8         9
 total charge-density along one line

------------------------ aborting loop because EDIFF is reached ----------------------------------------

  FORCE on cell =-STRESS in cart. coord.  units (eV):
  Direction    XX          YY          ZZ          XY          YZ          ZX
  Alpha Z   272.96468   272.96468   272.96468
  Ewald   -1996.94375 -1404.33671 -2047.86853   -59.38154    11.59252     0.40556
  Hartree    53.98885   252.56563    88.02175   -21.44296     1.59543     0.21394
  E(xc)    -637.12308  -639.17803  -633.57329    -0.31737    -0.37634    -0.07029
  Local    -375.74045 -1148.78377  -354.62692    75.10480    -8.20017    -0.62609
  n-local  1426.76913  1465.58692  1390.49017     2.11278     0.23074     0.24977
  augment  -117.05541  -118.15303  -115.14193    -0.16938     0.16798     0.06311
  Kinetic  1424.72322  1398.31068  1438.72569    -4.38189    -0.31261    -0.73197
  Fock        0.00000     0.00000     0.00000     0.00000     0.00000     0.00000
  Total      51.58319    78.97635    38.99163    -8.47556     4.69754    -0.49598
  in kB      87.11346   133.37491    65.84889   -14.31349     7.93319    -0.83762

 VOLUME and BASIS-vectors are now :
  energy-cutoff  :      700.00
  volume of cell :      948.71
      direct lattice vectors                 reciprocal lattice vectors
    12.253652517  0.000000000  0.000000000     0.081608320  0.130864446  0.000000000
   -14.704383020  9.169793891  0.000000000     0.000000000  0.109053705  0.000000000
     0.000000000  0.000000000  8.443225587     0.000000000  0.000000000  0.118438148

  length of vectors
    12.253652517 17.329281578  8.443225587     0.154225229  0.109053705  0.118438148

 FORCES acting on ions
    electron-ion (+dipol)            ewald-force                    non-local-force                 convergence-correction
   -.847E+01 -.860E+01 -.129E+01   0.824E+01 0.868E+01 0.357E+01   0.348E+00 0.393E+00 -.190E+01   0.287E-04 -.620E-06 -.841E-04
   0.260E+02 0.813E+01 0.433E+01   -.263E+02 -.737E+01 -.313E+01   -.761E+00 -.101E+01 -.552E+00   0.870E-04 -.873E-04 0.421E-04
   -.232E+02 0.410E+01 0.280E+02   0.232E+02 -.346E+01 -.258E+02   0.477E-03 -.140E+00 -.241E+01   -.931E-05 -.433E-04 -.600E-04
   0.402E+01 0.136E+02 -.412E+01   -.354E+01 -.143E+02 0.367E+01   -.549E+00 0.538E+00 0.460E+00   -.943E-04 0.974E-04 -.977E-04
   -.253E+02 -.693E+00 -.198E+01   0.249E+02 0.681E+00 0.635E+00   0.776E+00 -.125E-01 0.134E+01   0.860E-04 -.279E-04 0.128E-04
   0.183E+02 0.409E+01 0.116E+02   -.184E+02 -.342E+01 -.133E+02   -.589E+00 -.343E+00 0.616E+00   0.327E-04 -.138E-03 0.386E-04
   -.847E+01 -.860E+01 -.129E+01   0.824E+01 0.868E+01 0.357E+01   0.348E+00 0.393E+00 -.190E+01   0.226E-04 0.101E-05 -.793E-04
   0.260E+02 0.813E+01 0.433E+01   -.263E+02 -.737E+01 -.313E+01   -.761E+00 -.101E+01 -.552E+00   0.784E-04 -.857E-04 0.517E-04
   -.232E+02 0.410E+01 0.280E+02   0.232E+02 -.346E+01 -.258E+02   0.477E-03 -.140E+00 -.241E+01   -.884E-05 -.425E-04 -.579E-04
   0.402E+01 0.136E+02 -.412E+01   -.354E+01 -.143E+02 0.367E+01   -.549E+00 0.538E+00 0.460E+00   -.826E-04 0.990E-04 -.962E-04
   -.253E+02 -.693E+00 -.198E+01   0.249E+02 0.681E+00 0.635E+00   0.776E+00 -.125E-01 0.134E+01   0.949E-04 -.223E-04 0.155E-04
   0.183E+02 0.409E+01 0.116E+02   -.184E+02 -.342E+01 -.133E+02   -.589E+00 -.343E+00 0.616E+00   0.340E-04 -.144E-03 0.388E-04
   -.119E+02 -.546E+00 -.100E+02   0.114E+02 -.236E+00 0.119E+02   0.568E+00 -.486E-01 -.119E+01   -.143E-04 0.192E-03 -.279E-04
   0.306E+02 -.452E+01 0.960E+00   -.306E+02 0.441E+01 0.427E+00   -.820E+00 0.554E+00 -.115E+01   -.948E-04 -.574E-04 -.421E-04
   -.309E+01 -.108E+02 0.606E+01   0.242E+01 0.109E+02 -.571E+01   0.856E+00 -.331E-01 -.511E+00   0.124E-03 -.510E-04 0.188E-04
   0.234E+02 -.266E+01 -.244E+02   -.232E+02 0.198E+01 0.225E+02   -.247E+00 0.381E+00 0.188E+01   -.269E-04 0.487E-05 -.138E-04
   -.165E+02 -.505E+01 -.126E+02   0.169E+02 0.449E+01 0.110E+02   -.288E+00 0.595E+00 0.174E+01   -.235E-04 0.118E-03 -.883E-04
   0.735E+01 0.626E+01 0.363E+01   -.738E+01 -.612E+01 -.596E+01   0.492E-01 -.479E+00 0.181E+01   -.460E-04 0.316E-04 0.461E-04
   -.119E+02 -.546E+00 -.100E+02   0.114E+02 -.236E+00 0.119E+02   0.568E+00 -.486E-01 -.119E+01   -.160E-04 0.197E-03 -.297E-04
   0.306E+02 -.452E+01 0.960E+00   -.306E+02 0.441E+01 0.427E+00   -.820E+00 0.554E+00 -.115E+01   -.903E-04 -.550E-04 -.507E-04
   -.309E+01 -.108E+02 0.606E+01   0.242E+01 0.109E+02 -.571E+01   0.856E+00 -.331E-01 -.511E+00   0.120E-03 -.535E-04 0.138E-04
   0.234E+02 -.266E+01 -.244E+02   -.232E+02 0.198E+01 0.225E+02   -.247E+00 0.381E+00 0.188E+01   -.376E-04 0.479E-05 -.133E-04
   -.165E+02 -.505E+01 -.126E+02   0.169E+02 0.449E+01 0.110E+02   -.288E+00 0.595E+00 0.174E+01   -.293E-04 0.112E-03 -.905E-04
   0.735E+01 0.626E+01 0.363E+01   -.738E+01 -.612E+01 -.596E+01   0.492E-01 -.479E+00 0.181E+01   -.395E-04 0.305E-04 0.444E-04
   0.881E+01 0.844E+01 -.103E+02   -.917E+01 -.817E+01 0.106E+02   -.474E+00 -.140E+00 -.760E+00   -.476E-04 -.906E-05 -.192E-04
   -.249E+02 -.764E+01 -.118E+01   0.251E+02 0.775E+01 0.976E+00   0.351E+00 0.749E+00 -.299E+00   0.120E-03 -.194E-05 0.799E-04
   0.224E+02 -.406E+01 0.234E+02   -.229E+02 0.406E+01 -.235E+02   -.326E-01 -.281E-01 -.117E+01   -.453E-04 -.548E-04 0.448E-04
   -.219E+01 -.142E+02 -.192E+00   0.187E+01 0.147E+02 -.121E+00   0.141E+00 0.652E-03 0.294E-01   0.290E-04 0.751E-05 0.124E-03
   0.246E+02 -.310E+00 0.526E+01   -.256E+02 0.466E+00 -.539E+01   -.578E+00 0.175E+00 0.517E+00   0.240E-04 -.219E-04 0.229E-04
   -.170E+02 -.445E+01 0.210E+02   0.172E+02 0.491E+01 -.212E+02   0.346E+00 0.471E+00 -.381E+00   0.806E-04 -.122E-03 -.265E-04
   0.881E+01 0.844E+01 -.103E+02   -.917E+01 -.817E+01 0.106E+02   -.474E+00 -.140E+00 -.760E+00   -.507E-04 -.910E-05 -.206E-04
   -.249E+02 -.764E+01 -.118E+01   0.251E+02 0.775E+01 0.976E+00   0.351E+00 0.749E+00 -.299E+00   0.106E-03 0.935E-06 0.710E-04
   0.224E+02 -.406E+01 0.234E+02   -.229E+02 0.406E+01 -.235E+02   -.326E-01 -.281E-01 -.117E+01   -.476E-04 -.551E-04 0.445E-04
   -.219E+01 -.142E+02 -.192E+00   0.187E+01 0.147E+02 -.121E+00   0.141E+00 0.652E-03 0.294E-01   0.373E-04 0.105E-04 0.127E-03
   0.246E+02 -.310E+00 0.526E+01   -.256E+02 0.466E+00 -.539E+01   -.578E+00 0.175E+00 0.517E+00   0.312E-04 -.241E-04 0.155E-04
   -.170E+02 -.445E+01 0.210E+02   0.172E+02 0.491E+01 -.212E+02   0.346E+00 0.471E+00 -.381E+00   0.873E-04 -.124E-03 -.340E-04
   0.101E+02 0.868E+00 -.199E+02   -.987E+01 -.111E+01 0.201E+02   -.117E+00 -.137E+00 -.533E-01   -.125E-03 0.556E-04 0.301E-04
   -.300E+02 0.516E+01 -.633E+01   0.312E+02 -.542E+01 0.647E+01   0.652E+00 -.515E+00 -.360E+00   0.156E-04 0.409E-04 0.408E-04
   0.112E+01 0.114E+02 0.199E+01   -.722E+00 -.115E+02 -.185E+01   -.355E+00 -.294E+00 0.223E-01   -.405E-04 -.153E-04 -.453E-04
   -.226E+02 0.249E+01 -.201E+02   0.230E+02 -.260E+01 0.203E+02   0.230E+00 -.860E-01 0.914E+00   0.352E-04 0.872E-04 0.333E-04
   0.160E+02 0.492E+01 -.672E+01   -.159E+02 -.500E+01 0.682E+01   0.426E+00 -.501E+00 0.102E+01   -.110E-03 -.775E-06 -.251E-04
   -.788E+01 -.602E+01 0.127E+02   0.821E+01 0.567E+01 -.130E+02   0.263E+00 0.645E-01 0.695E+00   0.180E-04 -.230E-04 0.245E-04
   0.101E+02 0.868E+00 -.199E+02   -.987E+01 -.111E+01 0.201E+02   -.117E+00 -.137E+00 -.533E-01   -.130E-03 0.583E-04 0.323E-04
   -.300E+02 0.516E+01 -.633E+01   0.312E+02 -.542E+01 0.647E+01   0.652E+00 -.515E+00 -.360E+00   0.248E-04 0.386E-04 0.514E-04
   0.112E+01 0.114E+02 0.199E+01   -.722E+00 -.115E+02 -.185E+01   -.355E+00 -.294E+00 0.223E-01   -.360E-04 -.111E-04 -.407E-04
   -.226E+02 0.249E+01 -.201E+02   0.230E+02 -.260E+01 0.203E+02   0.230E+00 -.860E-01 0.914E+00   0.323E-04 0.834E-04 0.259E-04
   0.160E+02 0.492E+01 -.672E+01   -.159E+02 -.500E+01 0.682E+01   0.426E+00 -.501E+00 0.102E+01   -.113E-03 -.748E-05 -.191E-04
   -.788E+01 -.602E+01 0.127E+02   0.821E+01 0.567E+01 -.130E+02   0.263E+00 0.645E-01 0.695E+00   0.196E-04 -.244E-04 0.288E-04
   -.444E+00 -.216E+00 -.632E+00   0.888E-14 0.266E-13 0.112E-12   0.395E+00 0.300E+00 0.624E+00   0.109E-04 -.405E-04 0.566E-04

 POSITION                                       TOTAL-FORCE (eV/Angst)
      0.00000      0.00000      0.00000         0.119084      0.473381      0.381554
     -3.67610      5.56737      0.73230        -1.044928     -0.253535      0.644848
      7.35219      1.96496      1.46459         0.059773      0.498788     -0.240312
     -8.57756      7.53233      2.19689        -0.068013     -0.220453      0.005668
      2.45073      3.92991      2.92918         0.380736     -0.026747     -0.004659
      1.22537      0.32749      3.66148        -0.706105      0.329944     -1.067001
     -7.35219      4.58490      0.00000         0.119084      0.473381      0.381554
      3.67610      0.98248      0.73230        -1.044928     -0.253535      0.644848
      0.00000      6.54985      1.46459         0.059773      0.498788     -0.240312
     -1.22537      2.94743      2.19689        -0.068013     -0.220453      0.005668
     -4.90146      8.51481      2.92918         0.380736     -0.026747     -0.004659
     -6.12683      4.91239      3.66148        -0.706105      0.329944     -1.067001
     -7.96487      6.87735      0.00000         0.046680     -0.831668      0.701044
      3.06341      3.27493      0.73230        -0.754426      0.435440      0.241148
    -12.86634      8.84230      1.46459         0.183668      0.140693     -0.167355
     -1.83805      5.23988      2.19689        -0.100767     -0.300688      0.009494
      9.19024      1.63746      2.92918         0.048201      0.036961      0.054595
     -6.73951      7.20484      3.66148         0.018938     -0.338908     -0.521696
     -0.61268      2.29245      0.00000         0.046680     -0.831668      0.701044
     -4.28878      7.85982      0.73230        -0.754426      0.435440      0.241148
     -5.51414      4.25740      1.46459         0.183668      0.140693     -0.167355
      5.51414      0.65499      2.19689        -0.100767     -0.300688      0.009494
      1.83805      6.22236      2.92918         0.048201      0.036961      0.054595
      0.61268      2.61994      3.66148         0.018938     -0.338908     -0.521696
      6.54307      2.55901      4.16148        -0.831138      0.130649     -0.536479
     -4.48522      6.16143      4.91783         0.526097      0.859227     -0.502152
     -0.80912      0.59406      5.67418        -0.579697     -0.026844     -1.283219
      0.41624      4.19648      6.43053        -0.177215      0.447922     -0.283752
    -10.61205      7.79889      7.18688        -1.582493      0.328931      0.388602
      5.31770      2.23152      7.94323         0.640836      0.925368     -0.543374
     -0.80912      7.14391      4.16148        -0.831138      0.130649     -0.536479
      2.86697      1.57653      4.91783         0.526097      0.859227     -0.502152
     -8.16132      5.17895      5.67418        -0.579697     -0.026844     -1.283219
     -6.93595      8.78137      6.43053        -0.177215      0.447922     -0.283752
     -3.25985      3.21400      7.18688        -1.582493      0.328931      0.388602
     -2.03449      6.81642      7.94323         0.640836      0.925368     -0.543374
     -0.19644      4.85146      4.16148         0.148848     -0.381445      0.125858
    -11.22473      8.45388      4.91783         1.907935     -0.776191     -0.222222
      4.70502      2.88650      5.67418         0.043086     -0.388333      0.159031
     -6.32327      6.48892      6.43053         0.625213     -0.196106      1.112444
      9.60648      0.92155      7.18688         0.500773     -0.582433      1.114716
     -1.42181      4.52397      7.94323         0.594915     -0.283953      0.433218
      7.15575      0.26656      4.16148         0.148848     -0.381445      0.125858
     -3.87254      3.86898      4.91783         1.907935     -0.776191     -0.222222
     -2.64717      7.47140      5.67418         0.043086     -0.388333      0.159031
      1.02892      1.90403      6.43053         0.625213     -0.196106      1.112444
      2.25429      5.50645      7.18688         0.500773     -0.582433      1.114716
     -8.77400      9.10887      7.94323         0.594915     -0.283953      0.433218
    total drift:                               -0.049470      0.084194     -0.007926

  FREE ENERGIE OF THE ION-ELECTRON SYSTEM (eV)
  free  energy   TOTEN  =      -208.90031609 eV

  energy  without entropy=     -208.89943892  energy(sigma->0) =     -208.89987750