 vasp.6.4.3 19Mar24 (build Oct 22 2024 11:23:12) complex

 executed on             LinuxIFC date 2025.06.04  03:20:03

 INCAR:
   SYSTEM = Si and Ge interface calculation
   ISTART = 0
   ICHARG = 2
   LWAVE = .FALSE.
   LREAL = AUTO
   ENCUT = 700
   ENAUG = 900
   ADDGRID = .TRUE.
   LMAXMIX = 6
   LASPH = .TRUE.
   LMIXTAU = .TRUE.
   NCORE = 16
   NELM = 100
   NBANDS = 173
   EDIFF = 1d-7
   AMIX = 0.6
   ISMEAR = 0
   SIGMA = 0.01
   NELECT = 288
   ISPIN = 2
   NUPDOWN = 1
   LVTOT = .FALSE.
   LVHAR = .TRUE.

 POTCAR:    PAW_PBE Ge 05Jan2001
 POTCAR:    PAW_PBE Si 05Jan2001
|           W    W    AA    RRRRR   N    N  II  N    N   GGGG   !!!           |
|           W    W   A  A   R    R  NN   N  II  NN   N  G    G  !!!           |
|           W    W  A    A  R    R  N N  N  II  N N  N  G       !!!           |
|           W WW W  AAAAAA  RRRRR   N  N N  II  N  N N  G  GGG   !            |
|           WW  WW  A    A  R   R   N   NN  II  N   NN  G    G                |
|           W    W  A    A  R    R  N    N  II  N    N   GGGG   !!!           |
|     You use a magnetic or noncollinear calculation, but did not specify     |
|     the initial magnetic moment with the MAGMOM tag. Note that a            |
|     default of 0.014 will be used for all atoms. This ferromagnetic         |
|     setup may break the symmetry of the crystal, in particular it may       |
|     rule out finding an antiferromagnetic solution. Thence, we              |
|     recommend setting the initial magnetic moment manually or verifying     |
|     carefully that this magnetic setup is desired.                          |

 POTCAR:    PAW_PBE Ge 05Jan2001
   VRHFIN =Ge: s2p2

   TITEL  = PAW_PBE Ge 05Jan2001
   POMASS =   72.610; ZVAL   =    4.000    mass and valenz
   ENMAX  =  173.807; ENMIN  =  130.355 eV

 POTCAR:    PAW_PBE Si 05Jan2001
   VRHFIN =Si: s2p2

   TITEL  = PAW_PBE Si 05Jan2001
   POMASS =   28.085; ZVAL   =    4.000    mass and valenz
   ENMAX  =  245.345; ENMIN  =  184.009 eV

 Optimization of the real space projectors (new method)

 maximal supplied QI-value         = 16.25
 optimisation between [QCUT,QGAM] = [ 13.49, 26.98] = [ 50.95,203.80] Ry
 Optimized for a Real-space Cutoff    1.25 Angstroem

   l    n(q)    QCUT    max X(q) W(low)/X(q) W(high)/X(q)  e(spline)
   0     10    13.489    65.336    0.91E-04    0.11E-03    0.34E-06
   0     10    13.489    52.220    0.89E-04    0.11E-03    0.34E-06
   1     10    13.489    36.409    0.22E-03    0.27E-03    0.14E-06
   1     10    13.489    21.334    0.21E-03    0.27E-03    0.14E-06
   2      9    13.489     4.673    0.11E-03    0.12E-03    0.19E-06
 Optimization of the real space projectors (new method)

 maximal supplied QI-value         = 19.84
 optimisation between [QCUT,QGAM] = [ 13.49, 26.99] = [ 50.98,203.92] Ry
 Optimized for a Real-space Cutoff    1.07 Angstroem

   l    n(q)    QCUT    max X(q) W(low)/X(q) W(high)/X(q)  e(spline)
   0      9    13.493   159.560    0.22E-03    0.15E-03    0.72E-07
   0      9    13.493   115.863    0.21E-03    0.15E-03    0.71E-07
   1      8    13.493    88.339    0.15E-03    0.11E-03    0.13E-06
   1      8    13.493    48.592    0.15E-03    0.10E-03    0.13E-06
  PAW_PBE Ge 05Jan2001                  :
  PAW_PBE Si 05Jan2001                  :

 POSCAR: Ge+Si
  positions in direct lattice

 exchange-correlation table for PE
   RHO(1)=    0.500       N(1)  =     2000
   RHO(2)=  100.500       N(2)  =     4000

 ion  position               nearest neighbor table
   1  0.009  0.996  0.000-  13 2.45  46 2.45  71 2.63
   2  0.259  0.871  0.213-  22 2.45  14 2.45  46 2.45  47 2.45
   3  0.509  0.746  0.427-  15 2.45  23 2.45  48 2.45  47 2.45
   4  0.509  0.246  0.000-  60 1.89  37 2.45  16 2.45
   5  0.759  0.121  0.213-  37 2.45  38 2.45  13 2.45  17 2.45
   6  0.009  0.996  0.427-  38 2.45  18 2.45  39 2.45  14 2.45
   7  0.009  0.496  0.000-  72 1.91  40 2.45  19 2.45
   8  0.259  0.371  0.213-  20 2.45  40 2.45  41 2.45  16 2.45
   9  0.509  0.246  0.427-  21 2.45  17 2.45  42 2.45  41 2.45
  10  0.509  0.746  0.000-  43 2.45  22 2.45  65 2.64
  11  0.759  0.621  0.213-  19 2.45  43 2.45  44 2.45  23 2.45
  12  0.009  0.496  0.427-  20 2.45  24 2.45  44 2.45  45 2.45
  13  0.009  0.121  0.107-  28 2.45  29 2.45   1 2.45   5 2.45
  14  0.259  0.996  0.320-  30 2.45  29 2.45   2 2.45   6 2.45
  15  0.509  0.871  0.533-  56 2.40  30 2.45   3 2.45
  16  0.509  0.371  0.107-  32 2.45   4 2.45  31 2.45   8 2.45
  17  0.759  0.246  0.320-  33 2.45   9 2.45  32 2.45   5 2.45
  18  0.009  0.121  0.533-  68 2.42   6 2.45  33 2.45  55 2.50
  19  0.009  0.621  0.107-  11 2.45   7 2.45  35 2.45  34 2.45
  20  0.259  0.496  0.320-  12 2.45   8 2.45  36 2.45  35 2.45
  21  0.509  0.371  0.533-   9 2.45  36 2.45  49 2.48  61 2.91
  22  0.509  0.871  0.107-  26 2.45  25 2.45   2 2.45  10 2.45
  23  0.759  0.746  0.320-  27 2.45   3 2.45  26 2.45  11 2.45
  24  0.009  0.621  0.533-  12 2.45  27 2.45  67 2.90
  25  0.509  0.996  0.000-  37 2.45  22 2.45  53 2.63
  26  0.759  0.871  0.213-  46 2.45  22 2.45  38 2.45  23 2.45
  27  0.009  0.746  0.427-  39 2.45  23 2.45  47 2.45  24 2.45
  28  0.009  0.246  0.000-  66 1.89  13 2.45  40 2.45
  29  0.259  0.121  0.213-  37 2.45  13 2.45  14 2.45  41 2.45
  30  0.509  0.996  0.427-  42 2.45  15 2.45  38 2.45  14 2.45
  31  0.509  0.496  0.000-  54 1.91  43 2.45  16 2.45
  32  0.759  0.371  0.213-  16 2.45  44 2.45  40 2.45  17 2.45
  33  0.009  0.246  0.427-  45 2.45  41 2.45  17 2.45  18 2.45
  34  0.009  0.746  0.000-  46 2.45  19 2.45  59 2.64
  35  0.259  0.621  0.213-  47 2.45  43 2.45  19 2.45  20 2.45
  36  0.509  0.496  0.427-  48 2.45  44 2.45  20 2.45  21 2.45
  37  0.509  0.121  0.107-   5 2.45  25 2.45   4 2.45  29 2.45
  38  0.759  0.996  0.320-   6 2.45  30 2.45   5 2.45  26 2.45
  39  0.009  0.871  0.533-  62 2.40  27 2.45   6 2.45
  40  0.009  0.371  0.107-   7 2.45  28 2.45   8 2.45  32 2.45
  41  0.259  0.246  0.320-  33 2.45  29 2.45   8 2.45   9 2.45
  42  0.509  0.121  0.533-  50 2.42  30 2.45   9 2.45  61 2.50
  43  0.509  0.621  0.107-  31 2.45  11 2.45  10 2.45  35 2.45
  44  0.759  0.496  0.320-  36 2.45  11 2.45  32 2.45  12 2.45
  45  0.009  0.371  0.533-  33 2.45  12 2.45  67 2.48  55 2.91
  46  0.009  0.871  0.107-  34 2.45  26 2.45   1 2.45   2 2.45
  47  0.259  0.746  0.320-  35 2.45  27 2.45   3 2.45   2 2.45
  48  0.509  0.621  0.533-  36 2.45   3 2.45  49 2.90
  49  0.386  0.478  0.646-  63 2.42  57 2.42  21 2.48  48 2.90
  50  0.636  0.089  0.694-  61 2.31  64 2.42  58 2.42  42 2.42
  51  0.886  0.700  0.742-  62 2.31  65 2.42  59 2.42
  52  0.136  0.312  0.791-  63 2.31  55 2.34  66 2.42  60 2.42
  53  0.386  0.923  0.839-  64 2.31  56 2.34  25 2.63
  54  0.636  0.534  0.887-  31 1.91  65 2.31  57 2.34
  55  0.136  0.228  0.646-  68 2.31  52 2.34  18 2.50  45 2.91
  56  0.386  0.839  0.694-  69 2.31  53 2.34  15 2.40
  57  0.636  0.450  0.742-  70 2.31  54 2.34  67 2.42  49 2.42
  58  0.886  0.062  0.791-  71 2.31  68 2.42  50 2.42
  59  0.136  0.673  0.839-  72 2.31  69 2.42  51 2.42  34 2.64
  60  0.386  0.284  0.887-   4 1.89  70 2.42  52 2.42
  61  0.636  0.228  0.646-  50 2.31  70 2.34  42 2.50  21 2.91
  62  0.886  0.839  0.694-  51 2.31  71 2.34  39 2.40
  63  0.136  0.450  0.742-  52 2.31  72 2.34  49 2.42  67 2.42
  64  0.386  0.062  0.791-  53 2.31  50 2.42  68 2.42
  65  0.636  0.673  0.839-  54 2.31  51 2.42  69 2.42  10 2.64
  66  0.886  0.284  0.887-  28 1.89  52 2.42  70 2.42
  67  0.886  0.478  0.646-  57 2.42  63 2.42  45 2.48  24 2.90
  68  0.136  0.089  0.694-  55 2.31  58 2.42  64 2.42  18 2.42
  69  0.386  0.700  0.742-  56 2.31  59 2.42  65 2.42
  70  0.636  0.312  0.791-  57 2.31  61 2.34  60 2.42  66 2.42
  71  0.886  0.923  0.839-  58 2.31  62 2.34   1 2.63
  72  0.136  0.534  0.887-   7 1.91  59 2.31  63 2.34

  LATTYP: Found a simple orthorhombic cell.
 ALAT       =     8.0013380050
 B/A-ratio  =     1.6577630232
 C/A-ratio  =     2.0000000000

  Lattice vectors:

 A1 = (  -8.0013380050,   0.0000000000,   0.0000000000)
 A2 = (   0.0000000000,   0.0000000000,  13.2643222810)
 A3 = (   0.0000000000,  16.0026760100,   0.0000000000)

Analysis of symmetry for initial positions (statically):
 Subroutine PRICEL returns following result:

[...]

   2 primitive cells build up your supercell.

 Routine SETGRP: Setting up the symmetry group for a
 simple orthorhombic supercell.

 Subroutine GETGRP returns: Found  1 space group operations
 (whereof  1 operations were pure point group operations)
 out of a pool of  8 trial point group operations.

The static configuration has the point symmetry C_1 .

Analysis of symmetry for dynamics (positions and initial velocities):
 Subroutine PRICEL returns following result:

[...]

The dynamic configuration has the point symmetry C_1 .

Analysis of structural, dynamic, and magnetic symmetry:
 Subroutine PRICEL returns following result:

  LATTYP: Found a simple orthorhombic cell.
 ALAT       =     4.0006668581
 B/A-ratio  =     3.3155278236
 C/A-ratio  =     4.0000021440

  Lattice vectors:

 A1 = (  -4.0006668581,  -0.0000019043,  -0.0000015917)
 A2 = (   0.0000000000,   0.0000000000,  13.2643222810)
 A3 = (   0.0000000000,  16.0026760100,   0.0000000000)

   2 primitive cells build up your supercell.

 Routine SETGRP: Setting up the symmetry group for a
 simple orthorhombic supercell.

 Subroutine GETGRP returns: Found  1 space group operations
 (whereof  1 operations were pure point group operations)
 out of a pool of  8 trial point group operations.

The overall configuration has the point symmetry C_1 .

 Subroutine INISYM returns: Found  1 space group operations
 (whereof  1 operations are pure point group operations),
 and found     2 'primitive' translations

                                     Primitive cell

  volume of cell :     849.2002

  direct lattice vectors                    reciprocal lattice vectors
    -4.000666858 -0.000001904 -0.000001592    -0.249958328  0.000000000  0.000000000
     0.000000000  0.000000000 13.264322281    -0.000000030  0.000000000  0.075390207
     0.000000000 16.002676010  0.000000000    -0.000000030  0.062489549  0.000000000

  length of vectors
     4.000666858 13.264322281 16.002676010     0.249958328  0.075390207  0.062489549

  position of ions in fractional coordinates (direct lattice)
     0.982916537  0.999999998  0.995729146
     0.482916317  0.213271288  0.870729086
     0.982916823  0.426542757  0.745729206
     0.982916557  0.999999998  0.245729131
     0.482916317  0.213271288  0.120729071
     0.982916823  0.426542757  0.995729146
     0.982916511  0.999999998  0.495729087
     0.482916317  0.213271288  0.370729057
     0.982916585  0.426542757  0.245729161
     0.982916507  0.999999998  0.745729146
     0.482916377  0.213271288  0.620729086
     0.982916585  0.426542757  0.495729117
     0.982916585  0.106635673  0.120729154
     0.482916317  0.319907007  0.995729086
     0.982916585  0.533178447  0.870729146
     0.982916585  0.106635673  0.370729117
     0.482916555  0.319907007  0.245729057
     0.982916585  0.533178447  0.120729131
     0.982916823  0.106635673  0.620729087
[...]
  Fock        0.00000     0.00000     0.00000     0.00000     0.00000     0.00000
  Total      12.94852    39.01187    77.82136     4.98859   -17.35196     4.44513
  in kB      12.21491    36.80163    73.41234     4.70595   -16.36887     4.19329

 VOLUME and BASIS-vectors are now :
  energy-cutoff  :      700.00
  volume of cell :     1698.40
      direct lattice vectors                 reciprocal lattice vectors
     8.001338005  0.000000000  0.000000000     0.124979097  0.000000000  0.000000000
     0.000000000 16.002676010  0.000000000     0.000000000  0.062489549  0.000000000
     0.000000000  0.000000000 13.264322281     0.000000000  0.000000000  0.075390207

  length of vectors
     8.001338005 16.002676010 13.264322281     0.124979097  0.062489549  0.075390207

 FORCES acting on ions
    electron-ion (+dipol)            ewald-force                    non-local-force                 convergence-correction
   -.611E+01 0.242E+01 0.184E+02   0.679E+01 -.297E+01 -.195E+02   -.577E+00 -.268E-01 -.141E+00   -.865E-05 -.352E-04 -.609E-04
   -.137E+00 -.168E+01 0.662E+01   -.593E-01 0.147E+01 -.652E+01   0.100E+00 0.800E-01 -.306E-02   -.170E-05 -.311E-04 -.350E-04
   -.915E+00 -.772E+01 -.174E+02   0.661E+00 0.749E+01 0.177E+02   -.276E-01 0.390E+00 -.233E+00   -.394E-05 -.928E-04 0.351E-04
   -.181E+02 0.372E+02 -.160E+02   0.195E+02 -.380E+02 0.174E+02   0.387E+01 -.271E+01 0.665E+01   -.104E-04 -.170E-04 -.485E-04
   0.980E-01 0.121E+02 0.818E+01   -.640E-01 -.120E+02 -.810E+01   -.142E+00 -.155E+00 0.173E-01   0.654E-06 -.415E-04 -.118E-03
   0.128E+00 0.136E+02 -.138E+02   -.242E+00 -.130E+02 0.140E+02   -.488E-02 -.590E+00 -.457E-01   0.648E-06 -.115E-03 -.720E-04
   0.216E+02 0.714E+01 -.159E+02   -.223E+02 -.718E+01 0.171E+02   -.463E+01 -.273E+01 0.611E+01   0.261E-04 0.601E-04 -.866E-04
   -.844E-01 0.157E+01 0.112E+01   -.488E-01 -.136E+01 -.794E+00   0.157E+00 -.133E+00 -.208E+00   0.513E-06 0.253E-04 -.730E-04
   0.206E+01 0.730E+01 0.402E+01   -.225E+01 -.702E+01 -.414E+01   0.417E-01 -.114E+00 -.103E+00   -.592E-05 0.461E-04 -.115E-03
   0.319E+01 -.277E+02 0.182E+02   -.374E+01 0.273E+02 -.189E+02   0.616E+00 0.558E-01 -.454E+00   0.413E-05 0.331E-04 -.517E-04
   -.720E-01 -.122E+02 -.801E+00   0.172E+00 0.121E+02 0.787E+00   0.119E-01 0.143E+00 0.127E+00   -.322E-05 0.476E-04 0.301E-04
   -.158E+01 -.134E+02 0.606E+00   0.183E+01 0.135E+02 -.533E+00   0.909E-01 -.601E-01 -.438E+00   -.242E-05 0.163E-03 0.712E-04
   -.659E+00 0.154E+02 0.153E+02   0.599E+00 -.156E+02 -.154E+02   -.474E-01 0.343E+00 0.113E+00   -.507E-05 -.464E-04 -.587E-04
   0.161E+00 0.840E+01 -.426E+01   0.223E-01 -.856E+01 0.396E+01   -.124E+00 0.586E-01 0.131E+00   -.676E-06 -.793E-04 -.967E-04
   -.758E+01 -.420E+01 -.186E+02   0.798E+01 0.358E+01 0.192E+02   -.105E+00 0.362E+00 0.126E+00   -.105E-04 -.130E-03 0.574E-04
   -.465E+00 0.906E+00 -.112E+01   0.585E+00 -.143E+01 0.153E+01   -.338E-01 0.560E+00 -.569E+00   -.620E-06 -.638E-05 -.488E-04
   0.154E+00 0.769E+01 0.144E+01   0.188E+00 -.784E+01 -.134E+01   -.361E+00 0.178E+00 -.367E+00   0.477E-05 0.391E-05 -.101E-03
   0.128E+02 0.294E+02 0.431E+01   -.132E+02 -.298E+02 -.360E+01   -.181E+00 -.729E-01 -.688E+00   0.495E-06 -.973E-04 -.298E-05
   0.168E+01 -.163E+02 0.984E-01   -.178E+01 0.166E+02 -.301E+00   -.108E+00 -.262E+00 0.342E+00   0.660E-05 0.272E-04 -.154E-04
   -.333E+00 -.836E+01 -.310E+01   -.143E+00 0.860E+01 0.314E+01   0.472E+00 -.165E+00 -.200E+00   0.134E-05 0.109E-03 0.319E-04
   -.146E+01 0.702E+01 0.159E+01   0.116E+01 -.660E+01 -.107E+01   0.197E+00 -.644E+00 0.206E+00   -.122E-04 0.201E-03 0.191E-04
   -.351E+00 -.185E+01 0.171E+02   0.597E+00 0.247E+01 -.172E+02   -.175E-01 -.466E+00 0.145E+00   -.202E-05 0.758E-05 -.322E-04
   0.250E+00 -.781E+01 -.871E+01   -.671E-01 0.788E+01 0.844E+01   -.163E+00 -.118E+00 0.163E+00   0.144E-05 -.326E-04 0.255E-04
   -.233E+01 -.270E+02 -.211E+02   0.415E+01 0.270E+02 0.223E+02   -.171E+01 -.298E+00 0.536E+00   0.723E-05 0.208E-04 0.388E-04
   -.611E+01 0.242E+01 0.184E+02   0.679E+01 -.297E+01 -.195E+02   -.577E+00 -.268E-01 -.141E+00   -.105E-04 -.351E-04 -.615E-04
   -.137E+00 -.168E+01 0.662E+01   -.593E-01 0.147E+01 -.652E+01   0.100E+00 0.800E-01 -.306E-02   0.146E-06 -.315E-04 -.358E-04
   -.915E+00 -.772E+01 -.174E+02   0.661E+00 0.749E+01 0.177E+02   -.276E-01 0.390E+00 -.233E+00   -.191E-05 -.909E-04 0.341E-04
   -.181E+02 0.372E+02 -.160E+02   0.195E+02 -.380E+02 0.174E+02   0.387E+01 -.271E+01 0.665E+01   -.913E-05 -.157E-04 -.485E-04
   0.980E-01 0.121E+02 0.818E+01   -.641E-01 -.120E+02 -.810E+01   -.142E+00 -.155E+00 0.173E-01   -.291E-06 -.425E-04 -.117E-03
   0.128E+00 0.136E+02 -.138E+02   -.242E+00 -.130E+02 0.140E+02   -.488E-02 -.590E+00 -.457E-01   -.280E-05 -.115E-03 -.715E-04
   0.216E+02 0.714E+01 -.159E+02   -.223E+02 -.718E+01 0.171E+02   -.463E+01 -.273E+01 0.611E+01   0.268E-04 0.624E-04 -.852E-04
   -.844E-01 0.157E+01 0.112E+01   -.488E-01 -.136E+01 -.794E+00   0.157E+00 -.133E+00 -.208E+00   0.331E-05 0.276E-04 -.722E-04
   0.206E+01 0.730E+01 0.402E+01   -.225E+01 -.702E+01 -.414E+01   0.417E-01 -.114E+00 -.103E+00   -.549E-05 0.463E-04 -.114E-03
   0.319E+01 -.277E+02 0.182E+02   -.374E+01 0.273E+02 -.189E+02   0.616E+00 0.558E-01 -.454E+00   0.506E-05 0.352E-04 -.516E-04
   -.720E-01 -.122E+02 -.801E+00   0.172E+00 0.121E+02 0.787E+00   0.119E-01 0.143E+00 0.127E+00   -.150E-06 0.504E-04 0.296E-04
   -.158E+01 -.134E+02 0.606E+00   0.183E+01 0.135E+02 -.533E+00   0.909E-01 -.601E-01 -.438E+00   0.176E-05 0.165E-03 0.731E-04
   -.659E+00 0.154E+02 0.153E+02   0.599E+00 -.156E+02 -.154E+02   -.474E-01 0.343E+00 0.113E+00   -.821E-05 -.475E-04 -.583E-04
   0.161E+00 0.840E+01 -.426E+01   0.223E-01 -.856E+01 0.396E+01   -.124E+00 0.586E-01 0.131E+00   -.178E-05 -.790E-04 -.957E-04
   -.758E+01 -.420E+01 -.186E+02   0.798E+01 0.358E+01 0.192E+02   -.105E+00 0.362E+00 0.126E+00   -.850E-05 -.131E-03 0.566E-04
   -.465E+00 0.906E+00 -.112E+01   0.585E+00 -.143E+01 0.153E+01   -.338E-01 0.560E+00 -.569E+00   -.231E-05 -.709E-05 -.498E-04
   0.154E+00 0.769E+01 0.144E+01   0.188E+00 -.784E+01 -.134E+01   -.361E+00 0.178E+00 -.367E+00   0.174E-05 0.165E-05 -.102E-03
   0.128E+02 0.294E+02 0.431E+01   -.132E+02 -.298E+02 -.360E+01   -.181E+00 -.729E-01 -.688E+00   -.111E-05 -.100E-03 -.363E-05
   0.168E+01 -.163E+02 0.984E-01   -.178E+01 0.166E+02 -.301E+00   -.108E+00 -.262E+00 0.342E+00   0.804E-05 0.284E-04 -.147E-04
   -.333E+00 -.836E+01 -.310E+01   -.143E+00 0.860E+01 0.314E+01   0.472E+00 -.165E+00 -.200E+00   0.666E-07 0.109E-03 0.315E-04
   -.146E+01 0.702E+01 0.159E+01   0.116E+01 -.660E+01 -.107E+01   0.197E+00 -.644E+00 0.206E+00   -.128E-04 0.198E-03 0.185E-04
   -.351E+00 -.185E+01 0.171E+02   0.597E+00 0.247E+01 -.172E+02   -.175E-01 -.466E+00 0.145E+00   0.149E-05 0.796E-05 -.317E-04
   0.250E+00 -.781E+01 -.871E+01   -.670E-01 0.788E+01 0.844E+01   -.163E+00 -.118E+00 0.163E+00   0.695E-06 -.300E-04 0.251E-04
   -.233E+01 -.270E+02 -.211E+02   0.415E+01 0.270E+02 0.223E+02   -.171E+01 -.298E+00 0.536E+00   0.816E-05 0.189E-04 0.402E-04
   0.119E+02 -.317E+02 0.666E+01   -.116E+02 0.313E+02 -.692E+01   -.327E+00 0.287E+00 0.230E+00   0.116E-04 0.171E-03 0.606E-05
   -.894E+01 0.457E+02 -.948E+01   0.870E+01 -.446E+02 0.103E+02   0.281E+00 -.145E+01 -.201E+00   -.419E-05 -.168E-03 0.186E-03
   0.385E+01 -.727E+01 0.213E+02   -.329E+01 0.819E+01 -.215E+02   -.290E+00 -.152E+01 -.209E+00   0.108E-04 0.327E-04 -.338E-04
   -.412E+01 0.148E+02 -.605E+01   0.341E+01 -.151E+02 0.409E+01   0.674E+00 0.164E+00 0.248E+01   -.317E-04 0.814E-04 0.130E-03
   0.599E+01 0.219E+02 -.126E+02   -.663E+01 -.207E+02 0.122E+02   0.528E+00 -.919E+00 0.999E+00   -.193E-05 -.317E-04 -.122E-04
   -.254E+02 -.185E+02 0.140E+02   0.234E+02 0.178E+02 -.135E+02   0.742E+01 0.324E+01 -.800E+01   -.380E-04 0.462E-04 -.210E-04
   -.107E+02 -.120E+01 0.697E+01   0.115E+02 0.483E-01 -.476E+01   -.410E+00 0.218E+01 -.179E+01   0.422E-05 0.348E-04 0.134E-03
   0.808E+01 -.121E+02 0.856E+01   -.874E+01 0.118E+02 -.648E+01   0.424E+00 0.610E+00 -.238E+01   0.409E-05 -.563E-04 0.126E-03
   -.330E+01 -.184E+02 0.632E+01   0.329E+01 0.175E+02 -.500E+01   0.190E+00 0.140E+01 -.151E+01   -.199E-04 0.111E-03 0.169E-04
   0.353E+01 0.351E+01 -.209E+02   -.342E+01 -.576E+01 0.205E+02   0.135E+00 0.256E+01 -.938E-01   0.797E-05 -.170E-03 0.141E-03
   -.722E+01 -.372E+02 0.420E+01   0.662E+01 0.358E+02 -.479E+01   0.385E+00 0.226E+01 0.896E+00   -.979E-05 0.306E-04 -.659E-04
   0.252E+02 0.138E+02 0.148E+02   -.237E+02 -.129E+02 -.122E+02   -.697E+01 0.236E+01 -.114E+02   0.309E-04 -.155E-04 0.896E-04
   -.107E+02 -.120E+01 0.697E+01   0.115E+02 0.483E-01 -.476E+01   -.410E+00 0.218E+01 -.179E+01   0.496E-05 0.353E-04 0.134E-03
   0.808E+01 -.121E+02 0.856E+01   -.874E+01 0.118E+02 -.648E+01   0.424E+00 0.610E+00 -.238E+01   0.409E-05 -.567E-04 0.126E-03
   -.330E+01 -.184E+02 0.632E+01   0.329E+01 0.175E+02 -.500E+01   0.190E+00 0.140E+01 -.151E+01   -.184E-04 0.110E-03 0.188E-04
   0.353E+01 0.351E+01 -.209E+02   -.342E+01 -.576E+01 0.205E+02   0.135E+00 0.256E+01 -.938E-01   0.644E-05 -.171E-03 0.141E-03
   -.722E+01 -.372E+02 0.420E+01   0.662E+01 0.358E+02 -.479E+01   0.385E+00 0.226E+01 0.896E+00   -.111E-04 0.309E-04 -.661E-04
   0.252E+02 0.138E+02 0.148E+02   -.237E+02 -.129E+02 -.122E+02   -.697E+01 0.236E+01 -.114E+02   0.338E-04 -.149E-04 0.902E-04
   0.119E+02 -.317E+02 0.666E+01   -.116E+02 0.313E+02 -.692E+01   -.327E+00 0.287E+00 0.230E+00   0.100E-04 0.170E-03 0.631E-05
   -.894E+01 0.457E+02 -.948E+01   0.870E+01 -.446E+02 0.103E+02   0.281E+00 -.145E+01 -.201E+00   -.363E-05 -.167E-03 0.186E-03
   0.385E+01 -.727E+01 0.213E+02   -.329E+01 0.819E+01 -.215E+02   -.290E+00 -.152E+01 -.209E+00   0.119E-04 0.327E-04 -.347E-04
   -.412E+01 0.148E+02 -.605E+01   0.341E+01 -.151E+02 0.409E+01   0.674E+00 0.164E+00 0.248E+01   -.304E-04 0.821E-04 0.129E-03
   0.599E+01 0.219E+02 -.126E+02   -.663E+01 -.207E+02 0.122E+02   0.528E+00 -.919E+00 0.999E+00   -.116E-05 -.312E-04 -.115E-04
   -.254E+02 -.185E+02 0.140E+02   0.234E+02 0.178E+02 -.135E+02   0.742E+01 0.324E+01 -.800E+01   -.390E-04 0.444E-04 -.207E-04
   0.142E+01 -.955E+01 0.198E+02   0.355E-13 0.213E-13 0.355E-13   -.125E+01 0.959E+01 -.195E+02   -.896E-04 0.177E-03 -.182E-04

 POSITION                                       TOTAL-FORCE (eV/Angst)
      0.06835     15.93433      0.00000         0.097765     -0.578252     -1.240059
      2.06868     13.93400      2.82890        -0.098134     -0.129842      0.096078
      4.06901     11.93366      5.65780        -0.283766      0.155308      0.004248
      4.06901      3.93232      0.00000         5.349879     -3.582992      7.968672
      6.06935      1.93199      2.82890        -0.110849     -0.020068      0.100260
      0.06834     15.93433      5.65780        -0.120679      0.002685      0.124553
      0.06835      7.93299      0.00000        -5.374049     -2.763902      7.319881
      2.06868      5.93266      2.82890         0.021395      0.075579      0.118674
      4.06901      3.93232      5.65780        -0.151964      0.164599     -0.231825
      4.06901     11.93366      0.00000         0.059617     -0.361865     -1.159984
      6.06935      9.93333      2.82890         0.109756     -0.003782      0.108742
      0.06835      7.93299      5.65780         0.336013      0.018273     -0.369409
      0.06835      1.93199      1.41445        -0.109117      0.127063      0.025050
      2.06868     15.93433      4.24335         0.056592     -0.102680     -0.166043
      4.06901     13.93400      7.07225         0.298374     -0.266104      0.745027
      4.06901      5.93266      1.41445         0.083562      0.039841     -0.160766
      6.06935      3.93232      4.24335        -0.020931      0.026561     -0.278312
      0.06835      1.93199      7.07225        -0.621119     -0.458392      0.023627
      0.06834      9.93333      1.41445        -0.214259      0.079835      0.136177
      2.06868      7.93299      4.24335        -0.006703      0.075056     -0.164893
      4.06901      5.93266      7.07225        -0.105482     -0.220607      0.725562
      4.06901     13.93400      1.41445         0.225745      0.152447     -0.001532
      6.06935     11.93366      4.24335         0.017246     -0.055073     -0.111676
      0.06835      9.93333      7.07225         0.113543     -0.317715      1.663435
      4.06901     15.93433      0.00000         0.097765     -0.578252     -1.240059
      6.06935     13.93400      2.82890        -0.098134     -0.129842      0.096078
      0.06834     11.93366      5.65780        -0.283766      0.155308      0.004248
      0.06835      3.93232      0.00000         5.349879     -3.582992      7.968672
      2.06868      1.93199      2.82890        -0.110849     -0.020068      0.100260
      4.06901     15.93433      5.65780        -0.120679      0.002685      0.124553
      4.06901      7.93299      0.00000        -5.374049     -2.763902      7.319881
      6.06935      5.93266      2.82890         0.021395      0.075579      0.118674
      0.06835      3.93232      5.65780        -0.151964      0.164599     -0.231825
      0.06835     11.93366      0.00000         0.059617     -0.361865     -1.159984
      2.06868      9.93333      2.82890         0.109756     -0.003782      0.108742
      4.06901      7.93299      5.65780         0.336013      0.018273     -0.369409
      4.06901      1.93199      1.41445        -0.109117      0.127063      0.025050
      6.06935     15.93433      4.24335         0.056592     -0.102680     -0.166043
      0.06835     13.93400      7.07225         0.298374     -0.266104      0.745027
      0.06835      5.93266      1.41445         0.083562      0.039841     -0.160766
      2.06868      3.93232      4.24335        -0.020931      0.026561     -0.278312
      4.06901      1.93199      7.07225        -0.621119     -0.458392      0.023627
      4.06901      9.93333      1.41445        -0.214259      0.079835      0.136177
      6.06935      7.93299      4.24335        -0.006703      0.075056     -0.164893
      0.06835      5.93266      7.07225        -0.105482     -0.220607      0.725562
      0.06834     13.93400      1.41445         0.225745      0.152447     -0.001532
      2.06868     11.93366      4.24335         0.017246     -0.055073     -0.111676
      4.06901      9.93333      7.07225         0.113543     -0.317715      1.663435
      3.08531      7.65201      8.56816        -0.028265     -0.074279     -0.031858
      5.08565      1.42875      9.20821         0.038162     -0.284164      0.647209
      7.08598     11.20816      9.84826         0.264612     -0.597528     -0.407140
      1.08498      4.98490     10.48831        -0.032059     -0.128268      0.518624
      3.08532     14.76431     11.12836        -0.116392      0.275034      0.601928
      5.08565      8.54104     11.76841         5.416150      2.488896     -7.570409
      1.08498      3.65134      8.56816         0.428714      1.024511      0.424032
      3.08532     13.43075      9.20821        -0.238428      0.311424     -0.298637
      5.08565      7.20749      9.84826         0.172526      0.499534     -0.202979
      7.08599      0.98422     10.48831         0.246743      0.311545     -0.414086
      1.08498     10.76364     11.12836        -0.217724      0.913119      0.295205
      3.08532      4.54037     11.76841        -5.486474      3.204200     -8.837377
      5.08565      3.65134      8.56816         0.428714      1.024511      0.424032
      7.08598     13.43075      9.20821        -0.238428      0.311424     -0.298637
      1.08498      7.20749      9.84826         0.172526      0.499534     -0.202979
      3.08532      0.98422     10.48831         0.246743      0.311545     -0.414086
      5.08565     10.76364     11.12836        -0.217724      0.913119      0.295205
      7.08599      4.54037     11.76841        -5.486474      3.204200     -8.837377
      7.08598      7.65201      8.56816        -0.028265     -0.074279     -0.031858
      1.08498      1.42875      9.20821         0.038162     -0.284164      0.647209
      3.08532     11.20816      9.84826         0.264612     -0.597528     -0.407140
      5.08565      4.98490     10.48831        -0.032059     -0.128268      0.518624
      7.08599     14.76430     11.12836        -0.116392      0.275034      0.601928
      1.08498      8.54104     11.76841         5.416150      2.488896     -7.570409
    total drift:                                0.167741      0.042963      0.266501

  FREE ENERGIE OF THE ION-ELECTRON SYSTEM (eV)
  free  energy   TOTEN  =      -308.48907260 eV

  energy  without entropy=     -308.48799533  energy(sigma->0) =     -308.48853397