 vasp.6.4.3 19Mar24 (build Oct 22 2024 11:23:12) complex

 executed on             LinuxIFC date 2025.04.30  09:14:24

 INCAR:
   SYSTEM = Si012 and Ge012 interface calculation
   ISTART = 0
   ICHARG = 2
   LWAVE = .FALSE.
   LREAL = AUTO
   ENCUT = 700
   ENAUG = 900
   ADDGRID = .TRUE.
   LMAXMIX = 6
   LASPH = .TRUE.
   LMIXTAU = .TRUE.
   NCORE = 16
   NELM = 100
   NBANDS = 173
   EDIFF = 1d-7
   AMIX = 0.6
   ISMEAR = 0
   SIGMA = 0.01
   NELECT = 288
   ISPIN = 2
   NUPDOWN = 1
   LVTOT = .FALSE.
   LVHAR = .TRUE.

 POTCAR:    PAW_PBE Si 05Jan2001
 POTCAR:    PAW_PBE Ge 05Jan2001
|           W    W    AA    RRRRR   N    N  II  N    N   GGGG   !!!           |
|           W    W   A  A   R    R  NN   N  II  NN   N  G    G  !!!           |
|           W    W  A    A  R    R  N N  N  II  N N  N  G       !!!           |
|           W WW W  AAAAAA  RRRRR   N  N N  II  N  N N  G  GGG   !            |
|           WW  WW  A    A  R   R   N   NN  II  N   NN  G    G                |
|           W    W  A    A  R    R  N    N  II  N    N   GGGG   !!!           |
|     You use a magnetic or noncollinear calculation, but did not specify     |
|     the initial magnetic moment with the MAGMOM tag. Note that a            |
|     default of 0.014 will be used for all atoms. This ferromagnetic         |
|     setup may break the symmetry of the crystal, in particular it may       |
|     rule out finding an antiferromagnetic solution. Thence, we              |
|     recommend setting the initial magnetic moment manually or verifying     |
|     carefully that this magnetic setup is desired.                          |

 POTCAR:    PAW_PBE Si 05Jan2001
   VRHFIN =Si: s2p2

   TITEL  = PAW_PBE Si 05Jan2001
   POMASS =   28.085; ZVAL   =    4.000    mass and valenz
   ENMAX  =  245.345; ENMIN  =  184.009 eV

 POTCAR:    PAW_PBE Ge 05Jan2001
   VRHFIN =Ge: s2p2

   TITEL  = PAW_PBE Ge 05Jan2001
   POMASS =   72.610; ZVAL   =    4.000    mass and valenz
   ENMAX  =  173.807; ENMIN  =  130.355 eV

 Optimization of the real space projectors (new method)

 maximal supplied QI-value         = 19.84
 optimisation between [QCUT,QGAM] = [ 13.49, 26.99] = [ 50.98,203.92] Ry
 Optimized for a Real-space Cutoff    1.07 Angstroem

   l    n(q)    QCUT    max X(q) W(low)/X(q) W(high)/X(q)  e(spline)
   0      9    13.493   159.560    0.22E-03    0.15E-03    0.72E-07
   0      9    13.493   115.863    0.21E-03    0.15E-03    0.71E-07
   1      8    13.493    88.339    0.15E-03    0.11E-03    0.13E-06
   1      8    13.493    48.592    0.15E-03    0.10E-03    0.13E-06
 Optimization of the real space projectors (new method)

 maximal supplied QI-value         = 16.25
 optimisation between [QCUT,QGAM] = [ 13.49, 26.98] = [ 50.95,203.80] Ry
 Optimized for a Real-space Cutoff    1.25 Angstroem

   l    n(q)    QCUT    max X(q) W(low)/X(q) W(high)/X(q)  e(spline)
   0     10    13.489    65.336    0.91E-04    0.11E-03    0.34E-06
   0     10    13.489    52.220    0.89E-04    0.11E-03    0.34E-06
   1     10    13.489    36.409    0.22E-03    0.27E-03    0.14E-06
   1     10    13.489    21.334    0.21E-03    0.27E-03    0.14E-06
   2      9    13.489     4.673    0.11E-03    0.12E-03    0.19E-06
  PAW_PBE Si 05Jan2001                  :
  PAW_PBE Ge 05Jan2001                  :

 POSCAR: fcc Si+fcc Ge
  positions in direct lattice

 exchange-correlation table for PE
   RHO(1)=    0.500       N(1)  =     2000
   RHO(2)=  100.500       N(2)  =     4000

 ion  position               nearest neighbor table
   1  0.400  0.200  0.313-  46 1.76  24 2.37  19 2.37  35 2.37
   2  0.333  0.667  0.000-  39 1.82  20 2.37  30 2.37  59 2.51
   3  0.867  0.433  0.157-  28 2.37  23 2.37  21 2.37  40 2.85
   4  0.733  0.867  0.313-  43 1.95  27 2.37  22 2.37  29 2.37  58 2.44
   5  0.667  0.333  0.000-  69 1.26  54 2.00  33 2.37  23 2.37
   6  0.200  0.100  0.157-  26 2.37  24 2.37  31 2.37  42 2.82
   7  0.067  0.533  0.313-  32 2.37  21 2.37  25 2.37  64 2.58  53 2.89
   8  0.000  0.000  0.000-  57 1.50  26 2.37  36 2.37  47 2.86
   9  0.533  0.767  0.157-  20 2.37  27 2.37  34 2.37  72 2.48
  10  0.900  0.200  0.313-  37 1.76  33 2.37  28 2.37  26 2.37
  11  0.833  0.667  0.000-  48 1.82  29 2.37  21 2.37  68 2.51
  12  0.367  0.433  0.157-  19 2.37  32 2.37  30 2.37  49 2.85
  13  0.233  0.867  0.313-  52 1.95  36 2.37  31 2.37  20 2.37  67 2.44
  14  0.167  0.333  0.000-  60 1.26  45 2.00  24 2.37  32 2.37
  15  0.700  0.100  0.157-  35 2.37  33 2.37  22 2.37  51 2.82
  16  0.567  0.533  0.313-  23 2.37  30 2.37  34 2.37  55 2.58  44 2.89
  17  0.500  0.000  0.000-  66 1.50  35 2.37  27 2.37  38 2.86
  18  0.033  0.767  0.157-  29 2.37  36 2.37  25 2.37  63 2.48
  19  0.417  0.333  0.391-   1 2.37  12 2.37  41 2.60  49 2.70
  20  0.350  0.800  0.078-   9 2.37   2 2.37  13 2.37
  21  0.883  0.567  0.235-  11 2.37   7 2.37   3 2.37  40 2.43
  22  0.750  0.000  0.391-   4 2.37  15 2.37  61 2.53  43 2.56
  23  0.683  0.467  0.078-  16 2.37   3 2.37   5 2.37  54 2.50
  24  0.217  0.233  0.235-   1 2.37   6 2.37  14 2.37  46 2.56
  25  0.083  0.667  0.391-  18 2.37   7 2.37  53 2.46
  26  0.017  0.133  0.078-   6 2.37   8 2.37  10 2.37  57 2.39
  27  0.550  0.900  0.235-   4 2.37   9 2.37  17 2.37
  28  0.917  0.333  0.391-  10 2.37   3 2.37  50 2.60  40 2.70
  29  0.850  0.800  0.078-  18 2.37  11 2.37   4 2.37
  30  0.383  0.567  0.235-   2 2.37  16 2.37  12 2.37  49 2.43
  31  0.250  0.000  0.391-  13 2.37   6 2.37  70 2.53  52 2.56
  32  0.183  0.467  0.078-   7 2.37  12 2.37  14 2.37  45 2.50
  33  0.717  0.233  0.235-  10 2.37  15 2.37   5 2.37  37 2.56
  34  0.583  0.667  0.391-   9 2.37  16 2.37  44 2.46
  35  0.517  0.133  0.078-  15 2.37  17 2.37   1 2.37  66 2.39
  36  0.050  0.900  0.235-  13 2.37  18 2.37   8 2.37
  37  0.842  0.172  0.494-  10 1.76  61 2.38  65 2.42  33 2.56
  38  0.542  0.938  0.655-  62 2.38  58 2.38  66 2.42  17 2.86
  39  0.242  0.705  0.817-   2 1.82  63 2.38  59 2.38  67 2.42
  40  0.842  0.505  0.494-  55 2.38  68 2.42  21 2.43  28 2.70   3 2.85
  41  0.542  0.272  0.655-  56 2.38  61 2.38  69 2.42  19 2.60
  42  0.242  0.038  0.817-  57 2.38  62 2.38  70 2.42   6 2.82
  43  0.842  0.838  0.494-   4 1.95  58 2.38  71 2.42  22 2.56
  44  0.542  0.605  0.655-  59 2.38  55 2.38  72 2.42  34 2.46  16 2.89
  45  0.242  0.372  0.817-  14 2.00  60 2.38  56 2.38  64 2.42  32 2.50
  46  0.342  0.172  0.494-   1 1.76  70 2.38  56 2.42  24 2.56
  47  0.042  0.938  0.655-  71 2.38  67 2.38  57 2.42   8 2.86
  48  0.742  0.705  0.817-  11 1.82  72 2.38  68 2.38  58 2.42
  49  0.342  0.505  0.494-  64 2.38  59 2.42  30 2.43  19 2.70  12 2.85
  50  0.042  0.272  0.655-  65 2.38  70 2.38  60 2.42  28 2.60
  51  0.742  0.038  0.817-  66 2.38  71 2.38  61 2.42  15 2.82
  52  0.342  0.838  0.494-  13 1.95  67 2.38  62 2.42  31 2.56
  53  0.042  0.605  0.655-  68 2.38  64 2.38  63 2.42  25 2.46   7 2.89
  54  0.742  0.372  0.817-   5 2.00  69 2.38  65 2.38  55 2.42  23 2.50
  55  0.692  0.472  0.574-  44 2.38  40 2.38  54 2.42  16 2.58
  56  0.392  0.238  0.736-  41 2.38  45 2.38  46 2.42
  57  0.092  0.005  0.898-   8 1.50  42 2.38  26 2.39  47 2.42
  58  0.692  0.805  0.574-  38 2.38  43 2.38  48 2.42   4 2.44
  59  0.392  0.572  0.736-  44 2.38  39 2.38  49 2.42   2 2.51
  60  0.092  0.338  0.898-  14 1.26  45 2.38  50 2.42
  61  0.692  0.138  0.574-  41 2.38  37 2.38  51 2.42  22 2.53
  62  0.392  0.905  0.736-  38 2.38  42 2.38  52 2.42
  63  0.092  0.672  0.898-  39 2.38  53 2.42  18 2.48
  64  0.192  0.472  0.574-  53 2.38  49 2.38  45 2.42   7 2.58
  65  0.892  0.238  0.736-  50 2.38  54 2.38  37 2.42
  66  0.592  0.005  0.898-  17 1.50  51 2.38  35 2.39  38 2.42
  67  0.192  0.805  0.574-  47 2.38  52 2.38  39 2.42  13 2.44
  68  0.892  0.572  0.736-  53 2.38  48 2.38  40 2.42  11 2.51
  69  0.592  0.338  0.898-   5 1.26  54 2.38  41 2.42
  70  0.192  0.138  0.574-  50 2.38  46 2.38  42 2.42  31 2.53
  71  0.892  0.905  0.736-  47 2.38  51 2.38  43 2.42
  72  0.592  0.672  0.898-  48 2.38  44 2.42   9 2.48

  LATTYP: Found a base centered orthorhombic cell.
 ALAT       =    13.4232037900
 B/A-ratio  =     2.2360679776
 C/A-ratio  =     0.5831282486

  Lattice vectors:

 A1 = (   6.7116018950, -15.0075980760,   0.0000000000)
 A2 = (   6.7116018950,  15.0075980760,   0.0000000000)
 A3 = (   0.0000000000,   0.0000000000,   7.8274493170)

Analysis of symmetry for initial positions (statically):
 Subroutine PRICEL returns following result:

  LATTYP: Found a simple orthorhombic cell.
 ALAT       =     6.7116018950
 B/A-ratio  =     1.1662564973
 C/A-ratio  =     2.2360679776

[...]

   2 primitive cells build up your supercell.

 Routine SETGRP: Setting up the symmetry group for a
 base centered orthorhombic supercell.

 Subroutine GETGRP returns: Found  1 space group operations
 (whereof  1 operations were pure point group operations)
 out of a pool of  8 trial point group operations.

The static configuration has the point symmetry C_1 .

Analysis of symmetry for dynamics (positions and initial velocities):
 Subroutine PRICEL returns following result:

[...]

The dynamic configuration has the point symmetry C_1 .

Analysis of structural, dynamic, and magnetic symmetry:
 Subroutine PRICEL returns following result:

  LATTYP: Found a simple orthorhombic cell.
 ALAT       =     6.7116018950
 B/A-ratio  =     1.1662564973
 C/A-ratio  =     2.2360679776

  Lattice vectors:

 A1 = (  -6.7116018950,   0.0000000000,   0.0000000000)
 A2 = (   0.0000000000,   0.0000000000,   7.8274493170)
 A3 = (   0.0000000000,  15.0075980760,   0.0000000000)

   2 primitive cells build up your supercell.

 Routine SETGRP: Setting up the symmetry group for a
 base centered orthorhombic supercell.

 Subroutine GETGRP returns: Found  1 space group operations
 (whereof  1 operations were pure point group operations)
 out of a pool of  8 trial point group operations.

The overall configuration has the point symmetry C_1 .

 Subroutine INISYM returns: Found  1 space group operations
 (whereof  1 operations are pure point group operations),
 and found     2 'primitive' translations

                                     Primitive cell

  volume of cell :     788.4200

  direct lattice vectors                    reciprocal lattice vectors
    -6.711601895  0.000000000  0.000000000    -0.148995726  0.000000000  0.000000000
     0.000000000  0.000000000  7.827449317     0.000000000  0.000000000  0.127755538
     0.000000000 15.007598076  0.000000000     0.000000000  0.066632915  0.000000000

  length of vectors
     6.711601895  7.827449317 15.007598076     0.148995726  0.127755538  0.066632915

  position of ions in fractional coordinates (direct lattice)
     0.000000000  0.313094394  0.200000000
     0.666666667  0.000000000  0.666666667
     0.833333333  0.156547197  0.433333333
     0.666666667  0.313094394  0.866666667
     0.333333333  0.000000000  0.333333333
     0.500000000  0.156547197  0.100000000
     0.333333333  0.313094394  0.533333333
     0.000000000  0.000000000  0.000000000
     0.166666667  0.156547197  0.766666667
     0.833333333  0.391367993  0.333333333
     0.500000000  0.078273599  0.800000000
[...]
  Fock        0.00000     0.00000     0.00000     0.00000     0.00000     0.00000
  Total     385.94284    48.14071   294.71099    -1.86365   -42.34340    48.83545
  in kB     392.14432    48.91426   299.44653    -1.89360   -43.02379    49.62016

 VOLUME and BASIS-vectors are now :
  energy-cutoff  :      700.00
  volume of cell :     1576.84
      direct lattice vectors                 reciprocal lattice vectors
    13.423203790  0.000000000  0.000000000     0.074497863 -0.033316457  0.000000000
     6.711601895 15.007598076  0.000000000     0.000000000  0.066632915  0.000000000
     0.000000000  0.000000000  7.827449317     0.000000000  0.000000000  0.127755538

  length of vectors
    13.423203790 16.440000000  7.827449317     0.081608320  0.066632915  0.127755538

 FORCES acting on ions
    electron-ion (+dipol)            ewald-force                    non-local-force                 convergence-correction
   -.338E+02 0.539E+01 0.322E+02   0.336E+02 -.480E+01 -.321E+02   0.999E+01 0.358E+01 -.153E+02   0.922E-05 0.192E-03 -.397E-04
   -.161E+02 0.148E+02 -.346E+02   0.159E+02 -.128E+02 0.340E+02   0.849E+01 -.599E+01 0.127E+02   0.137E-04 -.194E-03 -.523E-05
   -.161E+02 0.131E+02 0.280E+02   0.160E+02 -.133E+02 -.278E+02   0.137E+00 0.269E-01 -.369E+00   0.582E-04 0.369E-04 -.700E-04
   0.204E+02 0.836E+00 0.294E+02   -.199E+02 -.422E+00 -.306E+02   -.643E+01 0.186E+01 -.665E+01   0.133E-04 -.146E-03 -.199E-04
   -.188E+02 0.197E+02 -.575E+02   0.587E+02 -.235E+02 0.923E+02   0.366E+02 -.432E+01 0.385E+02   0.201E-04 0.980E-04 -.788E-05
   -.167E+02 0.576E+01 0.118E+02   0.159E+02 -.525E+01 -.107E+02   0.135E+01 -.908E+00 -.213E+01   0.358E-04 0.203E-03 -.726E-04
   0.118E+02 0.153E+02 0.208E+01   -.106E+02 -.136E+02 -.286E+01   -.110E+01 -.177E+01 0.665E+00   -.210E-04 -.634E-04 -.292E-04
   0.800E+02 0.212E+01 -.278E+02   -.886E+02 -.419E+01 0.349E+02   -.327E+02 -.797E+00 0.195E+02   -.267E-04 0.360E-04 -.536E-04
   -.128E+02 -.720E+00 0.357E+01   0.111E+02 0.182E+01 -.295E+01   0.140E+01 -.974E+00 -.500E+00   -.478E-05 -.204E-03 -.549E-04
   -.338E+02 0.539E+01 0.322E+02   0.336E+02 -.480E+01 -.321E+02   0.999E+01 0.358E+01 -.153E+02   0.119E-04 0.187E-03 -.332E-04
   -.161E+02 0.148E+02 -.346E+02   0.159E+02 -.128E+02 0.340E+02   0.849E+01 -.599E+01 0.127E+02   0.424E-04 -.188E-03 -.199E-05
   -.161E+02 0.131E+02 0.280E+02   0.160E+02 -.133E+02 -.278E+02   0.137E+00 0.269E-01 -.369E+00   0.136E-04 0.238E-04 -.667E-04
   0.204E+02 0.836E+00 0.294E+02   -.199E+02 -.422E+00 -.306E+02   -.643E+01 0.186E+01 -.665E+01   0.126E-05 -.144E-03 -.208E-04
   -.188E+02 0.197E+02 -.575E+02   0.587E+02 -.235E+02 0.923E+02   0.366E+02 -.432E+01 0.385E+02   0.333E-04 0.112E-03 0.547E-05
   -.167E+02 0.576E+01 0.118E+02   0.159E+02 -.525E+01 -.107E+02   0.135E+01 -.908E+00 -.213E+01   0.131E-04 0.174E-03 -.673E-04
   0.118E+02 0.153E+02 0.208E+01   -.106E+02 -.136E+02 -.286E+01   -.110E+01 -.177E+01 0.665E+00   -.154E-04 -.659E-04 -.185E-04
   0.800E+02 0.212E+01 -.278E+02   -.886E+02 -.419E+01 0.349E+02   -.327E+02 -.797E+00 0.195E+02   -.325E-06 0.437E-04 -.542E-04
   -.128E+02 -.720E+00 0.357E+01   0.111E+02 0.182E+01 -.295E+01   0.140E+01 -.974E+00 -.500E+00   -.470E-04 -.217E-03 -.552E-04
   -.187E+02 -.196E+01 -.161E+01   0.185E+02 0.186E+01 0.448E-01   0.101E+01 0.208E+00 0.169E+01   0.401E-04 0.134E-03 -.249E-05
   -.192E+01 -.165E+02 0.214E+02   0.237E+01 0.160E+02 -.198E+02   0.348E+00 0.631E+00 -.203E+01   0.457E-04 -.181E-03 -.515E-04
   0.357E+01 -.179E+02 -.170E+01   -.300E+01 0.165E+02 0.661E+00   -.733E+00 0.101E+01 0.788E+00   0.156E-04 -.110E-03 -.435E-04
   -.920E+01 -.929E+01 -.286E+01   0.107E+02 0.101E+02 0.115E+01   -.109E+01 0.199E+00 0.137E+01   0.793E-05 0.691E-04 0.380E-04
   -.263E+01 -.277E+02 0.337E+01   0.344E+01 0.275E+02 -.153E+01   0.489E+00 0.952E+00 -.163E+01   -.133E-04 -.492E-04 -.715E-04
   0.187E+02 -.145E+02 -.597E+01   -.196E+02 0.162E+02 0.440E+01   0.618E+00 -.155E+01 0.191E+01   -.390E-04 0.234E-03 -.111E-03
   -.192E+02 -.194E+02 -.695E+01   0.186E+02 0.190E+02 0.568E+01   0.685E+00 0.726E+00 0.109E+01   -.306E-04 -.161E-03 -.154E-04
   0.624E+01 -.325E+02 0.399E+01   -.476E+01 0.343E+02 -.212E+01   -.163E+01 -.165E-01 -.151E+01   0.288E-04 0.194E-03 -.703E-04
   0.199E+02 -.111E+02 -.141E+02   -.202E+02 0.109E+02 0.146E+02   -.639E-01 -.859E-02 0.202E+00   -.611E-05 -.980E-04 -.247E-04
   -.187E+02 -.196E+01 -.161E+01   0.185E+02 0.186E+01 0.448E-01   0.101E+01 0.208E+00 0.169E+01   0.681E-04 0.144E-03 -.357E-05
   -.192E+01 -.165E+02 0.214E+02   0.237E+01 0.160E+02 -.198E+02   0.348E+00 0.631E+00 -.203E+01   0.386E-04 -.187E-03 -.502E-04
   0.357E+01 -.179E+02 -.170E+01   -.300E+01 0.165E+02 0.661E+00   -.733E+00 0.101E+01 0.788E+00   -.172E-04 -.122E-03 -.383E-04
   -.920E+01 -.929E+01 -.286E+01   0.107E+02 0.101E+02 0.115E+01   -.109E+01 0.199E+00 0.137E+01   0.249E-04 0.888E-04 0.369E-04
   -.263E+01 -.277E+02 0.337E+01   0.344E+01 0.275E+02 -.153E+01   0.489E+00 0.952E+00 -.163E+01   -.413E-04 -.525E-04 -.709E-04
   0.187E+02 -.145E+02 -.597E+01   -.196E+02 0.162E+02 0.440E+01   0.618E+00 -.155E+01 0.191E+01   -.542E-04 0.211E-03 -.101E-03
   -.192E+02 -.194E+02 -.695E+01   0.186E+02 0.190E+02 0.568E+01   0.685E+00 0.726E+00 0.109E+01   0.475E-05 -.152E-03 -.985E-05
   0.624E+01 -.325E+02 0.399E+01   -.476E+01 0.343E+02 -.212E+01   -.163E+01 -.165E-01 -.151E+01   0.202E-04 0.183E-03 -.721E-04
   0.199E+02 -.111E+02 -.141E+02   -.202E+02 0.109E+02 0.146E+02   -.639E-01 -.859E-02 0.202E+00   -.461E-04 -.107E-03 -.263E-04
   0.765E+01 0.291E+02 -.364E+02   -.104E+02 -.308E+02 0.411E+02   -.678E+01 -.305E+01 0.991E+01   -.517E-04 0.153E-03 0.740E-04
   0.579E+01 -.138E+02 0.209E+02   -.600E+01 0.148E+02 -.227E+02   -.764E-01 -.122E+00 -.159E+00   -.182E-04 -.301E-04 0.356E-04
   0.186E+02 -.240E+02 0.262E+02   -.214E+02 0.252E+02 -.288E+02   -.521E+01 0.387E+01 -.853E+01   -.459E-04 -.198E-03 0.190E-04
   -.111E+02 -.156E+01 -.122E+02   0.118E+02 0.154E+01 0.122E+02   -.529E+00 -.568E-01 -.416E+00   0.426E-04 -.297E-04 0.564E-05
   -.864E+01 -.129E+02 0.418E+01   0.830E+01 0.133E+02 -.447E+01   -.139E+00 0.987E+00 -.871E+00   0.290E-04 0.131E-03 0.607E-04
   -.177E+02 -.765E+01 -.928E+01   0.181E+02 0.826E+01 0.963E+01   0.593E-01 0.233E+00 0.133E+01   0.230E-04 0.126E-03 0.267E-05
   -.397E+02 0.283E+02 -.223E+02   0.421E+02 -.296E+02 0.233E+02   0.503E+01 -.145E+01 0.487E+01   0.252E-04 -.145E-03 0.389E-04
   0.631E+01 -.137E+02 -.865E+01   -.636E+01 0.137E+02 0.891E+01   -.113E+00 0.135E+01 -.146E+00   0.908E-05 -.120E-03 0.615E-04
   -.354E+02 -.110E+02 0.284E+02   0.384E+02 0.122E+02 -.294E+02   0.271E+01 0.166E+01 -.406E+01   -.344E-04 0.700E-04 0.784E-04
   0.765E+01 0.291E+02 -.364E+02   -.104E+02 -.308E+02 0.411E+02   -.678E+01 -.305E+01 0.991E+01   -.404E-04 0.165E-03 0.746E-04
   0.579E+01 -.138E+02 0.209E+02   -.600E+01 0.148E+02 -.227E+02   -.764E-01 -.122E+00 -.159E+00   -.541E-04 -.359E-04 0.360E-04
   0.186E+02 -.240E+02 0.262E+02   -.214E+02 0.252E+02 -.288E+02   -.521E+01 0.387E+01 -.853E+01   -.803E-05 -.189E-03 0.197E-04
   -.111E+02 -.156E+01 -.122E+02   0.118E+02 0.154E+01 0.122E+02   -.529E+00 -.568E-01 -.416E+00   0.624E-05 -.423E-04 0.450E-05
   -.864E+01 -.129E+02 0.418E+01   0.830E+01 0.133E+02 -.447E+01   -.139E+00 0.987E+00 -.871E+00   0.534E-04 0.148E-03 0.653E-04
   -.177E+02 -.765E+01 -.928E+01   0.181E+02 0.826E+01 0.963E+01   0.593E-01 0.233E+00 0.133E+01   0.266E-05 0.104E-03 -.131E-05
   -.397E+02 0.283E+02 -.223E+02   0.421E+02 -.296E+02 0.233E+02   0.503E+01 -.145E+01 0.487E+01   0.391E-04 -.142E-03 0.411E-04
   0.631E+01 -.137E+02 -.865E+01   -.636E+01 0.137E+02 0.891E+01   -.113E+00 0.135E+01 -.146E+00   -.656E-05 -.119E-03 0.619E-04
   -.354E+02 -.110E+02 0.284E+02   0.384E+02 0.122E+02 -.294E+02   0.271E+01 0.166E+01 -.406E+01   -.209E-04 0.664E-04 0.679E-04
   0.745E+01 0.197E+02 -.704E+00   -.798E+01 -.190E+02 0.102E+00   -.502E+00 -.103E+01 -.522E+00   -.155E-04 -.140E-05 0.546E-04
   -.164E+01 0.177E+02 -.212E+02   0.187E+01 -.187E+02 0.217E+02   0.490E-01 -.175E+00 0.869E+00   -.252E-06 0.181E-03 0.794E-04
   -.369E+02 0.713E+01 0.334E+02   0.577E+02 -.704E+01 -.453E+02   0.204E+02 0.160E+01 -.140E+02   0.243E-04 0.618E-04 -.221E-04
   0.178E+02 0.227E+02 -.429E+01   -.192E+02 -.229E+02 0.402E+01   -.301E+00 -.101E+01 0.554E+00   -.633E-05 -.161E-03 0.338E-04
   0.108E+01 0.285E+02 -.104E+01   -.770E+00 -.297E+02 0.143E+01   0.177E+00 -.394E-01 0.237E+00   0.121E-04 -.124E-03 0.393E-04
   0.724E+02 -.876E+01 0.284E+02   -.126E+03 0.121E+02 -.708E+02   -.301E+02 0.245E+01 -.256E+02   0.169E-04 0.101E-03 0.906E-05
   0.110E+02 -.274E+01 -.333E+01   -.114E+02 0.169E+01 0.339E+01   -.169E-01 -.182E+00 -.574E+00   -.304E-04 0.180E-03 0.756E-04
   -.273E+01 0.183E+02 -.150E+02   0.285E+01 -.185E+02 0.160E+02   -.499E+00 -.812E+00 0.208E+00   0.172E-04 -.571E-04 0.427E-04
   0.103E+02 0.247E+01 -.196E+01   -.100E+02 -.266E+01 0.231E+01   -.623E+00 -.456E-01 0.585E+00   -.436E-04 -.174E-03 0.130E-04
   0.745E+01 0.197E+02 -.704E+00   -.798E+01 -.190E+02 0.102E+00   -.502E+00 -.103E+01 -.522E+00   -.355E-04 -.379E-05 0.514E-04
   -.164E+01 0.177E+02 -.212E+02   0.187E+01 -.187E+02 0.217E+02   0.490E-01 -.175E+00 0.869E+00   0.947E-05 0.184E-03 0.755E-04
   -.369E+02 0.713E+01 0.334E+02   0.577E+02 -.704E+01 -.453E+02   0.204E+02 0.160E+01 -.140E+02   0.324E-04 0.567E-04 -.234E-04
   0.178E+02 0.227E+02 -.429E+01   -.192E+02 -.229E+02 0.402E+01   -.301E+00 -.101E+01 0.554E+00   -.377E-04 -.170E-03 0.355E-04
   0.108E+01 0.285E+02 -.104E+01   -.770E+00 -.297E+02 0.143E+01   0.177E+00 -.394E-01 0.237E+00   0.346E-04 -.116E-03 0.465E-04
   0.724E+02 -.876E+01 0.284E+02   -.126E+03 0.121E+02 -.708E+02   -.301E+02 0.245E+01 -.256E+02   -.129E-05 0.845E-04 0.146E-05
   0.110E+02 -.274E+01 -.333E+01   -.114E+02 0.169E+01 0.339E+01   -.169E-01 -.182E+00 -.574E+00   -.108E-04 0.204E-03 0.783E-04
   -.273E+01 0.183E+02 -.150E+02   0.285E+01 -.185E+02 0.160E+02   -.499E+00 -.812E+00 0.208E+00   -.170E-04 -.706E-04 0.415E-04
   0.103E+02 0.247E+01 -.196E+01   -.100E+02 -.266E+01 0.231E+01   -.623E+00 -.456E-01 0.585E+00   -.629E-05 -.165E-03 0.650E-05
   -.182E+01 0.621E+01 -.242E+02   0.160E-13 -.329E-13 -.409E-13   0.184E+01 -.597E+01 0.240E+02   0.899E-04 -.154E-03 0.317E-04

 POSITION                                       TOTAL-FORCE (eV/Angst)
      6.71160      3.00152      2.45073         9.813845      4.173649    -15.151038
      8.94880     10.00507      0.00000         8.272745     -3.999214     12.110737
     14.54180      6.50329      1.22537         0.068633     -0.178541     -0.147850
     15.66040     13.00659      2.45073        -5.868740      2.265415     -7.785128
     11.18600      5.00253      0.00000        76.534534     -8.161287     73.362022
      3.35580      1.50076      1.22537         0.499636     -0.398649     -1.003361
      4.47440      8.00405      2.45073         0.134681     -0.095775     -0.112848
      0.00000      0.00000      0.00000       -41.257426     -2.877105     26.545690
     12.30460     11.50583      1.22537        -0.374504      0.123940      0.123355
     13.42320      3.00152      2.45073         9.813845      4.173649    -15.151038
     15.66040     10.00507      0.00000         8.272745     -3.999214     12.110737
      7.83020      6.50329      1.22537         0.068633     -0.178541     -0.147850
      8.94880     13.00659      2.45073        -5.868740      2.265415     -7.785128
      4.47440      5.00253      0.00000        76.534534     -8.161287     73.362022
     10.06740      1.50076      1.22537         0.499636     -0.398649     -1.003361
     11.18600      8.00405      2.45073         0.134681     -0.095775     -0.112848
      6.71160      0.00000      0.00000       -41.257426     -2.877105     26.545690
      5.59300     11.50583      1.22537        -0.374504      0.123940      0.123355
      7.83020      5.00253      3.06341         0.860116      0.099100      0.125465
     10.06740     12.00608      0.61268         0.800185      0.086199     -0.453000
     15.66040      8.50431      1.83805        -0.165302     -0.357713     -0.250570
     10.06740      0.00000      3.06341         0.374601      1.027163     -0.338789
     12.30460      7.00355      0.61268         1.300690      0.766534      0.208555
      4.47440      3.50177      1.83805        -0.288802      0.046368      0.338543
      5.59300     10.00507      3.06341         0.126911      0.246774     -0.181618
      1.11860      2.00101      0.61268        -0.160842      1.688639      0.363698
     13.42320     13.50684      1.83805        -0.413986     -0.163504      0.703380
     14.54180      5.00253      3.06341         0.860116      0.099100      0.125465
     16.77900     12.00608      0.61268         0.800185      0.086199     -0.453000
      8.94880      8.50431      1.83805        -0.165302     -0.357713     -0.250570
      3.35580      0.00000      3.06341         0.374601      1.027163     -0.338789
      5.59300      7.00355      0.61268         1.300690      0.766534      0.208555
     11.18600      3.50177      1.83805        -0.288802      0.046368      0.338543
     12.30460     10.00507      3.06341         0.126911      0.246774     -0.181618
      7.83020      2.00101      0.61268        -0.160842      1.688639      0.363698
      6.71160     13.50684      1.83805        -0.413986     -0.163504      0.703380
     12.45666      2.57799      3.86341        -9.494479     -4.770532     14.592668
     13.57526     14.08382      5.12903        -0.290171      0.826408     -1.974404
      7.98226     10.58204      6.39464        -8.065418      5.076636    -11.109703
     14.69386      7.58052      3.86341         0.168468     -0.080687     -0.452137
      9.10086      4.07875      5.12903        -0.476936      1.423367     -1.153629
      3.50786      0.57698      6.39464         0.468382      0.832894      1.685663
     16.93107     12.58306      3.86341         7.465840     -2.687539      5.865915
     11.33806      9.08128      5.12903        -0.163683      1.292601      0.110420
      5.74506      5.57951      6.39464         5.745664      2.876632     -5.042525
      5.74506      2.57799      3.86341        -9.494479     -4.770532     14.592668
      6.86366     14.08382      5.12903        -0.290171      0.826408     -1.974404
     14.69386     10.58204      6.39464        -8.065418      5.076636    -11.109703
      7.98226      7.58052      3.86341         0.168468     -0.080687     -0.452137
      2.38926      4.07875      5.12903        -0.476936      1.423367     -1.153629
     10.21946      0.57698      6.39464         0.468382      0.832894      1.685663
     10.21946     12.58306      3.86341         7.465840     -2.687539      5.865915
      4.62646      9.08128      5.12903        -0.163683      1.292601      0.110420
     12.45666      5.57951      6.39464         5.745664      2.876632     -5.042525
     12.45666      7.08027      4.49622        -1.031237     -0.391466     -1.121400
      6.86366      3.57850      5.76183         0.274677     -1.242671      1.446019
      1.27066      0.07673      7.02745        41.127429      1.681458    -25.858626
     14.69386     12.08280      4.49622        -1.692450     -1.164582      0.294649
      9.10086      8.58103      5.76183         0.491217     -1.303949      0.629202
      3.50786      5.07926      7.02745       -83.536280      5.798742    -68.030039
     10.21946      2.07774      4.49622        -0.461747     -1.236938     -0.505239
     11.33806     13.58356      5.76183        -0.375404     -0.984715      1.228468
      5.74506     10.08179      7.02745        -0.410848     -0.237653      0.937455
      5.74506      7.08027      4.49622        -1.031237     -0.391466     -1.121400
     13.57526      3.57850      5.76183         0.274677     -1.242671      1.446019
      7.98226      0.07673      7.02745        41.127429      1.681458    -25.858626
      7.98226     12.08280      4.49622        -1.692450     -1.164582      0.294649
     15.81246      8.58103      5.76183         0.491217     -1.303949      0.629202
     10.21946      5.07926      7.02745       -83.536280      5.798742    -68.030039
      3.50786      2.07774      4.49622        -0.461747     -1.236938     -0.505239
     18.04967     13.58356      5.76183        -0.375404     -0.984715      1.228468
     12.45666     10.08179      7.02745        -0.410848     -0.237653      0.937455
    total drift:                                0.014903      0.243752     -0.218347

  FREE ENERGIE OF THE ION-ELECTRON SYSTEM (eV)
  free  energy   TOTEN  =      -206.69353995 eV

  energy  without entropy=     -206.69188540  energy(sigma->0) =     -206.69271268