 vasp.6.4.3 19Mar24 (build Oct 22 2024 11:23:12) complex

 executed on             LinuxIFC date 2025.06.09  08:16:19

 INCAR:
   SYSTEM = Si and Ge interface calculation
   ISTART = 0
   ICHARG = 2
   LWAVE = .FALSE.
   LREAL = AUTO
   ENCUT = 700
   ENAUG = 900
   ADDGRID = .TRUE.
   LMAXMIX = 6
   LASPH = .TRUE.
   LMIXTAU = .TRUE.
   NCORE = 16
   NELM = 100
   NBANDS = 461
   EDIFF = 1d-7
   AMIX = 0.6
   ISMEAR = 0
   SIGMA = 0.01
   NELECT = 768
   ISPIN = 2
   NUPDOWN = 1
   LVTOT = .FALSE.
   LVHAR = .TRUE.

 POTCAR:    PAW_PBE Ge 05Jan2001
 POTCAR:    PAW_PBE Si 05Jan2001
|           W    W    AA    RRRRR   N    N  II  N    N   GGGG   !!!           |
|           W    W   A  A   R    R  NN   N  II  NN   N  G    G  !!!           |
|           W    W  A    A  R    R  N N  N  II  N N  N  G       !!!           |
|           W WW W  AAAAAA  RRRRR   N  N N  II  N  N N  G  GGG   !            |
|           WW  WW  A    A  R   R   N   NN  II  N   NN  G    G                |
|           W    W  A    A  R    R  N    N  II  N    N   GGGG   !!!           |
|     You use a magnetic or noncollinear calculation, but did not specify     |
|     the initial magnetic moment with the MAGMOM tag. Note that a            |
|     default of 5.208e-3 will be used for all atoms. This ferromagnetic      |
|     setup may break the symmetry of the crystal, in particular it may       |
|     rule out finding an antiferromagnetic solution. Thence, we              |
|     recommend setting the initial magnetic moment manually or verifying     |
|     carefully that this magnetic setup is desired.                          |

 POTCAR:    PAW_PBE Ge 05Jan2001
   VRHFIN =Ge: s2p2

   TITEL  = PAW_PBE Ge 05Jan2001
   POMASS =   72.610; ZVAL   =    4.000    mass and valenz
   ENMAX  =  173.807; ENMIN  =  130.355 eV

 POTCAR:    PAW_PBE Si 05Jan2001
   VRHFIN =Si: s2p2

   TITEL  = PAW_PBE Si 05Jan2001
   POMASS =   28.085; ZVAL   =    4.000    mass and valenz
   ENMAX  =  245.345; ENMIN  =  184.009 eV

 Optimization of the real space projectors (new method)

 maximal supplied QI-value         = 16.25
 optimisation between [QCUT,QGAM] = [ 13.49, 26.98] = [ 50.95,203.80] Ry
 Optimized for a Real-space Cutoff    1.25 Angstroem

   l    n(q)    QCUT    max X(q) W(low)/X(q) W(high)/X(q)  e(spline)
   0     10    13.489    65.336    0.91E-04    0.11E-03    0.34E-06
   0     10    13.489    52.220    0.89E-04    0.11E-03    0.34E-06
   1     10    13.489    36.409    0.22E-03    0.27E-03    0.14E-06
   1     10    13.489    21.334    0.21E-03    0.27E-03    0.14E-06
   2      9    13.489     4.673    0.11E-03    0.12E-03    0.19E-06
 Optimization of the real space projectors (new method)

 maximal supplied QI-value         = 19.84
 optimisation between [QCUT,QGAM] = [ 13.49, 26.99] = [ 50.98,203.92] Ry
 Optimized for a Real-space Cutoff    1.07 Angstroem

   l    n(q)    QCUT    max X(q) W(low)/X(q) W(high)/X(q)  e(spline)
   0      9    13.493   159.560    0.22E-03    0.15E-03    0.72E-07
   0      9    13.493   115.863    0.21E-03    0.15E-03    0.71E-07
   1      8    13.493    88.339    0.15E-03    0.11E-03    0.13E-06
   1      8    13.493    48.592    0.15E-03    0.10E-03    0.13E-06
  PAW_PBE Ge 05Jan2001                  :
  PAW_PBE Si 05Jan2001                  :

 POSCAR: Ge+Si
  positions in direct lattice

 exchange-correlation table for PE
   RHO(1)=    0.500       N(1)  =     2000
   RHO(2)=  100.500       N(2)  =     4000

 ion  position               nearest neighbor table
   1  0.130  0.826  0.397- 133 1.72  73 2.40  72 2.45  35 2.45 103 2.56 163 2.96
   2  0.964  0.076  0.000- 189 1.19 102 2.10  64 2.45  21 2.45
   3  0.797  0.426  0.079- 180 1.71  65 2.45  68 2.45  22 2.45 144 2.83 114 2.91
   4  0.630  0.776  0.159-  66 2.45  69 2.45  32 2.45  23 2.45 129 2.88
   5  0.464  0.126  0.238-  61 2.45  33 2.45  70 2.45  24 2.45 157 3.03
   6  0.297  0.476  0.318- 139 2.30  82 2.35  34 2.45  19 2.45  71 2.45
   7  0.464  0.826  0.397-  76 1.19 109 2.10  60 2.45  23 2.45
   8  0.297  0.076  0.000-  84 1.40 120 1.87 174 2.03  70 2.45  27 2.45
   9  0.130  0.426  0.079- 165 1.07  71 2.45  56 2.45  28 2.45  75 2.62
  10  0.964  0.776  0.159- 192 1.98  72 2.45  57 2.45  20 2.45  29 2.45 145 2.90
  11  0.797  0.126  0.238- 160 1.88  67 2.45  21 2.45  58 2.45  30 2.45
  12  0.630  0.476  0.318- 154 2.10 121 2.37  85 2.38  22 2.45  25 2.45  59 2.45
  13  0.797  0.826  0.397- 112 1.40 145 1.87  79 2.03  66 2.45  29 2.45
  14  0.630  0.076  0.000- 123 1.72 186 2.40  58 2.45  33 2.45  87 2.56 153 2.96
  15  0.464  0.426  0.079-  59 2.45  62 2.45  34 2.45 168 2.53 111 2.53  78 2.64
  16  0.297  0.776  0.159- 183 2.17  60 2.45  63 2.45  26 2.45  35 2.45
  17  0.130  0.126  0.238- 148 2.22  55 2.45  27 2.45  64 2.45  36 2.45 174 2.96
  18  0.964  0.476  0.318- 136 1.15  28 2.45  31 2.45  65 2.45 124 2.77
  19  0.214  0.576  0.397- 139 1.53 106 1.84  53 2.45   6 2.45  73 2.85  74 2.97
  20  0.047  0.826  0.000- 192 1.65 117 2.31  10 2.45  45 2.45 162 2.87  93 2.87
  21  0.880  0.176  0.079-  46 2.45  11 2.45   2 2.45 189 2.54 126 2.56 156 3.00
  22  0.714  0.526  0.159-  50 2.45  12 2.45  47 2.45   3 2.45 171 2.78 111 2.99
  23  0.547  0.876  0.238-  51 2.45  48 2.45   7 2.45   4 2.45 157 2.88
  24  0.380  0.226  0.318- 151 1.56  52 2.45  43 2.45   5 2.45  94 2.85
  25  0.547  0.576  0.397-  85 1.65 142 2.31  41 2.45  12 2.45 175 2.87 121 2.87
  26  0.380  0.826  0.000- 183 1.37  96 1.51  16 2.45  51 2.45 129 2.52
  27  0.214  0.176  0.079- 174 1.08  52 2.45  17 2.45   8 2.45 138 2.97
  28  0.047  0.526  0.159-  38 2.45  18 2.45  53 2.45   9 2.45 165 2.49 136 2.85
  29  0.880  0.876  0.238- 145 2.34  54 2.45  39 2.45  13 2.45  10 2.45
  30  0.714  0.226  0.318-  97 2.17  40 2.45  49 2.45  11 2.45 130 2.69 160 2.93
  31  0.880  0.576  0.397-  88 1.37 124 1.51  47 2.45  18 2.45 136 2.52
  32  0.714  0.826  0.000- 132 1.53  99 1.84   4 2.45  39 2.45 186 2.85 170 2.97
  33  0.547  0.176  0.079- 177 1.70  40 2.45   5 2.45  14 2.45  87 2.46 123 2.83
  34  0.380  0.526  0.159- 168 1.86  44 2.45  41 2.45   6 2.45  15 2.45
  35  0.214  0.876  0.238- 133 1.83  42 2.45  45 2.45   1 2.45  16 2.45
  36  0.047  0.226  0.318- 148 1.41 115 2.40  46 2.45  37 2.45  17 2.45 100 2.89
  37  0.130  0.326  0.397-  82 1.72 148 2.40  36 2.45  71 2.45 172 2.56 115 2.96
  38  0.964  0.576  0.000- 114 1.19 147 2.10  28 2.45  57 2.45
  39  0.797  0.926  0.079- 132 1.71  29 2.45  58 2.45  32 2.45  99 2.83 189 2.91
  40  0.630  0.276  0.159-  30 2.45  33 2.45  68 2.45  59 2.45 177 2.88
  41  0.464  0.626  0.238-  25 2.45  69 2.45  34 2.45  60 2.45  85 3.03
  42  0.297  0.976  0.318-  94 2.30 133 2.35  35 2.45  70 2.45  55 2.45
  43  0.464  0.326  0.397- 151 1.19 184 2.10  24 2.45  59 2.45
  44  0.297  0.576  0.000- 135 1.40 168 1.87 105 2.03  34 2.45  63 2.45
  45  0.130  0.926  0.079- 117 1.07  35 2.45  64 2.45  20 2.45 150 2.62
  46  0.964  0.276  0.159- 126 1.98  36 2.45  21 2.45  56 2.45  65 2.45 100 2.90
  47  0.797  0.626  0.238-  88 1.88  31 2.45  57 2.45  22 2.45  66 2.45
  48  0.630  0.976  0.318-  79 2.10 169 2.37 157 2.38  23 2.45  58 2.45  61 2.45
  49  0.797  0.326  0.397- 187 1.40 100 1.87 154 2.03  30 2.45  65 2.45
  50  0.630  0.576  0.000- 171 1.72 111 2.40  22 2.45  69 2.45 159 2.56  78 2.96
  51  0.464  0.926  0.079-  23 2.45  70 2.45  26 2.45 120 2.53 186 2.53 153 2.64
  52  0.297  0.276  0.159- 108 2.17  24 2.45  27 2.45  62 2.45  71 2.45
  53  0.130  0.626  0.238-  73 2.22  19 2.45  63 2.45  28 2.45  72 2.45 105 2.96
  54  0.964  0.976  0.318-  91 1.15  29 2.45  64 2.45  67 2.45 190 2.77
  55  0.214  0.076  0.397-  94 1.53 181 1.84  17 2.45  42 2.45 148 2.85 149 2.97
  56  0.047  0.326  0.000- 126 1.65 165 2.31  46 2.45   9 2.45  90 2.87 138 2.87
  57  0.880  0.676  0.079-  47 2.45  10 2.45  38 2.45 114 2.54 192 2.56  81 3.00
  58  0.714  0.026  0.159-  14 2.45  39 2.45  48 2.45  11 2.45 123 2.78 186 2.99
  59  0.547  0.376  0.238-  15 2.45  43 2.45  40 2.45  12 2.45  85 2.88
  60  0.380  0.726  0.318-  76 1.56  16 2.45   7 2.45  41 2.45 139 2.85
[...]
 178  0.702  0.645  0.518-  88 2.35 142 2.35 143 2.40  80 2.40  66 2.69
 179  0.752  0.495  0.759-  89 2.35 143 2.35 144 2.40  81 2.40
 180  0.802  0.345  1.000-  68 1.53   3 1.71  90 2.35 144 2.35
 181  0.202  0.145  0.518-  55 1.84  94 2.35 148 2.35  83 2.40 149 2.40
 182  0.252  0.995  0.759-  95 2.35 149 2.35  84 2.40 150 2.40
 183  0.302  0.845  1.000-  26 1.37  16 2.17  96 2.35 150 2.35
 184  0.502  0.245  0.518-  43 2.10 151 2.35  97 2.35  86 2.40 152 2.40
 185  0.552  0.095  0.759-  98 2.35 152 2.35 153 2.40  87 2.40
 186  0.602  0.945  1.000- 153 2.35  99 2.35  14 2.40  51 2.53  32 2.85  58 2.99
 187  0.802  0.345  0.518-  49 1.40 154 2.35 100 2.35  89 2.40 155 2.40
 188  0.852  0.195  0.759- 155 2.35 101 2.35 156 2.40  90 2.40
 189  0.902  0.045  1.000-   2 1.19 156 2.35 102 2.35  21 2.54  39 2.91
 190  0.902  0.045  0.518-  67 1.51 160 2.35  91 2.35 161 2.40 101 2.40  54 2.77
 191  0.952  0.895  0.759-  92 2.35 161 2.35 162 2.40 102 2.40
 192  0.002  0.745  1.000-  20 1.65  10 1.98  93 2.35 162 2.35  57 2.56

  LATTYP: Found a simple orthorhombic cell.
 ALAT       =    11.2616443630
 B/A-ratio  =     1.5071866567
 C/A-ratio  =     1.5887142435

  Lattice vectors:

 A1 = (   0.0000000000,   0.0000000000,  11.2616443630)
 A2 = (  16.9734001160,   0.0000000000,   0.0000000000)
 A3 = (   0.0000000000,  17.8915348050,   0.0000000000)

Analysis of symmetry for initial positions (statically):
 Subroutine PRICEL returns following result:

[...]

   2 primitive cells build up your supercell.

 Routine SETGRP: Setting up the symmetry group for a
 simple orthorhombic supercell.

 Subroutine GETGRP returns: Found  1 space group operations
 (whereof  1 operations were pure point group operations)
 out of a pool of  8 trial point group operations.

The static configuration has the point symmetry C_1 .

Analysis of symmetry for dynamics (positions and initial velocities):
 Subroutine PRICEL returns following result:

[...]

The dynamic configuration has the point symmetry C_1 .

Analysis of structural, dynamic, and magnetic symmetry:
 Subroutine PRICEL returns following result:

  LATTYP: Found a simple orthorhombic cell.
 ALAT       =     8.9457681897
 B/A-ratio  =     1.2588795198
 C/A-ratio  =     1.8973664146

  Lattice vectors:

 A1 = (   0.0000000000,   8.9457681897,   0.0000000563)
 A2 = (   0.0000000000,   0.0000000000,  11.2616443630)
 A3 = (  16.9734001160,   0.0000000000,   0.0000000000)

   2 primitive cells build up your supercell.

 Routine SETGRP: Setting up the symmetry group for a
 simple orthorhombic supercell.

 Subroutine GETGRP returns: Found  1 space group operations
 (whereof  1 operations were pure point group operations)
 out of a pool of  8 trial point group operations.

The overall configuration has the point symmetry C_1 .

 Subroutine INISYM returns: Found  1 space group operations
 (whereof  1 operations are pure point group operations),
 and found     2 'primitive' translations

                                     Primitive cell

  volume of cell :    1709.9692

  direct lattice vectors                    reciprocal lattice vectors
[...]
     0.000000000  0.000000000 11.261644363     0.000000000  0.000000000  0.088796979

  length of vectors
    16.973400116 17.891534805 11.261644363     0.058915715  0.055892354  0.088796979

 FORCES acting on ions
    electron-ion (+dipol)            ewald-force                    non-local-force                 convergence-correction
   0.247E+02 0.195E+02 -.794E+01   -.305E+02 -.241E+02 0.946E+01   -.966E+01 -.982E+01 -.531E+00   -.134E-04 -.254E-03 -.599E-04
   -.388E+02 -.363E+02 0.118E+01   0.116E+03 0.785E+02 -.172E+00   0.326E+02 0.193E+02 0.180E+01   0.178E-04 -.908E-04 -.268E-04
   -.139E+02 -.470E+02 -.235E+02   0.150E+02 0.547E+02 0.276E+02   -.802E+00 0.127E+02 0.792E+01   0.316E-04 0.209E-03 0.425E-04
   -.323E+01 -.528E+01 -.730E+01   0.424E+01 0.559E+01 0.795E+01   -.681E+00 0.712E-01 -.895E+00   0.303E-05 0.136E-04 0.615E-04
   0.119E+01 -.459E+01 0.731E+01   -.336E+00 0.444E+01 -.763E+01   -.113E+01 0.496E+00 0.584E+00   -.518E-05 -.293E-03 0.385E-04
   -.201E+02 0.125E+02 0.117E+02   0.223E+02 -.140E+02 -.979E+01   0.191E+00 -.119E+00 -.233E+01   0.256E-04 0.380E-03 -.107E-04
   -.392E+02 -.504E+02 -.178E+01   0.116E+03 0.948E+02 0.172E+00   0.335E+02 0.194E+02 -.135E+01   -.116E-04 -.491E-04 -.530E-04
   0.158E+02 0.277E+02 -.352E+02   -.213E+02 -.378E+02 0.730E+02   -.492E+01 -.716E+01 0.287E+02   0.839E-04 -.194E-03 0.199E-05
   -.299E+02 0.818E+01 -.439E+02   0.918E+02 -.471E+02 0.154E+03   0.158E+02 -.115E+02 0.301E+02   -.312E-04 0.329E-03 0.479E-04
   0.623E+01 -.903E+01 -.298E+02   -.778E+01 0.908E+01 0.322E+02   -.101E+01 0.190E+01 0.593E+01   0.613E-04 -.154E-03 0.355E-04
   -.186E+01 -.143E+02 0.379E+02   0.505E+00 0.156E+02 -.415E+02   0.522E+00 0.209E+01 -.853E+01   -.934E-04 -.163E-03 0.150E-04
   -.170E+02 -.169E+02 0.246E+02   0.181E+02 0.169E+02 -.251E+02   -.184E+00 0.269E+01 -.349E+01   0.647E-05 0.223E-03 0.344E-04
   0.162E+02 0.117E+02 0.335E+02   -.213E+02 -.215E+02 -.730E+02   -.589E+01 -.694E+01 -.283E+02   -.472E-04 -.902E-04 0.189E-04
   0.257E+02 0.345E+02 0.903E+01   -.305E+02 -.404E+02 -.946E+01   -.103E+02 -.108E+02 0.453E+00   -.617E-04 -.223E-03 0.828E-05
   -.518E+01 0.804E+01 -.111E+02   0.598E+01 -.909E+01 0.106E+02   0.921E+00 -.735E-01 0.946E+00   0.107E-04 0.383E-03 0.387E-04
   0.176E+01 0.155E+02 -.233E+02   -.430E+01 -.177E+02 0.240E+02   0.116E+01 0.643E-01 0.274E+01   -.121E-04 -.146E-03 0.501E-05
   0.161E+01 0.153E+02 0.209E+02   -.851E+00 -.155E+02 -.203E+02   -.141E+00 -.222E+01 -.270E+01   0.886E-04 -.152E-03 0.275E-04
   0.166E+02 0.266E+02 0.417E+02   -.717E+02 -.573E+02 -.119E+03   -.212E+02 -.115E+02 -.326E+02   -.249E-05 0.376E-03 0.111E-03
   0.425E+02 0.336E+02 0.114E+02   -.636E+02 -.412E+02 -.149E+02   -.207E+02 -.106E+02 -.651E+01   -.676E-04 0.288E-03 -.842E-04
   -.187E+02 -.242E+02 0.102E+02   0.235E+02 0.343E+02 -.128E+02   0.778E+01 0.145E+02 0.115E+01   0.174E-04 -.245E-03 0.581E-04
   0.185E+02 -.107E+02 -.855E+01   -.203E+02 0.122E+02 0.692E+01   -.361E+00 -.149E+00 0.174E+01   -.209E-04 -.723E-04 -.412E-05
   -.241E+01 0.571E+01 -.995E+01   0.171E+01 -.550E+01 0.106E+02   0.120E+01 -.955E+00 -.431E+00   0.327E-04 0.251E-03 0.601E-04
   0.786E+00 0.653E+01 0.816E+01   -.155E+01 -.682E+01 -.817E+01   0.907E+00 0.653E-01 0.214E-01   -.596E-05 -.396E-04 0.403E-04
   0.267E+02 0.481E+02 0.286E+02   -.319E+02 -.634E+02 -.382E+02   -.517E+01 -.181E+02 -.137E+02   0.266E-05 -.224E-03 0.635E-04
   -.189E+02 -.401E+02 -.120E+02   0.235E+02 0.506E+02 0.128E+02   0.806E+01 0.156E+02 -.650E+00   -.380E-04 0.186E-03 -.148E-04
   -.318E+02 -.482E+01 -.278E+02   0.697E+02 0.470E+01 0.494E+02   0.232E+02 0.683E+00 0.193E+02   -.234E-04 -.595E-04 0.445E-04
   0.781E+00 -.361E+02 -.426E+02   0.224E+02 0.105E+03 0.147E+03   0.672E+01 0.189E+02 0.328E+02   0.214E-04 -.230E-03 -.383E-04
   -.396E+01 -.117E+02 -.123E+02   0.254E+01 0.120E+02 0.125E+02   0.142E+01 0.583E+00 0.355E+00   0.565E-04 0.382E-03 0.740E-04
   -.714E+00 -.142E+02 0.169E+02   0.197E+01 0.158E+02 -.170E+02   -.697E+00 -.321E+00 -.124E+01   -.822E-04 -.216E-03 0.359E-04
   -.517E+01 -.627E+01 0.120E+02   0.530E+01 0.723E+01 -.126E+02   0.128E+01 0.278E+00 -.103E+01   -.599E-04 -.102E-03 0.514E-04
   -.319E+02 -.213E+02 0.287E+02   0.697E+02 0.210E+02 -.494E+02   0.210E+02 0.168E+01 -.193E+02   0.811E-04 0.152E-03 0.392E-04
   0.434E+02 0.484E+02 -.110E+02   -.636E+02 -.575E+02 0.149E+02   -.216E+02 -.111E+02 0.635E+01   0.146E-04 -.195E-04 0.519E-04
   0.403E+01 0.303E+02 -.311E+02   -.148E+01 -.366E+02 0.359E+02   0.578E+01 -.107E+02 0.888E+01   0.101E-04 -.278E-03 0.481E-04
   0.880E+01 0.112E+02 -.396E+02   -.888E+01 -.117E+02 0.437E+02   -.216E+01 -.115E+01 0.878E+01   -.601E-04 0.334E-03 -.321E-04
   -.251E+01 0.794E+01 0.408E+02   0.345E+01 -.813E+01 -.457E+02   0.498E+00 -.221E+01 -.105E+02   0.300E-04 -.161E-03 0.711E-05
   0.410E+02 -.116E+02 0.432E+02   -.666E+02 0.265E+02 -.675E+02   -.209E+02 0.123E+02 -.207E+02   -.191E-04 -.762E-04 0.108E-05
   0.247E+02 0.195E+02 -.794E+01   -.305E+02 -.241E+02 0.946E+01   -.966E+01 -.982E+01 -.531E+00   -.527E-04 0.331E-04 0.561E-04
   -.388E+02 -.363E+02 0.118E+01   0.116E+03 0.785E+02 -.172E+00   0.326E+02 0.193E+02 0.180E+01   0.997E-04 0.248E-03 0.690E-04
   -.139E+02 -.470E+02 -.235E+02   0.150E+02 0.547E+02 0.276E+02   -.802E+00 0.127E+02 0.792E+01   -.104E-03 -.214E-03 0.131E-04
   -.323E+01 -.528E+01 -.730E+01   0.424E+01 0.559E+01 0.795E+01   -.681E+00 0.712E-01 -.895E+00   0.144E-04 -.532E-04 0.736E-04
   0.119E+01 -.459E+01 0.731E+01   -.336E+00 0.444E+01 -.763E+01   -.113E+01 0.496E+00 0.584E+00   -.753E-04 0.136E-03 -.709E-05
   -.201E+02 0.125E+02 0.117E+02   0.223E+02 -.140E+02 -.979E+01   0.191E+00 -.119E+00 -.233E+01   0.956E-04 -.100E-03 -.321E-04
   -.392E+02 -.504E+02 -.178E+01   0.116E+03 0.948E+02 0.172E+00   0.335E+02 0.194E+02 -.135E+01   0.540E-04 0.611E-04 0.635E-04
   0.158E+02 0.277E+02 -.352E+02   -.213E+02 -.378E+02 0.730E+02   -.492E+01 -.716E+01 0.287E+02   -.949E-04 0.312E-03 0.219E-04
   -.299E+02 0.818E+01 -.439E+02   0.918E+02 -.471E+02 0.154E+03   0.158E+02 -.115E+02 0.301E+02   0.611E-04 -.191E-03 0.558E-04
   0.623E+01 -.903E+01 -.298E+02   -.778E+01 0.908E+01 0.322E+02   -.101E+01 0.190E+01 0.593E+01   -.520E-05 0.233E-04 0.105E-04
   -.186E+01 -.143E+02 0.379E+02   0.505E+00 0.156E+02 -.415E+02   0.522E+00 0.209E+01 -.853E+01   0.506E-04 0.143E-03 0.928E-04
   -.170E+02 -.169E+02 0.246E+02   0.181E+02 0.169E+02 -.251E+02   -.184E+00 0.269E+01 -.349E+01   -.712E-04 -.184E-03 0.298E-04
   0.162E+02 0.117E+02 0.335E+02   -.213E+02 -.215E+02 -.730E+02   -.589E+01 -.694E+01 -.283E+02   0.191E-05 0.941E-04 0.393E-04
   0.257E+02 0.345E+02 0.903E+01   -.305E+02 -.404E+02 -.946E+01   -.103E+02 -.108E+02 0.453E+00   -.333E-04 0.214E-03 0.190E-04
   -.518E+01 0.804E+01 -.111E+02   0.598E+01 -.909E+01 0.106E+02   0.921E+00 -.735E-01 0.946E+00   0.251E-05 -.226E-04 0.305E-04
   0.176E+01 0.155E+02 -.233E+02   -.430E+01 -.177E+02 0.240E+02   0.116E+01 0.643E-01 0.274E+01   -.130E-04 -.145E-03 0.106E-03
   0.161E+01 0.153E+02 0.209E+02   -.851E+00 -.155E+02 -.203E+02   -.141E+00 -.222E+01 -.270E+01   0.623E-06 0.191E-03 -.407E-05
   0.166E+02 0.266E+02 0.417E+02   -.717E+02 -.573E+02 -.119E+03   -.212E+02 -.115E+02 -.326E+02   -.486E-04 -.194E-03 0.573E-04
   0.425E+02 0.336E+02 0.114E+02   -.636E+02 -.412E+02 -.149E+02   -.207E+02 -.106E+02 -.651E+01   0.814E-04 -.127E-03 -.942E-06
   -.187E+02 -.242E+02 0.102E+02   0.235E+02 0.343E+02 -.128E+02   0.778E+01 0.145E+02 0.115E+01   -.343E-04 0.303E-04 -.396E-04
   0.185E+02 -.107E+02 -.855E+01   -.203E+02 0.122E+02 0.692E+01   -.361E+00 -.149E+00 0.174E+01   0.666E-04 0.903E-04 0.864E-04
   -.241E+01 0.571E+01 -.995E+01   0.171E+01 -.550E+01 0.106E+02   0.120E+01 -.955E+00 -.431E+00   -.103E-03 -.218E-03 0.374E-04
   0.786E+00 0.653E+01 0.816E+01   -.155E+01 -.682E+01 -.817E+01   0.907E+00 0.653E-01 0.214E-01   0.283E-04 0.161E-03 0.645E-04
   0.267E+02 0.481E+02 0.286E+02   -.319E+02 -.634E+02 -.382E+02   -.517E+01 -.181E+02 -.137E+02   -.216E-04 0.267E-04 -.893E-06
[...]
   -.132E+01 0.301E+00 0.104E+02   0.189E+01 0.831E+00 -.114E+02   -.326E+00 -.111E+01 0.121E+01   0.407E-05 0.197E-03 -.598E-04
   -.717E+02 0.323E+02 0.206E+02   0.811E+02 -.322E+02 -.221E+02   0.351E+02 -.974E+01 -.104E+02   0.379E-04 0.817E-04 -.686E-05
   -.709E-01 -.334E+02 -.602E+02   -.189E+01 0.338E+02 0.611E+02   0.798E-01 0.849E+01 0.108E+02   0.564E-04 -.142E-03 0.542E-05
   0.255E+01 0.599E+01 0.108E+02   -.225E+01 -.461E+01 -.115E+02   -.300E+00 -.109E+01 0.488E+00   0.947E-04 -.528E-04 0.159E-04
   0.738E+02 -.310E+02 0.149E+02   -.103E+03 0.400E+02 -.143E+02   -.451E+02 0.105E+02 -.275E+01   0.104E-03 -.153E-03 0.544E-04
   -.140E+02 0.196E+02 -.478E+02   0.168E+02 -.203E+02 0.492E+02   -.392E+00 -.203E+01 0.226E+01   0.408E-04 -.144E-03 0.306E-04
   0.501E+01 -.125E+01 0.139E+02   -.531E+01 0.517E+00 -.140E+02   0.136E+00 0.955E+00 -.543E-01   -.367E-04 -.205E-03 -.236E-04
   0.348E+01 0.109E+02 -.326E+00   -.458E+01 -.105E+02 -.868E+00   0.613E+00 0.156E-01 0.118E+01   -.685E-04 -.106E-03 0.480E-04
   -.513E+01 -.204E+02 -.958E+02   0.581E+01 0.268E+02 0.123E+03   0.373E+01 0.105E+02 0.429E+02   0.105E-04 0.122E-03 0.345E-04
   0.175E+01 -.967E+00 0.884E+01   -.171E+01 0.121E+01 -.957E+01   0.253E-01 -.160E+00 0.965E+00   -.319E-04 -.479E-04 -.242E-04
   0.595E+02 0.455E+02 -.284E+01   -.128E+03 -.809E+02 0.305E+01   -.435E+02 -.244E+02 -.112E+01   -.943E-04 -.179E-03 -.937E-05
   -.106E+02 0.228E+02 -.944E+02   0.174E+02 -.263E+02 0.105E+03   0.474E+01 -.128E+02 0.337E+02   -.290E-04 -.175E-03 -.263E-05
   0.359E+01 -.171E+01 0.106E+02   -.352E+01 0.118E+01 -.110E+02   -.208E+00 0.479E+00 0.647E+00   -.241E-04 -.189E-03 -.156E-04
   0.331E+01 0.548E+02 0.230E+02   -.463E+01 -.574E+02 -.248E+02   -.839E+01 -.245E+02 -.549E+01   0.988E-04 -.836E-04 0.678E-04
   0.129E+02 0.172E+02 -.275E+02   -.542E-13 -.853E-13 0.778E-12   -.129E+02 -.168E+02 0.277E+02   -.542E-04 -.795E-04 0.199E-03

 POSITION                                       TOTAL-FORCE (eV/Angst)
      2.21297     14.78207      4.47289       -15.487041    -14.469731      0.985443
     16.35748      1.36340      0.00000       110.080566     61.513162      2.807417
     13.52858      7.62544      0.89458         0.324538     20.353765     11.935302
     10.69968     13.88748      1.78916         0.332427      0.370933     -0.247314
      7.87077      2.25799      2.68374        -0.279713      0.343684      0.261873
      5.04187      8.52003      3.57831         2.359117     -1.635672     -0.405269
      7.87077     14.78207      4.47289       110.663455     63.905719     -2.957643
      5.04188      1.36340      0.00000       -10.463032    -17.251416     66.398629
      2.21298      7.62544      0.89458        77.654563    -50.479061    140.193232
     16.35748     13.88748      1.78916        -2.559797      1.947787      8.319025
     13.52857      2.25799      2.68374        -0.835138      3.387906    -12.141264
     10.69967      8.52003      3.57831         0.876437      2.687137     -4.013953
     13.52857     14.78207      4.47289       -11.043477    -16.716292    -67.752987
     10.69968      1.36340      0.00000       -15.066056    -16.706396      0.026622
      7.87078      7.62544      0.89458         1.717182     -1.126013      0.482719
      5.04188     13.88748      1.78916        -1.386204     -2.154372      3.399654
      2.21298      2.25799      2.68374         0.614692     -2.427554     -2.159858
     16.35747      8.52003      3.57831       -76.380929    -42.219905   -109.562351
      3.62742     10.30919      4.47289       -41.787920    -18.192595    -10.015549
      0.79853     14.78206      0.00000        12.631075     24.548152     -1.464837
     14.94303      3.15256      0.89458        -2.149951      1.379193      0.101408
     12.11413      9.41460      1.78916         0.497701     -0.747690      0.227549
      9.28522     15.67664      2.68374         0.142120     -0.230018      0.004789
      6.45632      4.04715      3.57831       -10.402962    -33.364352    -23.339400
      9.28522     10.30919      4.47289        12.700175     26.123259      0.097551
      6.45633     14.78206      0.00000        61.059596      0.558404     41.001605
      3.62743      3.15256      0.89458        29.908352     87.960051    137.485170
      0.79853      9.41460      1.78916         0.005779      0.874846      0.636355
     14.94303     15.67664      2.68374         0.560775      1.315309     -1.245150
     12.11412      4.04715      3.57831         1.414535      1.231515     -1.628500
     14.94302     10.30919      4.47289        58.786812      1.345644    -40.014930
     12.11413     14.78206      0.00000       -41.705351    -20.256349     10.249838
      9.28523      3.15256      0.89458         8.318806    -16.967955     13.613808
      6.45633      9.41460      1.78916        -2.239705     -1.598299     12.860663
      3.62742     15.67664      2.68374         1.431343     -2.395150    -15.443995
      0.79852      4.04715      3.57831       -46.418937     27.252754    -45.000679
      2.21297      5.83630      4.47289       -15.487041    -14.469731      0.985443
     16.35748     10.30917      0.00000       110.080566     61.513162      2.807417
     13.52858     16.57121      0.89458         0.324538     20.353765     11.935302
     10.69968      4.94172      1.78916         0.332427      0.370933     -0.247314
      7.87077     11.20376      2.68374        -0.279713      0.343684      0.261873
      5.04187     17.46579      3.57831         2.359117     -1.635672     -0.405269
      7.87077      5.83630      4.47289       110.663455     63.905719     -2.957643
      5.04188     10.30917      0.00000       -10.463032    -17.251416     66.398629
      2.21298     16.57121      0.89458        77.654563    -50.479061    140.193232
     16.35748      4.94172      1.78916        -2.559797      1.947787      8.319025
     13.52857     11.20376      2.68374        -0.835138      3.387906    -12.141264
     10.69967     17.46579      3.57831         0.876437      2.687137     -4.013953
     13.52857      5.83630      4.47289       -11.043477    -16.716292    -67.752987
     10.69968     10.30917      0.00000       -15.066056    -16.706396      0.026622
      7.87078     16.57121      0.89458         1.717182     -1.126013      0.482719
      5.04188      4.94172      1.78916        -1.386204     -2.154372      3.399654
      2.21298     11.20376      2.68374         0.614692     -2.427554     -2.159858
     16.35747     17.46579      3.57831       -76.380929    -42.219905   -109.562351
      3.62742      1.36342      4.47289       -41.787920    -18.192595    -10.015549
      0.79853      5.83629      0.00000        12.631075     24.548152     -1.464837
     14.94303     12.09833      0.89458        -2.149951      1.379193      0.101408
     12.11413      0.46883      1.78916         0.497701     -0.747690      0.227549
      9.28522      6.73087      2.68374         0.142120     -0.230018      0.004789
      6.45632     12.99292      3.57831       -10.402962    -33.364352    -23.339400
[...]
     11.91159     11.53397      5.83064        -0.340677     -0.072247      1.297457
     12.76026      8.85024      8.54614         0.243443      0.023547      0.243985
     13.60893      6.16651     11.26164        44.498062     -9.573490    -11.879600
      3.42489      2.58821      5.83064        -1.883327      8.872676     11.594684
      4.27356     17.79601      8.54614        -0.000838      0.287792     -0.249929
      5.12223     15.11228     11.26164       -73.816992     19.496891     -2.114766
      8.51691      4.37736      5.83064         2.399243     -2.673063      3.693032
      9.36558      1.69363      8.54614        -0.164846      0.219281     -0.156737
     10.21425     16.90143     11.26164        -0.486306      0.406720     -0.015229
     13.60893      6.16651      5.83064         4.416800     16.854976     69.972235
     14.45760      3.48278      8.54614         0.063157      0.077395      0.233149
     15.30627      0.79905     11.26164      -111.760270    -59.772881     -0.912196
     15.30627      0.79905      5.83064        11.532491    -16.309328     43.918195
     16.15494     16.00686      8.54614        -0.137720     -0.044639      0.245375
      0.03021     13.32312     11.26164        -9.710874    -27.054560     -7.298672
    total drift:                               -0.047582      0.446795      0.224912

  FREE ENERGIE OF THE ION-ELECTRON SYSTEM (eV)
  free  energy   TOTEN  =        37.21405248 eV

  energy  without entropy=       37.21840813  energy(sigma->0) =       37.21623030