 vasp.6.4.3 19Mar24 (build Oct 22 2024 11:23:12) complex

 executed on             LinuxIFC date 2025.03.27  22:57:32

 INCAR:
   SYSTEM = Si and Ge interface calculation
   ISTART = 0
   ICHARG = 2
   ENCUT = 600.00 eV
   ALGO = VeryFast
   NELM = 60
   EDIFF = 1E-06
   SIGMA = 0.05
   ISMEAR = 0
   EDIFFG = -1E-02
   NSW = 20
   IBRION = 2
   POTIM = .5
   ISIF = 3
   KPAR = 4
   NCORE = 4
   LREAL = A

 POTCAR:    PAW_PBE Si 05Jan2001
 POTCAR:    PAW_PBE Ge 05Jan2001
|           W    W    AA    RRRRR   N    N  II  N    N   GGGG   !!!           |
|           W    W   A  A   R    R  NN   N  II  NN   N  G    G  !!!           |
|           W    W  A    A  R    R  N N  N  II  N N  N  G       !!!           |
|           W WW W  AAAAAA  RRRRR   N  N N  II  N  N N  G  GGG   !            |
|           WW  WW  A    A  R   R   N   NN  II  N   NN  G    G                |
|           W    W  A    A  R    R  N    N  II  N    N   GGGG   !!!           |
|     The value NCORE = 4 specified in the INCAR file was overwritten,        |
|     because it was not compatible with the 1 processes available:           |
|     NCORE = 1                                                               |
|     was used instead, please check that this makes sense for your           |
|     machine.                                                                |

 POTCAR:    PAW_PBE Si 05Jan2001
   VRHFIN =Si: s2p2

   TITEL  = PAW_PBE Si 05Jan2001
   POMASS =   28.085; ZVAL   =    4.000    mass and valenz
   ENMAX  =  245.345; ENMIN  =  184.009 eV

 POTCAR:    PAW_PBE Ge 05Jan2001
   VRHFIN =Ge: s2p2

   TITEL  = PAW_PBE Ge 05Jan2001
   POMASS =   72.610; ZVAL   =    4.000    mass and valenz
   ENMAX  =  173.807; ENMIN  =  130.355 eV

 Optimization of the real space projectors (new method)

 maximal supplied QI-value         = 19.84
 optimisation between [QCUT,QGAM] = [ 12.50, 25.00] = [ 43.76,175.03] Ry
 Optimized for a Real-space Cutoff    1.06 Angstroem

   l    n(q)    QCUT    max X(q) W(low)/X(q) W(high)/X(q)  e(spline)
   0      8    12.501   159.560    0.25E-03    0.87E-04    0.85E-07
   0      8    12.501   115.863    0.25E-03    0.85E-04    0.84E-07
   1      7    12.501    88.339    0.32E-03    0.53E-03    0.87E-07
   1      7    12.501    48.592    0.31E-03    0.51E-03    0.85E-07
 Optimization of the real space projectors (new method)

 maximal supplied QI-value         = 16.25
 optimisation between [QCUT,QGAM] = [ 12.51, 25.03] = [ 43.85,175.40] Ry
 Optimized for a Real-space Cutoff    1.23 Angstroem

   l    n(q)    QCUT    max X(q) W(low)/X(q) W(high)/X(q)  e(spline)
   0      9    12.514    65.336    0.42E-03    0.23E-03    0.14E-06
   0      9    12.514    52.220    0.42E-03    0.23E-03    0.13E-06
   1      9    12.514    36.409    0.35E-03    0.65E-03    0.33E-06
   1      9    12.514    21.334    0.35E-03    0.63E-03    0.32E-06
   2      8    12.514     4.673    0.48E-03    0.34E-03    0.74E-07
  PAW_PBE Si 05Jan2001                  :
  PAW_PBE Ge 05Jan2001                  :

 POSCAR: Si Ge
  positions in cartesian coordinates

 exchange-correlation table for PE
   RHO(1)=    0.500       N(1)  =     2000
   RHO(2)=  100.500       N(2)  =     4000

 ion  position               nearest neighbor table
   1  0.125  1.000  0.997-  20 2.00  19 2.00   4 2.37   2 2.40   2 2.40  19 2.80
   2  0.375  0.250  0.997-  19 2.00  20 2.00   3 2.37   1 2.40   1 2.40  20 2.80
   3  0.625  1.000  0.101-   2 2.37   6 2.37   4 2.40   4 2.40
   4  0.875  0.250  0.101-   1 2.37   5 2.37   3 2.40   3 2.40
   5  0.125  1.000  0.205-   8 2.37   4 2.37   6 2.40   6 2.40
   6  0.375  0.250  0.205-   7 2.37   3 2.37   5 2.40   5 2.40
   7  0.625  1.000  0.310-   6 2.37  10 2.37   8 2.40   8 2.40
   8  0.875  0.250  0.310-   5 2.37   9 2.37   7 2.40   7 2.40
   9  0.125  1.000  0.414-  12 2.00  11 2.00   8 2.37  10 2.40  10 2.40  11 2.80
  10  0.375  0.250  0.414-  11 2.00  12 2.00   7 2.37   9 2.40   9 2.40  12 2.80
  11  0.125  0.375  0.488-  10 2.00   9 2.00  12 2.40  12 2.40  14 2.43   9 2.80
  12  0.375  0.625  0.488-   9 2.00  10 2.00  11 2.40  11 2.40  13 2.43  10 2.80
  13  0.625  0.375  0.597-  14 2.40  14 2.40  16 2.43  12 2.43
  14  0.875  0.625  0.597-  13 2.40  13 2.40  15 2.43  11 2.43
  15  0.125  0.375  0.705-  16 2.40  16 2.40  14 2.43  18 2.43
  16  0.375  0.625  0.705-  15 2.40  15 2.40  13 2.43  17 2.43
  17  0.625  0.375  0.814-  18 2.40  18 2.40  20 2.43  16 2.43
  18  0.875  0.625  0.814-  17 2.40  17 2.40  15 2.43  19 2.43
  19  0.125  0.375  0.923-   2 2.00   1 2.00  20 2.40  20 2.40  18 2.43   1 2.80
  20  0.375  0.625  0.923-   1 2.00   2 2.00  19 2.40  19 2.40  17 2.43   2 2.80

  LATTYP: Found a simple orthorhombic cell.
 ALAT       =     3.9201999949
 B/A-ratio  =     1.4142135624
 C/A-ratio  =     4.6918446058

  Lattice vectors:

 A1 = (  -2.2633285223,  -3.2008298924,   0.0000000000)
 A2 = (   4.5266570447,  -3.2008298924,   0.0000000000)
 A3 = (   0.0000000000,   0.0000000000,  18.3929691996)

Analysis of symmetry for initial positions (statically):
 Subroutine PRICEL returns:
 Original cell was already a primitive cell.

 Routine SETGRP: Setting up the symmetry group for a
 simple orthorhombic supercell.

 Subroutine GETGRP returns: Found  2 space group operations
 (whereof  1 operations were pure point group operations)
 out of a pool of  8 trial point group operations.

The static configuration has the point symmetry C_1 .
 The point group associated with its full space group is C_1h.

Analysis of symmetry for dynamics (positions and initial velocities):
 Subroutine PRICEL returns:
 Original cell was already a primitive cell.

 Routine SETGRP: Setting up the symmetry group for a
 simple orthorhombic supercell.

 Subroutine GETGRP returns: Found  2 space group operations
 (whereof  1 operations were pure point group operations)
 out of a pool of  8 trial point group operations.

The dynamic configuration has the point symmetry C_1 .
 The point group associated with its full space group is C_1h.

 Subroutine INISYM returns: Found  2 space group operations
 (whereof  1 operations are pure point group operations),
 and found     1 'primitive' translations

                                     Primitive cell

  volume of cell :     399.7452

  direct lattice vectors                    reciprocal lattice vectors
     6.789985567  0.000000000  0.000000000     0.147275718 -0.104139659  0.000000000
     2.263328522  3.200829892  0.000000000     0.000000000  0.312418977  0.000000000
     0.000000000  0.000000000 18.392969200     0.000000000  0.000000000  0.054368601

  length of vectors
     6.789985567  3.920199995 18.392969200     0.180375180  0.312418977  0.054368601

  position of ions in fractional coordinates (direct lattice)
     0.125002660  0.999996370  0.996669650
     0.375002660  0.249996370  0.996669650
     0.625002660  0.999996370  0.101046213
     0.875002660  0.249996370  0.101046213
     0.125002660  0.999996370  0.205422776
     0.375002660  0.249996370  0.205422776
     0.625002660  0.999996370  0.309799339
     0.875002660  0.249996370  0.309799339
     0.125002660  0.999996370  0.414175903
     0.375002660  0.249996370  0.414175903
     0.124999230  0.375003915  0.487897972
     0.374999230  0.625003915  0.487897972
     0.624999230  0.375003915  0.596657198
     0.874999230  0.625003915  0.596657198
     0.124999230  0.375003915  0.705416423
     0.374999230  0.625003915  0.705416423
     0.624999230  0.375003915  0.814175649
     0.874999230  0.625003915  0.814175649
     0.124999230  0.375003915  0.922934874
     0.374999230  0.625003915  0.922934874

  ion indices of the primitive-cell ions
   primitive index   ion index
                 1           1
                 2           2
                 3           3
                 4           4
                 5           5
                 6           6
                 7           7
                 8           8
                 9           9
                10          10
                11          11
                12          12
                13          13
                14          14
                15          15
                16          16
                17          17
                18          18
                19          19
                20          20

 KPOINTS: 4x4x4

Automatic generation of k-mesh.
 Grid dimensions read from file:
 generate k-points for:    4    4    4

 Generating k-lattice:

  Cartesian coordinates                     Fractional coordinates (reciprocal lattice)
     0.036818930 -0.026034915  0.000000000     0.250000000  0.000000000  0.000000000
     0.000000000  0.078104744  0.000000000     0.000000000  0.250000000  0.000000000
     0.000000000  0.000000000  0.013592150     0.000000000  0.000000000  0.250000000

  Length of vectors
     0.045093795  0.078104744  0.013592150

  Shift w.r.t. Gamma in fractional coordinates (k-lattice)
     0.000000000  0.000000000  0.000000000

 Subroutine IBZKPT returns following result:

 Found     30 irreducible k-points:

 Following reciprocal coordinates:
            Coordinates               Weight
  0.000000  0.000000  0.000000      1.000000
  0.250000 -0.000000  0.000000      2.000000
  0.500000 -0.000000  0.000000      1.000000
  0.000000  0.250000  0.000000      4.000000
  0.250000  0.250000  0.000000      2.000000
 -0.250000  0.250000  0.000000      2.000000
  0.000000  0.500000  0.000000      1.000000
  0.250000  0.500000  0.000000      2.000000
  0.500000  0.500000  0.000000      1.000000
  0.000000  0.000000  0.250000      2.000000
  0.250000 -0.000000  0.250000      4.000000
  0.500000 -0.000000  0.250000      2.000000
  0.000000  0.250000  0.250000      4.000000
  0.500000  0.250000 -0.250000      4.000000
  0.250000  0.250000  0.250000      2.000000
  0.250000  0.250000 -0.250000      2.000000
 -0.250000  0.250000  0.250000      2.000000
 -0.250000  0.250000 -0.250000      2.000000
  0.000000  0.500000  0.250000      2.000000
  0.250000  0.500000  0.250000      4.000000
  0.500000  0.500000  0.250000      2.000000
  0.000000  0.000000  0.500000      1.000000
  0.250000 -0.000000  0.500000      2.000000
  0.500000 -0.000000  0.500000      1.000000
  0.000000  0.250000  0.500000      4.000000
  0.250000  0.250000  0.500000      2.000000
 -0.250000  0.250000  0.500000      2.000000
  0.000000  0.500000  0.500000      1.000000
  0.250000  0.500000  0.500000      2.000000
  0.500000  0.500000  0.500000      1.000000

 Following cartesian coordinates:
            Coordinates               Weight
  0.000000  0.000000  0.000000      1.000000
  0.036819 -0.026035  0.000000      2.000000
  0.073638 -0.052070  0.000000      1.000000
  0.000000  0.078105  0.000000      4.000000
  0.036819  0.052070  0.000000      2.000000
 -0.036819  0.104140  0.000000      2.000000
  0.000000  0.156209  0.000000      1.000000
  0.036819  0.130175  0.000000      2.000000
  0.073638  0.104140  0.000000      1.000000
  0.000000  0.000000  0.013592      2.000000
  0.036819 -0.026035  0.013592      4.000000
  0.073638 -0.052070  0.013592      2.000000
  0.000000  0.078105  0.013592      4.000000
  0.073638  0.026035 -0.013592      4.000000
[...]
   0.312E+02 -.338E+02 0.589E+02   -.332E+02 0.365E+02 -.605E+02   -.265E+01 0.375E+01 -.804E+01   0.638E-04 -.385E-04 -.442E-03
   -.423E+02 0.181E+02 0.589E+02   0.454E+02 -.192E+02 -.605E+02   0.442E+01 -.125E+01 -.804E+01   -.577E-04 0.474E-04 -.442E-03
   0.302E+01 0.424E+01 0.501E-02   0.000E+00 -.355E-14 -.284E-13   -.301E+01 -.426E+01 0.157E-01   -.287E-04 -.407E-04 -.451E-04

 POSITION                                       TOTAL-FORCE (eV/Angst)
      3.11209      3.20082     18.33171        -5.885785      1.149080     10.231128
      3.11209      0.80020     18.33171         3.045291     -5.166145     10.231128
      6.50708      3.20082      1.85854         0.313651     -0.187075      0.147777
      6.50708      0.80020      1.85854        -0.280926      0.233355      0.147777
      3.11209      3.20082      3.77833         0.079839     -0.095987      0.000757
      3.11209      0.80020      3.77833        -0.117110      0.043277      0.000757
      6.50708      3.20082      5.69813         0.313868     -0.187366     -0.137170
      6.50708      0.80020      5.69813        -0.281273      0.233462     -0.137170
      3.11209      3.20082      7.61792        -5.884687      1.145497    -10.235157
      3.11209      0.80020      7.61792         3.041547     -5.166304    -10.235157
      1.69750      1.20032      8.97389        -4.711983      6.366782      9.654928
      3.96083      2.00053      8.97389         7.573321     -2.320240      9.654928
      5.09249      1.20032     10.97430        -0.183492      0.077190      0.224137
      7.35582      2.00053     10.97430         0.133939     -0.147268      0.224137
      1.69750      1.20032     12.97470        -0.312210      0.252337     -0.022163
      3.96083      2.00053     12.97470         0.341976     -0.210242     -0.022163
      5.09249      1.20032     14.97511        -0.182432      0.076281     -0.210644
      7.35582      2.00053     14.97511         0.132729     -0.146571     -0.210644
      1.69750      1.20032     16.97551        -4.692323      6.355426     -9.653593
      3.96083      2.00053     16.97551         7.556061     -2.305489     -9.653593
    total drift:                                0.010414     -0.019351      0.020625

  FREE ENERGIE OF THE ION-ELECTRON SYSTEM (eV)
  free  energy   TOTEN  =       -78.94450794 eV

  energy  without entropy=      -78.94187299  energy(sigma->0) =      -78.94319046

[...]

 E-fermi :   2.0891     XC(G=0):  -8.0709     alpha+bet : -7.5676

[...]

 d Force = 0.1899213E+02[-0.275E+02, 0.655E+02]  d Energy =-0.2301166E+00 0.192E+02
 d Force = 0.1101564E+03[-0.142E+03, 0.363E+03]  d Ewald  =-0.1930134E+03 0.303E+03

 Steepest descent step on ions:
 trial-energy change:    0.230117  1 .order  -27.798169  -82.274846   26.678508
  (g-gl).g = 0.823E+02      g.g   = 0.823E+02  gl.gl    = 0.000E+00
 g(Force)  = 0.573E+02   g(Stress)= 0.250E+02 ortho     = 0.000E+00
 gamma     =   0.00000
 trial     =   1.00000
 opt step  =   0.38846  (harmonic =   0.75514) maximal distance =0.19173695
 next E    =   -93.281881   (d E  = -14.33737)

[...]

 d Force = 0.8821895E+01[ 0.397E+01, 0.137E+02]  d Energy = 0.1219735E+02-0.338E+01
 d Force = 0.1177685E+02[-0.460E+02, 0.695E+02]  d Ewald  = 0.1736901E+03-0.162E+03

[...]

 d Force = 0.1880326E+00[ 0.154E+00, 0.222E+00]  d Energy = 0.1874390E+00 0.594E-03
 d Force =-0.2783246E+01[-0.300E+01,-0.257E+01]  d Ewald  = 0.6058453E+01-0.884E+01

[...]

 d Force = 0.9941487E+00[ 0.419E+00, 0.157E+01]  d Energy = 0.1736053E+01-0.742E+00
 d Force = 0.4986328E+01[ 0.801E+00, 0.917E+01]  d Ewald  =-0.2828671E+02 0.333E+02

 Conjugate gradient step on ions:
 trial-energy change:   -1.736053  1 .order   -1.816623   -3.466595   -0.166651
  (g-gl).g = 0.371E+01      g.g   = 0.401E+01  gl.gl    = 0.823E+02
 g(Force)  = 0.182E+01   g(Stress)= 0.219E+01 ortho     = 0.298E+00
 gamma     =   0.04506
 trial     =   0.86257
 opt step  =   0.91413  (harmonic =   0.90613) maximal distance =0.08192277
 next E    =   -92.933522   (d E  =  -1.74102)

[...]

 d Force = 0.2227779E-01[ 0.207E-01, 0.239E-01]  d Energy = 0.6681535E-02 0.156E-01
 d Force = 0.2572953E-01[ 0.120E-01, 0.394E-01]  d Ewald  =-0.2038087E+01 0.206E+01

[...]

 d Force = 0.4725694E+00[ 0.429E+00, 0.517E+00]  d Energy = 0.5659918E+00-0.934E-01
 d Force = 0.1395370E+01[ 0.430E+00, 0.236E+01]  d Ewald  = 0.2019915E+02-0.188E+02

[...]

 d Force = 0.5499371E+00[ 0.287E+00, 0.813E+00]  d Energy = 0.2930980E+00 0.257E+00
 d Force =-0.3081510E+01[-0.700E+01, 0.833E+00]  d Ewald  = 0.3436492E+02-0.374E+02

[...]

 E-fermi :   4.3656     XC(G=0):  -9.1012     alpha+bet :-10.0641

[...]

 d Force =-0.1105706E+00[-0.138E+00,-0.834E-01]  d Energy = 0.4354103E-01-0.154E+00
 d Force = 0.1673868E+01[ 0.134E+01, 0.201E+01]  d Ewald  =-0.9032614E+01 0.107E+02

[...]

 d Force = 0.2991358E+00[ 0.158E+00, 0.440E+00]  d Energy = 0.3960192E+00-0.969E-01
 d Force =-0.4511642E+01[-0.612E+01,-0.290E+01]  d Ewald  =-0.1598654E+02 0.115E+02

[...]

 d Force = 0.8999150E-01[ 0.567E-01, 0.123E+00]  d Energy = 0.6351684E-01 0.265E-01
 d Force =-0.7796718E+01[-0.790E+01,-0.769E+01]  d Ewald  = 0.2735093E+01-0.105E+02

[...]

 Conjugate gradient step on ions:
 trial-energy change:   -0.148683  1 .order   -0.154391   -0.278997   -0.029784
  (g-gl).g = 0.195E+00      g.g   = 0.195E+00  gl.gl    = 0.318E+00
 g(Force)  = 0.816E-01   g(Stress)= 0.113E+00 ortho     = 0.160E-01
 gamma     =   0.61400
 trial     =   1.36209
 opt step  =   1.55517  (harmonic =   1.52488) maximal distance =0.04472174
 next E    =   -95.758517   (d E  =  -0.15078)

--------------------------------------- Ionic step       20  -------------------------------------------

[...]

 eigenvalue-minimisations  :  3109
 total energy-change (2. order) : 0.7285542E-04  (-0.6744158E-04)
 number of electron      79.9999999 magnetization
 augmentation part       -8.7732495 magnetization

[...]

 Broyden mixing:
  rms(total) = 0.17250E-03    rms(broyden)= 0.17250E-03
  rms(prec ) = 0.22288E-03
  weight for this iteration     100.00

 eigenvalues of (default mixing * dielectric matrix)
  average eigenvalue GAMMA=   1.5016
  2.6249  1.7685  1.5014  1.5014  0.9486  0.6645

[...]

--------------------------------------- Iteration     20(   8)  ---------------------------------------

 eigenvalue-minimisations  :  2247
 total energy-change (2. order) :-0.1879516E-07  (-0.3328630E-06)
 number of electron      79.9999999 magnetization
 augmentation part       -8.7731546 magnetization

 Free energy of the ion-electron system (eV)
  alpha Z        PSCENC =        96.26956934
  Ewald energy   TEWEN  =     -2060.07693569
  -Hartree energ DENC   =      -266.12641104
  -exchange      EXHF   =         0.00000000
  -V(xc)+E(xc)   XCENC  =      -164.53926461
  PAW double counting   =      5775.28942075    -5456.77965277
  entropy T*S    EENTRO =        -0.00144276
  eigenvalues    EBANDS =      -100.41779835
  atomic energy  EATOM  =      2080.62436032
  Solvation  Ediel_sol  =         0.00000000
  free energy    TOTEN  =       -95.75815481 eV

  energy without entropy =      -95.75671206  energy(sigma->0) =      -95.75743344

 average (electrostatic) potential at core
  the test charge radii are     0.9892  1.1631
  (the norm of the test charge is              1.0000)
       1 -85.5833       2 -85.5832       3 -85.6399       4 -85.6400       5 -85.7165
       6 -85.7165       7 -85.6395       8 -85.6395       9 -85.5818      10 -85.5817
      11 -32.4641      12 -32.4639      13 -32.5424      14 -32.5424      15 -32.5558
      16 -32.5558      17 -32.5428      18 -32.5427      19 -32.4648      20 -32.4646

 E-fermi :   4.2870     XC(G=0):  -8.8439     alpha+bet : -9.5745

 val. band max:        4.2013507446   @ k =   0.0000   0.0000   0.2500
 cond. band min:       4.2976370404   @ k =   0.0000   0.0000   0.0000
 fundamental gap:      0.0962862958
 Fermi energy:         4.2869831406

[...]

 k-point    30 :       0.5000    0.5000    0.5000
  band No.  band energies     occupation
      1      -6.1732      2.00000
      2      -6.1731      2.00000
      3      -6.1169      2.00000
      4      -6.1168      2.00000
      5      -5.5774      2.00000
      6      -5.5773      2.00000
      7      -5.4559      2.00000
      8      -5.4559      2.00000
      9      -4.4150      2.00000
     10      -4.4149      2.00000
     11      -4.3348      2.00000
     12      -4.3347      2.00000
     13      -3.0387      2.00000
     14      -3.0386      2.00000
     15      -2.8950      2.00000
     16      -2.8950      2.00000
     17      -2.0197      2.00000
     18      -2.0196      2.00000
     19      -1.8691      2.00000
     20      -1.8690      2.00000
     21      -0.2209      2.00000
     22      -0.2209      2.00000
     23       0.1885      2.00000
     24       0.1885      2.00000
     25       0.5964      2.00000
     26       0.5964      2.00000
     27       0.6527      2.00000
     28       0.6528      2.00000
     29       1.1005      2.00000
     30       1.1006      2.00000
     31       1.1237      2.00000
     32       1.1238      2.00000
     33       1.6027      2.00000
     34       1.6027      2.00000
     35       1.7088      2.00000
     36       1.7089      2.00000
     37       2.4176      2.00000
     38       2.4177      2.00000
     39       2.5591      2.00000
     40       2.5592      2.00000
     41       4.4865      0.00000
     42       4.4865      0.00000
     43       4.6599      0.00000
     44       4.6600      0.00000
     45       5.2807      0.00000
     46       5.2811      0.00000
     47       5.3697      0.00000
     48       5.3698      0.00000
     49       5.9269      0.00000
     50       5.9270      0.00000
     51       6.0484      0.00000

 soft charge-density along one line, spin component           1
         0         1         2         3         4         5         6         7         8         9
 total charge-density along one line

------------------------ aborting loop because EDIFF is reached ----------------------------------------

  FORCE on cell =-STRESS in cart. coord.  units (eV):
  Direction    XX          YY          ZZ          XY          YZ          ZX
  Alpha Z    96.26957    96.26957    96.26957
  Ewald    -689.19569  -629.50348  -741.38369    84.41624    -0.02801    -0.01981
  Hartree   100.59086   133.32620    32.21063    46.29485    -0.00862    -0.00609
  E(xc)    -262.08610  -262.17895  -261.35086    -0.13134     0.00054     0.00038
  Local    -358.40894  -451.31965  -230.06426  -131.39505     0.03943     0.02788
  n-local   581.29554   582.43682   573.75360     2.30823    -0.01527     0.03023
  augment   -47.02377   -47.13454   -46.47316    -0.15681     0.00008     0.00007
  Kinetic   576.64939   578.82577   574.92534    -0.42203     0.12028    -0.15265
  Fock        0.00000     0.00000     0.00000     0.00000     0.00000     0.00000
  Total      -1.02714    -0.16026    -2.11284     1.22595     0.01573     0.01112
  in kB      -3.52381    -0.54981    -7.24851     4.20586     0.05397     0.03816

 VOLUME and BASIS-vectors are now :
  energy-cutoff  :      600.00
  volume of cell :      467.01
      direct lattice vectors                 reciprocal lattice vectors
     7.085749854 -0.157035363 -0.000281628     0.138950826 -0.098253071 -0.000000000
     2.287889438  3.235564272 -0.000281628     0.006743861  0.304296473  0.000015239
    -0.000699261 -0.000988904 20.055781052     0.000002046  0.000002893  0.049860935

  length of vectors
     7.087489765  3.962740758 20.055781088     0.170179311  0.304371193  0.049860936

 FORCES acting on ions
    electron-ion (+dipol)            ewald-force                    non-local-force                 convergence-correction
   0.174E+02 -.113E+02 0.330E+02   -.165E+02 0.112E+02 -.324E+02   -.817E+00 0.190E-02 -.765E+00   0.214E-03 -.539E-04 -.511E-03
   -.165E+02 0.126E+02 0.330E+02   0.161E+02 -.118E+02 -.324E+02   0.274E+00 -.769E+00 -.765E+00   -.122E-03 0.184E-03 -.511E-03
   -.566E+01 0.565E+01 0.299E+02   0.459E+01 -.482E+01 -.304E+02   0.787E+00 -.345E+00 0.411E+00   0.368E-03 -.134E-03 -.260E-03
   0.721E+01 -.345E+01 0.299E+02   -.607E+01 0.272E+01 -.304E+02   -.587E+00 0.627E+00 0.411E+00   -.249E-03 0.302E-03 -.260E-03
   -.228E+01 0.333E+01 -.107E+00   0.133E+01 -.280E+01 0.108E+00   0.867E+00 -.153E+00 0.130E-02   0.242E-03 -.590E-04 -.137E-04
   0.390E+01 -.104E+01 -.107E+00   -.308E+01 0.325E+00 0.108E+00   -.433E+00 0.766E+00 0.130E-02   -.136E-03 0.209E-03 -.137E-04
   -.566E+01 0.564E+01 -.301E+02   0.460E+01 -.480E+01 0.305E+02   0.785E+00 -.360E+00 -.425E+00   0.365E-03 -.133E-03 0.208E-03
   0.720E+01 -.346E+01 -.301E+02   -.606E+01 0.273E+01 0.305E+02   -.601E+00 0.620E+00 -.425E+00   -.247E-03 0.300E-03 0.208E-03
   0.174E+02 -.113E+02 -.331E+02   -.165E+02 0.112E+02 0.325E+02   -.804E+00 -.802E-02 0.766E+00   0.214E-03 -.532E-04 0.461E-03
   -.165E+02 0.126E+02 -.331E+02   0.161E+02 -.118E+02 0.325E+02   0.260E+00 -.761E+00 0.766E+00   -.121E-03 0.184E-03 0.461E-03
   0.192E+02 -.153E+02 -.281E+02   -.186E+02 0.151E+02 0.279E+02   -.617E+00 0.228E+00 0.260E+00   0.795E-04 -.190E-03 0.698E-03
   -.209E+02 0.130E+02 -.281E+02   0.205E+02 -.125E+02 0.279E+02   0.420E+00 -.506E+00 0.260E+00   -.205E-03 0.117E-04 0.698E-03
   0.802E+00 -.493E+00 -.324E+01   -.636E+00 0.404E+00 0.328E+01   -.395E+00 0.201E-01 0.616E-01   0.666E-05 -.205E-03 -.677E-03
   -.729E+00 0.590E+00 -.324E+01   0.593E+00 -.465E+00 0.328E+01   0.150E+00 -.365E+00 0.616E-01   -.195E-03 -.621E-04 -.677E-03
   0.129E+01 -.268E+01 0.146E+00   -.916E+00 0.268E+01 -.149E+00   -.481E+00 -.186E+00 -.196E-01   0.170E-03 -.261E-03 0.506E-04
   -.295E+01 0.325E+00 0.146E+00   0.283E+01 0.301E-01 -.149E+00   -.152E-01 -.515E+00 -.196E-01   -.303E-03 0.734E-04 0.506E-04
   0.765E+00 -.479E+00 0.335E+01   -.598E+00 0.390E+00 -.338E+01   -.393E+00 0.368E-02 -.457E-01   -.635E-05 -.198E-03 0.752E-03
   -.704E+00 0.560E+00 0.335E+01   0.567E+00 -.434E+00 -.338E+01   0.134E+00 -.369E+00 -.457E-01   -.184E-03 -.719E-04 0.752E-03
   0.192E+02 -.153E+02 0.282E+02   -.186E+02 0.151E+02 -.279E+02   -.597E+00 0.208E+00 -.270E+00   0.786E-04 -.189E-03 -.709E-03
   -.209E+02 0.130E+02 0.282E+02   0.205E+02 -.125E+02 -.279E+02   0.395E+00 -.493E+00 -.270E+00   -.204E-03 0.113E-04 -.709E-03
   0.164E+01 0.229E+01 0.208E-01   -.142E-13 0.355E-14 0.128E-12   -.167E+01 -.236E+01 -.495E-01   -.236E-03 -.334E-03 -.545E-05

 POSITION                                       TOTAL-FORCE (eV/Angst)
      1.18934      0.34282      0.57939         0.073015     -0.093874     -0.125814
      3.46967      1.15706      0.57925        -0.112844      0.037548     -0.125814
      4.60942      0.01298      2.31389        -0.277669      0.490685     -0.009737
      6.81653      0.87899      2.31375         0.555178     -0.098227     -0.009737
      0.98009      0.02820      4.11882        -0.073200      0.380702      0.003117
      3.24279      0.85490      4.11868         0.383329      0.057887      0.003117
      4.60957      0.01434      5.92407        -0.277366      0.473220      0.000442
      6.81776      0.87959      5.92393         0.538612     -0.103763      0.000442
      1.18858      0.34375      7.65995         0.082167     -0.104286      0.136868
      3.47080      1.15666      7.65981        -0.125711      0.042706      0.136868
      1.48881      0.88112     10.06924        -0.074394      0.008384     -0.004173
      3.87733      1.61886     10.06910         0.032703     -0.067344     -0.004173
      5.14403      0.89094     12.09572        -0.228274     -0.065145      0.101309
      7.46603      1.67571     12.09558         0.014672     -0.236934      0.101309
      1.67293      1.11710     14.14893        -0.101418     -0.181857     -0.020216
      4.03844      1.87111     14.14879        -0.137651     -0.156237     -0.020216
      5.14547      0.89321     16.19967        -0.225281     -0.082220     -0.081629
      7.46770      1.67782     16.19953        -0.002424     -0.239804     -0.081629
      1.48952      0.88423     18.22682        -0.052216     -0.009158     -0.000168
      3.88002      1.62057     18.22668         0.008771     -0.052283     -0.000168
    total drift:                               -0.021993     -0.065720     -0.028675

  FREE ENERGIE OF THE ION-ELECTRON SYSTEM (eV)
  free  energy   TOTEN  =       -95.75815481 eV

  energy  without entropy=      -95.75671206  energy(sigma->0) =      -95.75743344

 d Force = 0.6808225E-02[ 0.566E-02, 0.796E-02]  d Energy = 0.1732479E-02 0.508E-02
 d Force =-0.1598467E+00[-0.165E+00,-0.155E+00]  d Ewald  =-0.1063940E+01 0.904E+00

 writing wavefunctions