 vasp.6.4.3 19Mar24 (build Oct 22 2024 11:23:12) complex

 executed on             LinuxIFC date 2025.06.09  06:25:24

 INCAR:
   SYSTEM = Si and Ge interface calculation
   ISTART = 0
   ICHARG = 2
   LWAVE = .FALSE.
   LREAL = AUTO
   ENCUT = 700
   ENAUG = 900
   ADDGRID = .TRUE.
   LMAXMIX = 6
   LASPH = .TRUE.
   LMIXTAU = .TRUE.
   NCORE = 16
   NELM = 100
   NBANDS = 432
   EDIFF = 1d-7
   AMIX = 0.6
   ISMEAR = 0
   SIGMA = 0.01
   NELECT = 720
   ISPIN = 2
   NUPDOWN = 1
   LVTOT = .FALSE.
   LVHAR = .TRUE.

 POTCAR:    PAW_PBE Sn 08Apr2002
 POTCAR:    PAW_PBE Ge 05Jan2001
|           W    W    AA    RRRRR   N    N  II  N    N   GGGG   !!!           |
|           W    W   A  A   R    R  NN   N  II  NN   N  G    G  !!!           |
|           W    W  A    A  R    R  N N  N  II  N N  N  G       !!!           |
|           W WW W  AAAAAA  RRRRR   N  N N  II  N  N N  G  GGG   !            |
|           WW  WW  A    A  R   R   N   NN  II  N   NN  G    G                |
|           W    W  A    A  R    R  N    N  II  N    N   GGGG   !!!           |
|     You use a magnetic or noncollinear calculation, but did not specify     |
|     the initial magnetic moment with the MAGMOM tag. Note that a            |
|     default of 5.556e-3 will be used for all atoms. This ferromagnetic      |
|     setup may break the symmetry of the crystal, in particular it may       |
|     rule out finding an antiferromagnetic solution. Thence, we              |
|     recommend setting the initial magnetic moment manually or verifying     |
|     carefully that this magnetic setup is desired.                          |

 POTCAR:    PAW_PBE Sn 08Apr2002
   VRHFIN =Sn: s2p2

   TITEL  = PAW_PBE Sn 08Apr2002
   POMASS =  118.710; ZVAL   =    4.000    mass and valenz
   ENMAX  =  103.236; ENMIN  =   77.427 eV

 POTCAR:    PAW_PBE Ge 05Jan2001
   VRHFIN =Ge: s2p2

   TITEL  = PAW_PBE Ge 05Jan2001
   POMASS =   72.610; ZVAL   =    4.000    mass and valenz
   ENMAX  =  173.807; ENMIN  =  130.355 eV

 Optimization of the real space projectors (new method)

 maximal supplied QI-value         = 12.47
 optimisation between [QCUT,QGAM] = [ 12.47, 27.06] = [ 43.56,205.12] Ry
 Optimized for a Real-space Cutoff    1.58 Angstroem

   l    n(q)    QCUT    max X(q) W(low)/X(q) W(high)/X(q)  e(spline)
   0     13    12.472    14.688    0.45E-04    0.45E-04    0.25E-05
   0     13    12.472     7.308    0.94E-04    0.11E-03    0.61E-05
   1     12    12.472    45.102    0.34E-03    0.14E-03    0.21E-05
   1     12    12.472    30.691    0.31E-03    0.13E-03    0.20E-05
   2     12    12.472     7.156    0.86E-04    0.11E-03    0.17E-05
 WARNING: PSMAXN for non-local potential too small
          PSMAXN should be >   13.5545592237991       NTYP=           1
 Optimization of the real space projectors (new method)

 maximal supplied QI-value         = 16.25
 optimisation between [QCUT,QGAM] = [ 13.49, 26.98] = [ 50.95,203.80] Ry
 Optimized for a Real-space Cutoff    1.25 Angstroem

   l    n(q)    QCUT    max X(q) W(low)/X(q) W(high)/X(q)  e(spline)
   0     10    13.489    65.336    0.91E-04    0.11E-03    0.34E-06
   0     10    13.489    52.220    0.89E-04    0.11E-03    0.34E-06
   1     10    13.489    36.409    0.22E-03    0.27E-03    0.14E-06
   1     10    13.489    21.334    0.21E-03    0.27E-03    0.14E-06
   2      9    13.489     4.673    0.11E-03    0.12E-03    0.19E-06
  PAW_PBE Sn 08Apr2002                  :
  PAW_PBE Ge 05Jan2001                  :

 POSCAR: Sn+Ge
  positions in direct lattice

 exchange-correlation table for PE
   RHO(1)=    0.500       N(1)  =     2000
   RHO(2)=  100.500       N(2)  =     4000

 ion  position               nearest neighbor table
   1  0.983  0.652  0.000-  48 1.19 114 1.67 162 2.45  29 2.81  28 2.81  95 3.19 113 3.28
   2  0.783  0.486  0.106-  42 1.67 133 2.47 156 2.71  30 2.81  29 2.81  13 2.81
   3  0.583  0.319  0.213-  67 1.20 127 1.99 175 2.45  14 2.81  16 2.81  30 2.81
   4  0.983  0.319  0.000-  84 1.29 155 2.28 126 2.50  32 2.81  31 2.81  83 3.11  66 3.19
   5  0.783  0.152  0.106- 103 2.24 126 2.45  33 2.81  32 2.81  16 2.81 139 3.09 175 3.14
   6  0.583  0.986  0.213-  97 1.69 115 2.73  17 2.81  10 2.81  33 2.81 140 2.95 144 3.11  49 3.19

   7  0.983  0.986  0.000- 174 1.59  59 2.02  34 2.81  35 2.81 149 2.94  78 3.22
   8  0.783  0.819  0.106- 150 1.97  78 2.21  35 2.81  10 2.81  36 2.81  49 2.96 114 3.07
   9  0.583  0.652  0.213- 163 1.60  92 2.76  11 2.81  36 2.81  13 2.81  96 2.93
  10  0.633  0.902  0.053- 150 1.66  60 2.47   8 2.81   6 2.81  19 2.81 144 2.99  53 3.05  49 3.20

[...]

  33  0.733  0.069  0.266- 139 1.28 103 2.22  56 2.41   5 2.81   6 2.81 175 2.99 140 3.22
  34  0.133  0.069  0.053- 174 1.36 102 2.07  66 2.27  26 2.81   7 2.81  24 2.81
  35  0.933  0.902  0.160- 145 1.69  55 2.48  78 2.61  27 2.81   8 2.81   7 2.81
  36  0.733  0.736  0.266- 163 1.37  91 1.77  49 2.28   9 2.81   8 2.81 110 3.14
  37  0.979  0.500  0.266-  21 1.69  29 2.09 151 2.43 158 2.47 133 2.55
  38  0.729  0.500  0.413- 152 2.43 159 2.47 133 2.47 134 2.55  30 2.76
  39  0.479  0.500  0.560- 153 2.43 160 2.47 134 2.47 135 2.55
  40  0.229  0.500  0.706- 154 2.43 161 2.47 135 2.47 136 2.55
  41  0.979  0.500  0.853- 155 2.43 162 2.47 136 2.47 137 2.55
  42  0.729  0.500  0.000-   2 1.67  13 2.07 156 2.43 137 2.47 138 2.55
  43  0.313  0.667  0.266-  12 2.22  20 2.24 157 2.43 164 2.47 109 2.55  11 2.64
  44  0.063  0.667  0.413- 158 2.43 165 2.47 109 2.47 110 2.55
  45  0.813  0.667  0.560- 159 2.43 166 2.47 110 2.47 111 2.55
  46  0.563  0.667  0.706- 160 2.43 167 2.47 111 2.47 112 2.55
  47  0.313  0.667  0.853- 161 2.43 168 2.47 112 2.47 113 2.55
  48  0.063  0.667  0.000-   1 1.19  28 1.84 162 2.43 113 2.47 114 2.55
  49  0.646  0.833  0.266-  36 2.28 163 2.43 146 2.47 115 2.55   8 2.96   6 3.19  10 3.20
  50  0.396  0.833  0.413- 164 2.43 147 2.47 115 2.47 116 2.55
  51  0.146  0.833  0.560- 165 2.43 148 2.47 116 2.47 117 2.55
  52  0.896  0.833  0.706- 166 2.43 117 2.47 149 2.47 118 2.55
  53  0.646  0.833  0.853- 167 2.43 150 2.47 118 2.47 119 2.55  10 3.05  19 3.11
  54  0.396  0.833  0.000-  19 1.29 168 2.43 119 2.47 120 2.55  11 2.94
  55  0.979  0.000  0.266- 145 2.43 170 2.47  35 2.48 139 2.55
  56  0.729  1.000  0.413-  33 2.41 146 2.43 171 2.47 139 2.47 140 2.55
  57  0.479  1.000  0.560- 147 2.43 172 2.47 140 2.47 141 2.55
  58  0.229  1.000  0.706- 148 2.43 141 2.47 173 2.47 142 2.55
  59  0.979  1.000  0.853-   7 2.02 149 2.43 174 2.47 142 2.47 143 2.55
  60  0.729  1.000  0.000- 150 2.43  10 2.47 143 2.47 144 2.55
  61  0.313  0.167  0.266-  15 1.77 169 2.43 176 2.47 121 2.55  17 2.96
  62  0.063  0.167  0.413- 170 2.43 177 2.47 121 2.47 122 2.55  24 2.76
  63  0.813  0.167  0.560- 171 2.43 178 2.47 122 2.47 123 2.55
  64  0.563  0.167  0.706- 172 2.43 123 2.47 179 2.47 124 2.55
  65  0.313  0.167  0.853- 173 2.43 180 2.47 124 2.47 125 2.55  25 3.19
  66  0.063  0.167  0.000-  34 2.27 174 2.43 125 2.47 126 2.55  24 2.93  32 3.18   4 3.19
  67  0.646  0.333  0.266-   3 1.20  30 1.84 175 2.43 152 2.47 127 2.55
  68  0.396  0.333  0.413- 176 2.43 153 2.47 127 2.47 128 2.55
  69  0.146  0.333  0.560- 177 2.43 154 2.47 128 2.47 129 2.55
  70  0.896  0.333  0.706- 178 2.43 155 2.47 129 2.47 130 2.55
  71  0.646  0.333  0.853- 179 2.43 156 2.47 130 2.47 131 2.55  16 3.33
  72  0.396  0.333  0.000-  23 2.21 180 2.43 131 2.47 132 2.55  14 2.61  22 3.22
  73  0.146  0.833  0.266-  27 1.20  18 1.84 109 2.43 116 2.47 145 2.55
  74  0.896  0.833  0.413- 110 2.43 117 2.47 145 2.47 146 2.55
  75  0.646  0.833  0.560- 111 2.43 118 2.47 146 2.47 147 2.55
  76  0.396  0.833  0.706- 112 2.43 119 2.47 147 2.47 148 2.55
  77  0.146  0.833  0.853- 113 2.43 120 2.47 148 2.47 149 2.55  28 3.33
  78  0.896  0.833  1.000-   8 2.21 114 2.43 149 2.47 150 2.55  35 2.61   7 3.22
  79  0.146  0.333  0.266-  15 2.28 121 2.43 128 2.47 151 2.55  23 2.96  21 3.19  31 3.20
  80  0.896  0.333  0.413- 122 2.43 129 2.47 151 2.47 152 2.55
  81  0.646  0.333  0.560- 123 2.43 130 2.47 152 2.47 153 2.55
  82  0.396  0.333  0.706- 124 2.43 131 2.47 153 2.47 154 2.55
  83  0.146  0.333  0.853- 125 2.43 132 2.47 154 2.47 155 2.55  31 3.05   4 3.11
  84  0.896  0.333  1.000-   4 1.29 126 2.43 155 2.47 156 2.55  32 2.94
  85  0.479  0.500  0.266- 127 2.43 134 2.47  14 2.48 157 2.55
  86  0.229  0.500  0.413-  12 2.41 128 2.43 135 2.47 157 2.47 158 2.55
  87  0.979  0.500  0.560- 129 2.43 136 2.47 158 2.47 159 2.55
  88  0.729  0.500  0.706- 130 2.43 137 2.47 159 2.47 160 2.55
  89  0.479  0.500  0.853-  22 2.02 131 2.43 138 2.47 160 2.47 161 2.55
  90  0.229  0.500  1.000- 132 2.43  31 2.47 161 2.47 162 2.55
  91  0.813  0.667  0.266-  36 1.77 133 2.43 110 2.47 163 2.55  29 2.96
  92  0.563  0.667  0.413- 134 2.43 111 2.47 163 2.47 164 2.55   9 2.76
[...]
 166  0.896  0.708  0.706-  52 2.43  45 2.47  95 2.47  94 2.55
 167  0.646  0.708  0.853-  53 2.43  46 2.47  96 2.47  95 2.55
 168  0.396  0.708  1.000-  11 2.30  54 2.43  20 2.45  47 2.47  19 2.50  96 2.55
 169  0.313  0.042  0.266-  17 2.33  61 2.43  26 2.47  98 2.47  97 2.55  18 2.95
 170  0.063  0.042  0.413-  62 2.43  55 2.47  99 2.47  98 2.55
 171  0.813  0.042  0.560-  63 2.43  56 2.47 100 2.47  99 2.55
 172  0.563  0.042  0.706-  64 2.43  57 2.47 101 2.47 100 2.55
 173  0.313  0.042  0.853-  65 2.43  58 2.47 102 2.47 101 2.55
 174  0.063  0.042  1.000-  34 1.36   7 1.59  66 2.43  59 2.47 102 2.55
 175  0.646  0.208  0.266-  67 2.43   3 2.45 104 2.47 103 2.55  16 2.96  33 2.99   5 3.14
 176  0.396  0.208  0.413-  68 2.43  61 2.47 105 2.47 104 2.55  15 3.14
 177  0.146  0.208  0.560-  69 2.43  62 2.47 106 2.47 105 2.55
 178  0.896  0.208  0.706-  70 2.43  63 2.47 107 2.47 106 2.55
 179  0.646  0.208  0.853-  71 2.43  64 2.47 108 2.47 107 2.55  16 2.78  25 3.28
 180  0.396  0.208  1.000-  25 1.67  72 2.43  65 2.47 108 2.55  23 3.07

  LATTYP: Found a simple orthorhombic cell.
 ALAT       =    13.6292486190
 B/A-ratio  =     1.0646435808
 C/A-ratio  =     1.4283694076

  Lattice vectors:

 A1 = (   0.0000000000,   0.0000000000,  13.6292486190)
 A2 = (  14.5102920530,   0.0000000000,   0.0000000000)
 A3 = (   0.0000000000,  19.4676017760,   0.0000000000)

Analysis of symmetry for initial positions (statically):
 Subroutine PRICEL returns following result:

  LATTYP: Found a base centered orthorhombic cell.
 ALAT       =    14.5102911824
 B/A-ratio  =     1.3416410140
 C/A-ratio  =     0.9392815380

[...]

   2 primitive cells build up your supercell.

 Routine SETGRP: Setting up the symmetry group for a
 simple orthorhombic supercell.

 Subroutine GETGRP returns: Found  1 space group operations
 (whereof  1 operations were pure point group operations)
 out of a pool of  8 trial point group operations.

The static configuration has the point symmetry C_1 .

Analysis of symmetry for dynamics (positions and initial velocities):
 Subroutine PRICEL returns following result:

[...]

The dynamic configuration has the point symmetry C_1 .

Analysis of structural, dynamic, and magnetic symmetry:
 Subroutine PRICEL returns following result:

  LATTYP: Found a base centered orthorhombic cell.
 ALAT       =    14.5102911824
 B/A-ratio  =     1.3416410140
[...]
     0.000000000  0.000000000 13.629248619     0.000000000  0.000000000  0.073371616

  length of vectors
    14.510292053 19.467601776 13.629248619     0.068916600  0.051367396  0.073371616

 FORCES acting on ions
    electron-ion (+dipol)            ewald-force                    non-local-force                 convergence-correction
   0.213E+02 0.237E+02 0.148E+02   -.115E+03 -.617E+02 -.152E+02   -.246E+02 -.284E+02 -.643E+00   -.884E-04 0.350E-03 0.477E-05
   -.267E+02 0.155E+02 -.197E+02   0.366E+02 -.189E+02 0.352E+02   0.149E+02 -.609E+01 0.272E+02   -.120E-03 0.424E-03 0.272E-04
   0.159E+02 0.235E+02 0.290E+02   -.943E+02 -.504E+02 -.945E+02   -.300E+02 -.162E+02 -.330E+02   -.134E-03 0.170E-03 -.465E-05
   -.324E+02 -.556E+00 -.290E+00   0.113E+03 -.169E+02 0.248E+01   0.473E+02 -.991E+01 0.207E+01   0.115E-03 0.617E-04 -.379E-04
   0.570E+01 0.156E+02 0.314E+02   -.628E+01 -.178E+02 -.334E+02   -.244E+01 -.225E+00 -.508E+01   0.946E-04 -.251E-03 -.351E-04
   -.378E+02 0.735E+01 0.110E+02   0.544E+02 -.109E+02 -.178E+02   0.262E+02 -.465E+01 -.138E+02   -.129E-03 -.472E-03 0.607E-04
   0.446E+02 0.320E+02 -.150E+02   -.636E+02 -.490E+02 0.194E+02   -.293E+02 -.293E+02 0.952E+01   0.561E-04 -.399E-03 0.152E-04
   -.133E+01 0.285E+02 -.276E+02   0.304E+01 -.321E+02 0.316E+02   0.454E+00 -.745E+01 0.124E+02   -.774E-05 -.110E-03 0.785E-04
   0.333E+02 0.422E+02 0.106E+02   -.477E+02 -.599E+02 -.216E+02   -.238E+02 -.269E+02 -.184E+02   0.128E-03 0.324E-03 0.674E-04
   0.391E+02 -.795E+01 -.140E+02   -.572E+02 0.144E+02 0.222E+02   -.271E+02 0.918E+01 0.150E+02   0.136E-04 -.359E-03 0.235E-04
   -.217E+01 -.139E+02 -.325E+02   0.279E+01 0.157E+02 0.340E+02   0.131E+01 0.546E+00 0.496E+01   0.110E-03 0.117E-03 0.130E-05
   0.335E+02 0.259E+01 -.472E+01   -.113E+03 0.323E+02 0.301E+01   -.464E+02 0.162E+02 -.505E+00   0.795E-04 0.284E-03 0.118E-03
   -.282E+02 -.283E+02 -.288E+02   0.754E+02 0.556E+02 0.649E+02   0.330E+02 0.215E+02 0.287E+02   -.651E-04 0.318E-03 0.247E-04
   0.251E+02 -.171E+02 0.274E+02   -.333E+02 0.227E+02 -.418E+02   -.127E+02 0.962E+01 -.274E+02   -.380E-04 0.288E-03 0.128E-04
   -.350E+02 -.300E+02 -.138E+02   0.872E+02 0.626E+02 0.145E+02   0.312E+02 0.321E+02 0.266E+00   0.649E-04 -.105E-03 0.527E-04
   -.281E+02 -.391E+02 -.618E+01   0.317E+02 0.442E+02 0.817E+01   0.140E+02 0.171E+02 0.988E+01   -.221E-05 0.277E-04 -.419E-04
   -.685E-01 -.286E+02 0.179E+02   -.107E+01 0.317E+02 -.201E+02   0.533E+00 0.579E+01 -.746E+01   -.191E-03 -.445E-03 0.139E-03
   -.380E+02 -.281E+02 0.151E+02   0.425E+02 0.321E+02 -.182E+02   0.160E+02 0.185E+02 -.864E+01   -.274E-04 -.141E-03 -.713E-05
   -.324E+02 -.555E+00 -.290E+00   0.113E+03 -.169E+02 0.248E+01   0.473E+02 -.991E+01 0.207E+01   -.350E-04 -.806E-04 0.188E-04
   0.570E+01 0.156E+02 0.314E+02   -.628E+01 -.178E+02 -.334E+02   -.244E+01 -.225E+00 -.508E+01   0.155E-03 0.278E-03 0.670E-04
   -.378E+02 0.735E+01 0.110E+02   0.544E+02 -.109E+02 -.178E+02   0.262E+02 -.465E+01 -.138E+02   0.239E-04 0.273E-03 0.131E-03
   0.446E+02 0.320E+02 -.150E+02   -.636E+02 -.490E+02 0.194E+02   -.293E+02 -.293E+02 0.952E+01   0.100E-03 0.363E-03 0.302E-04
   -.133E+01 0.285E+02 -.276E+02   0.304E+01 -.321E+02 0.316E+02   0.454E+00 -.745E+01 0.124E+02   0.525E-04 0.703E-04 0.453E-04
   0.333E+02 0.422E+02 0.106E+02   -.477E+02 -.599E+02 -.216E+02   -.238E+02 -.269E+02 -.184E+02   0.403E-04 -.377E-03 0.368E-04
   0.213E+02 0.237E+02 0.148E+02   -.115E+03 -.617E+02 -.152E+02   -.246E+02 -.284E+02 -.643E+00   -.145E-03 -.253E-03 -.235E-04
   -.267E+02 0.155E+02 -.197E+02   0.366E+02 -.189E+02 0.352E+02   0.149E+02 -.609E+01 0.272E+02   -.620E-04 -.339E-03 0.513E-04
   0.159E+02 0.235E+02 0.290E+02   -.943E+02 -.504E+02 -.945E+02   -.300E+02 -.162E+02 -.330E+02   -.258E-04 0.955E-04 0.821E-04
   -.281E+02 -.391E+02 -.618E+01   0.317E+02 0.442E+02 0.817E+01   0.140E+02 0.171E+02 0.988E+01   -.509E-04 0.194E-03 0.108E-04
   -.685E-01 -.286E+02 0.179E+02   -.107E+01 0.317E+02 -.201E+02   0.533E+00 0.579E+01 -.746E+01   -.148E-03 0.377E-03 0.957E-04
   -.380E+02 -.281E+02 0.151E+02   0.425E+02 0.321E+02 -.182E+02   0.160E+02 0.185E+02 -.864E+01   0.308E-04 0.411E-03 0.328E-04
   0.391E+02 -.795E+01 -.140E+02   -.572E+02 0.144E+02 0.222E+02   -.271E+02 0.918E+01 0.150E+02   0.829E-04 0.191E-03 0.489E-04
   -.217E+01 -.139E+02 -.325E+02   0.279E+01 0.157E+02 0.340E+02   0.131E+01 0.546E+00 0.496E+01   0.884E-04 -.153E-03 0.124E-03
   0.335E+02 0.259E+01 -.472E+01   -.113E+03 0.323E+02 0.301E+01   -.464E+02 0.162E+02 -.505E+00   -.197E-04 -.419E-03 0.950E-04
   -.282E+02 -.283E+02 -.288E+02   0.754E+02 0.556E+02 0.649E+02   0.330E+02 0.215E+02 0.287E+02   0.674E-04 -.444E-03 0.342E-04
   0.251E+02 -.171E+02 0.274E+02   -.333E+02 0.227E+02 -.418E+02   -.127E+02 0.962E+01 -.274E+02   0.581E-04 -.248E-03 0.290E-04
   -.350E+02 -.300E+02 -.138E+02   0.872E+02 0.626E+02 0.145E+02   0.312E+02 0.321E+02 0.266E+00   -.773E-04 0.150E-04 -.466E-05
   0.183E+02 0.521E+01 -.392E+02   -.408E+02 -.435E+01 0.546E+02   -.155E+02 0.555E+00 0.127E+02   -.677E-04 0.332E-03 0.114E-03
   0.315E+01 -.136E+02 -.357E+02   -.321E+01 0.144E+02 0.365E+02   -.557E+00 0.463E+00 0.401E+00   -.178E-04 0.422E-03 -.963E-05
   0.315E+01 -.261E+01 -.102E+02   -.295E+01 0.262E+01 0.101E+02   -.510E+00 0.382E+00 0.226E+00   0.715E-05 0.288E-03 -.464E-04
   0.232E+01 -.275E+01 0.106E+02   -.221E+01 0.284E+01 -.104E+02   -.419E+00 0.322E+00 -.345E+00   0.169E-04 0.244E-03 -.907E-04
   0.551E+01 0.343E+00 0.292E+02   -.542E+01 0.263E+00 -.291E+02   -.720E+00 -.129E+00 -.163E+00   -.226E-04 0.301E-03 -.987E-04
   -.179E+02 0.775E+01 0.448E+02   0.912E+01 -.661E+01 -.729E+02   -.447E+01 0.264E+00 -.198E+02   -.154E-03 0.409E-03 0.318E-04
   -.196E+02 -.275E+02 -.334E+02   0.214E+02 0.318E+02 0.361E+02   0.308E+01 0.362E+01 0.393E+01   0.859E-04 0.211E-03 0.423E-04
   0.910E+01 -.461E+01 -.261E+02   -.917E+01 0.499E+01 0.263E+02   -.473E+00 0.135E+00 0.101E+00   -.332E-04 0.226E-03 0.150E-04
   0.950E+00 -.156E+01 -.132E+02   -.813E+00 0.142E+01 0.131E+02   -.481E+00 0.454E+00 0.607E-01   -.274E-04 0.210E-03 -.823E-04
   0.229E+01 -.252E+01 0.122E+02   -.223E+01 0.260E+01 -.121E+02   -.442E+00 0.338E+00 -.166E+00   0.324E-05 0.206E-03 -.187E-04
   0.218E+01 0.814E+00 0.291E+02   -.216E+01 -.749E+00 -.295E+02   -.440E+00 0.174E+00 -.455E-01   0.101E-03 0.262E-03 -.111E-04
   -.455E+01 0.119E+02 0.169E+02   0.124E+03 0.768E+01 -.212E+02   0.205E+02 -.312E+01 -.691E+01   -.188E-03 0.291E-03 -.157E-04
   0.114E+02 -.275E+02 -.164E+02   -.126E+02 0.314E+02 0.153E+02   -.173E+01 0.259E+01 0.139E+01   0.433E-04 -.300E-03 0.522E-06
   -.276E+01 0.909E+00 -.259E+02   0.296E+01 -.383E+00 0.260E+02   -.211E+00 -.130E+00 0.597E+00   0.905E-05 -.476E-04 -.608E-04
   0.316E+01 -.132E+01 -.146E+02   -.315E+01 0.138E+01 0.148E+02   -.422E+00 0.289E+00 -.135E+00   -.117E-04 -.311E-04 -.410E-04
   0.342E+01 -.232E+01 0.116E+02   -.331E+01 0.221E+01 -.117E+02   -.516E+00 0.446E+00 -.781E-01   0.848E-05 -.492E-04 -.877E-06
   -.651E+01 0.304E+01 0.402E+02   0.708E+01 -.334E+01 -.409E+02   -.314E+00 -.948E-02 -.517E+00   -.221E-04 -.876E-04 0.252E-04
   0.261E+02 -.222E+02 0.555E+01   -.124E+03 0.446E+02 -.356E+01   -.311E+02 0.692E+01 -.181E+01   0.270E-04 -.745E-04 0.109E-04
   -.654E+01 -.222E+02 -.174E+02   0.778E+01 0.247E+02 0.161E+02   -.486E+00 0.110E+01 0.238E+01   0.150E-03 -.443E-03 0.554E-05
   -.255E+01 0.126E+02 -.456E+02   0.211E+01 -.142E+02 0.485E+02   -.162E+00 -.660E+00 0.128E+01   0.597E-05 -.424E-03 0.119E-03
   0.350E+01 -.236E+01 -.117E+02   -.351E+01 0.238E+01 0.119E+02   -.394E+00 0.283E+00 -.107E-02   -.407E-04 -.314E-03 -.570E-05
   0.135E+01 -.210E+01 0.116E+02   -.125E+01 0.216E+01 -.116E+02   -.399E+00 0.317E+00 0.319E-01   -.397E-04 -.291E-03 -.286E-04
   0.806E+01 -.608E+01 0.599E+02   -.941E+01 0.685E+01 -.685E+02   -.419E+00 0.122E+01 -.721E+01   0.387E-04 -.370E-03 -.186E-04
   -.194E+02 -.242E+02 0.140E+02   0.207E+02 0.273E+02 -.118E+02   0.989E+00 0.782E+00 -.238E+01   0.833E-04 -.496E-03 -.458E-04
[...]
   -.857E+01 0.301E+01 0.261E+02   0.874E+01 -.336E+01 -.262E+02   0.352E+00 -.928E-01 -.778E-01   -.390E-04 0.149E-03 0.425E-04
   0.119E+02 0.231E+02 0.348E+02   -.121E+02 -.251E+02 -.370E+02   -.137E+01 -.179E+01 -.374E+01   0.124E-03 0.231E-03 0.443E-04
   0.138E+02 -.291E+01 -.326E+02   -.161E+02 0.325E+01 0.342E+02   -.147E+01 -.241E+00 0.312E+01   -.528E-04 -.392E-03 -.113E-05
   0.304E+00 0.421E+01 -.269E+02   -.646E+00 -.463E+01 0.268E+02   0.693E+00 -.220E+00 0.349E+00   0.558E-04 -.357E-03 -.130E-05
   -.442E+01 0.325E+01 -.135E+02   0.450E+01 -.309E+01 0.140E+02   0.308E+00 -.404E+00 -.391E+00   0.447E-04 -.346E-03 0.350E-04
   -.302E+01 0.351E+01 0.121E+02   0.308E+01 -.340E+01 -.124E+02   0.247E+00 -.502E+00 0.146E+00   -.170E-04 -.342E-03 -.684E-04
   -.393E+01 0.342E+01 0.301E+02   0.402E+01 -.343E+01 -.303E+02   0.346E+00 -.312E+00 -.139E+00   -.875E-04 -.381E-03 -.583E-05
   0.437E+01 -.771E+01 0.173E+02   -.392E+02 0.119E+01 -.593E+02   -.429E+01 0.532E+01 -.164E+02   0.795E-04 -.429E-03 0.104E-04
   0.117E+02 0.180E+02 -.219E+02   -.114E+02 -.202E+02 0.210E+02   -.176E+00 -.159E+01 0.209E+01   -.627E-04 -.149E-03 0.123E-03
   -.122E+02 0.487E+01 -.269E+02   0.127E+02 -.480E+01 0.274E+02   0.317E+00 -.567E+00 -.230E-02   -.647E-04 -.181E-03 0.503E-04
   -.146E+01 0.280E+01 -.153E+02   0.157E+01 -.275E+01 0.155E+02   0.416E+00 -.304E+00 -.304E-01   0.135E-04 -.158E-03 0.706E-05
   -.165E+01 0.343E+01 0.123E+02   0.159E+01 -.339E+01 -.123E+02   0.394E+00 -.389E+00 -.541E-01   0.477E-04 -.162E-03 -.679E-04
   -.121E+02 0.631E+00 0.432E+02   0.124E+02 -.690E+00 -.444E+02   0.583E+00 -.471E+00 -.483E+00   0.186E-04 -.769E-04 -.188E-03
   0.441E+02 -.148E+02 0.282E+01   -.670E+02 0.327E+02 -.190E+01   -.184E+02 0.145E+02 -.131E+01   -.173E-03 -.709E-04 -.751E-05
   0.168E+02 -.181E+01 0.702E+01   -.242E-12 -.156E-12 0.155E-12   -.170E+02 0.174E+01 -.650E+01   -.689E-04 0.285E-04 0.264E-03

 POSITION                                       TOTAL-FORCE (eV/Angst)
     14.26225     12.70108      0.00000      -118.219995    -66.462312     -0.999602
     11.36019      9.45648      1.45103        24.843361     -9.444149     42.705957
      8.45813      6.21188      2.90206      -108.505877    -43.026445    -98.531400
     14.26225      6.21188      0.00000       128.349978    -27.344076      4.256942
     11.36019      2.96728      1.45103        -3.014348     -2.468407     -7.059892
      8.45813     19.19028      2.90206        42.916992     -8.155126    -20.617654
     14.26225     19.19028      0.00000       -48.292534    -46.359556     13.835714
     11.36019     15.94568      1.45103         2.157210    -11.099184     16.389689
      8.45813     12.70108      2.90206       -38.241185    -44.605653    -29.368033
      9.18365     17.56798      0.72551       -45.175464     15.673176     23.112905
      6.28159     14.32338      2.17654         1.922543      2.384310      6.451882
      3.37953     11.07878      3.62757      -125.451593     51.162373     -2.221304
      9.18365     11.07878      0.72551        80.175532     48.692761     64.749404
      6.28159      7.83418      2.17654       -20.856819     15.161234    -41.744142
      3.37953      4.58958      3.62757        83.401768     64.809585      1.011578
      9.18365      4.58958      0.72551        17.532018     22.169318     11.861513
      6.28159      1.34498      2.17654        -0.603971      8.865567     -9.676240
      3.37953     17.56798      3.62757        20.521851     22.432411    -11.758462
      7.00710     15.94568      0.00000       128.349978    -27.344076      4.256942
      4.10504     12.70108      1.45103        -3.014348     -2.468407     -7.059892
      1.20298      9.45648      2.90206        42.916992     -8.155126    -20.617654
      7.00710      9.45648      0.00000       -48.292534    -46.359556     13.835714
      4.10504      6.21188      1.45103         2.157210    -11.099184     16.389689
      1.20298      2.96728      2.90206       -38.241185    -44.605653    -29.368033
      7.00710      2.96728      0.00000      -118.219995    -66.462312     -0.999602
      4.10504     19.19028      1.45103        24.843361     -9.444149     42.705957
      1.20298     15.94568      2.90206      -108.505877    -43.026445    -98.531400
      1.92850     14.32338      0.72551        17.532018     22.169318     11.861513
     13.53673     11.07878      2.17654        -0.603971      8.865567     -9.676240
     10.63467      7.83418      3.62757        20.521851     22.432411    -11.758462
      1.92850      7.83418      0.72551       -45.175464     15.673176     23.112905
     13.53673      4.58958      2.17654         1.922543      2.384310      6.451882
     10.63467      1.34498      3.62757      -125.451593     51.162373     -2.221304
      1.92850      1.34498      0.72551        80.175532     48.692761     64.749404
     13.53673     17.56798      2.17654       -20.856819     15.161234    -41.744142
     10.63467     14.32338      3.62757        83.401768     64.809585      1.011578
     14.21107      9.73380      3.62757       -37.940752      1.423202     28.190610
     10.58349      9.73380      5.62791        -0.612978      1.178927      1.171555
      6.95592      9.73380      7.62824        -0.306712      0.389652      0.117712
      3.32835      9.73380      9.62858        -0.311356      0.421490     -0.129364
     14.21106      9.73380     11.62891        -0.624888      0.477198     -0.054478
     10.58349      9.73380      0.00000       -13.195528      1.407336    -47.921472
      4.53754     12.97840      3.62757         4.812389      7.870521      6.612196
      0.90996     12.97840      5.62791        -0.544291      0.520968      0.210334
     11.79268     12.97840      7.62824        -0.343137      0.315995      0.021994
      8.16511     12.97840      9.62858        -0.381121      0.414224     -0.059295
      4.53753     12.97840     11.62891        -0.419977      0.238670     -0.432833
      0.90996     12.97840      0.00000       139.978629     16.480796    -11.212375
      9.37430     16.22300      3.62757        -2.917898      6.472244      0.196625
      5.74673     16.22300      5.62791        -0.008275      0.396050      0.686163
      2.11915     16.22300      7.62824        -0.413941      0.344153      0.158869
     13.00187     16.22300      9.62858        -0.401570      0.342622     -0.132447
      9.37430     16.22300     11.62891         0.252227     -0.312550     -1.202373
      5.74672     16.22300      0.00000      -128.699964     29.314215      0.170273
     14.21107      0.00000      3.62757         0.762296      3.597609      1.081460
     10.58349     19.46760      5.62791        -0.598520     -2.198017      4.168824
      6.95592     19.46760      7.62824        -0.405132      0.302257      0.186187
      3.32835     19.46760      9.62858        -0.297951      0.376095     -0.018155
     14.21106     19.46760     11.62891        -1.767563      1.980783    -15.752683
     10.58349     19.46760      0.00000         2.296727      3.855761     -0.147088
[...]
     13.00187     13.78955      9.62858         0.367203     -0.325438     -0.021524
      9.37430     13.78955     11.62891         0.520901     -0.438392     -0.207292
      5.74672     13.78955     13.62925        -1.589210     -3.809553     -6.008132
      4.53754      0.81115      3.62757        -3.794258      0.096586      4.679568
      0.90996      0.81115      5.62791         0.352738     -0.641331      0.283949
     11.79268      0.81115      7.62824         0.392241     -0.235855      0.186333
      8.16511      0.81115      9.62858         0.306686     -0.389954     -0.123114
      4.53754      0.81115     11.62891         0.438142     -0.324477     -0.376101
      0.90996      0.81114     13.62925       -39.159078     -1.203779    -58.371424
      9.37430      4.05575      3.62757         0.151572     -3.772811      1.172696
      5.74673      4.05575      5.62791         0.821515     -0.495034      0.501444
      2.11915      4.05575      7.62824         0.529902     -0.253442      0.155665
     13.00187      4.05575      9.62858         0.339893     -0.350120     -0.121413
      9.37430      4.05575     11.62891         0.873725     -0.529899     -1.647931
      5.74672      4.05574     13.62925       -41.254395     32.356941     -0.399486
    total drift:                               -0.201729     -0.067846      0.520617

  FREE ENERGIE OF THE ION-ELECTRON SYSTEM (eV)
  free  energy   TOTEN  =       196.08219349 eV

  energy  without entropy=      196.08485374  energy(sigma->0) =      196.08352362