 vasp.6.4.3 19Mar24 (build Oct 22 2024 11:23:12) complex

 executed on             LinuxIFC date 2025.04.30  09:37:53

 INCAR:
   SYSTEM = Si114 and Ge011 interface calculation
   ISTART = 0
   ICHARG = 2
   LWAVE = .FALSE.
   LREAL = AUTO
   ENCUT = 700
   ENAUG = 900
   ADDGRID = .TRUE.
   LMAXMIX = 6
   LASPH = .TRUE.
   LMIXTAU = .TRUE.
   NCORE = 16
   NELM = 100
   NBANDS = 231
   EDIFF = 1d-7
   AMIX = 0.6
   ISMEAR = 0
   SIGMA = 0.01
   NELECT = 384
   ISPIN = 2
   NUPDOWN = 1
   LVTOT = .FALSE.
   LVHAR = .TRUE.

 POTCAR:    PAW_PBE Si 05Jan2001
 POTCAR:    PAW_PBE Ge 05Jan2001
|           W    W    AA    RRRRR   N    N  II  N    N   GGGG   !!!           |
|           W    W   A  A   R    R  NN   N  II  NN   N  G    G  !!!           |
|           W    W  A    A  R    R  N N  N  II  N N  N  G       !!!           |
|           W WW W  AAAAAA  RRRRR   N  N N  II  N  N N  G  GGG   !            |
|           WW  WW  A    A  R   R   N   NN  II  N   NN  G    G                |
|           W    W  A    A  R    R  N    N  II  N    N   GGGG   !!!           |
|     You use a magnetic or noncollinear calculation, but did not specify     |
|     the initial magnetic moment with the MAGMOM tag. Note that a            |
|     default of 0.01 will be used for all atoms. This ferromagnetic          |
|     setup may break the symmetry of the crystal, in particular it may       |
|     rule out finding an antiferromagnetic solution. Thence, we              |
|     recommend setting the initial magnetic moment manually or verifying     |
|     carefully that this magnetic setup is desired.                          |

 POTCAR:    PAW_PBE Si 05Jan2001
   VRHFIN =Si: s2p2

   TITEL  = PAW_PBE Si 05Jan2001
   POMASS =   28.085; ZVAL   =    4.000    mass and valenz
   ENMAX  =  245.345; ENMIN  =  184.009 eV

 POTCAR:    PAW_PBE Ge 05Jan2001
   VRHFIN =Ge: s2p2

   TITEL  = PAW_PBE Ge 05Jan2001
   POMASS =   72.610; ZVAL   =    4.000    mass and valenz
   ENMAX  =  173.807; ENMIN  =  130.355 eV

 Optimization of the real space projectors (new method)

 maximal supplied QI-value         = 19.84
 optimisation between [QCUT,QGAM] = [ 13.49, 26.99] = [ 50.98,203.92] Ry
 Optimized for a Real-space Cutoff    1.07 Angstroem

   l    n(q)    QCUT    max X(q) W(low)/X(q) W(high)/X(q)  e(spline)
   0      9    13.493   159.560    0.22E-03    0.15E-03    0.72E-07
   0      9    13.493   115.863    0.21E-03    0.15E-03    0.71E-07
   1      8    13.493    88.339    0.15E-03    0.11E-03    0.13E-06
   1      8    13.493    48.592    0.15E-03    0.10E-03    0.13E-06
 Optimization of the real space projectors (new method)

 maximal supplied QI-value         = 16.25
 optimisation between [QCUT,QGAM] = [ 13.49, 26.98] = [ 50.95,203.80] Ry
 Optimized for a Real-space Cutoff    1.25 Angstroem

   l    n(q)    QCUT    max X(q) W(low)/X(q) W(high)/X(q)  e(spline)
   0     10    13.489    65.336    0.91E-04    0.11E-03    0.34E-06
   0     10    13.489    52.220    0.89E-04    0.11E-03    0.34E-06
   1     10    13.489    36.409    0.22E-03    0.27E-03    0.14E-06
   1     10    13.489    21.334    0.21E-03    0.27E-03    0.14E-06
   2      9    13.489     4.673    0.11E-03    0.12E-03    0.19E-06
  PAW_PBE Si 05Jan2001                  :
  PAW_PBE Ge 05Jan2001                  :

 POSCAR: fcc Si+fcc Ge
  positions in direct lattice

 exchange-correlation table for PE
   RHO(1)=    0.500       N(1)  =     2000
   RHO(2)=  100.500       N(2)  =     4000

 ion  position               nearest neighbor table
   1  0.000  0.000  0.000-  15 2.37  21 2.37  66 2.45
   2  0.750  0.611  0.040-  13 2.37  16 2.37  22 2.37  60 2.52
   3  0.500  0.222  0.080-  17 2.37  23 2.37  14 2.37
   4  0.250  0.833  0.119-  19 2.37  18 2.37  24 2.37  15 2.37
   5  0.000  0.444  0.159-  16 2.37  20 2.37  37 2.52
   6  0.750  0.056  0.199-  49 2.25  61 2.32  17 2.37  21 2.37  31 2.72
   7  0.500  0.000  0.000-  15 2.37  21 2.37  84 2.45
   8  0.250  0.611  0.040-  19 2.37  16 2.37  22 2.37  42 2.52
   9  0.000  0.222  0.080-  17 2.37  23 2.37  20 2.37
  10  0.750  0.833  0.119-  13 2.37  18 2.37  24 2.37  21 2.37
  11  0.500  0.444  0.159-  22 2.37  14 2.37  55 2.52
  12  0.250  0.056  0.199-  31 2.25  79 2.32  23 2.37  15 2.37  49 2.72
  13  0.750  0.750  0.000-  96 2.28  10 2.37   2 2.37  48 2.45  78 2.75
  14  0.500  0.361  0.040-   3 2.37  11 2.37  90 2.61
  15  0.250  0.972  0.080-   4 2.37   1 2.37   7 2.37  12 2.37
  16  0.000  0.583  0.119-   2 2.37   8 2.37   5 2.37
  17  0.750  0.194  0.159-   6 2.37   3 2.37   9 2.37  67 2.61
  18  0.500  0.806  0.199-  43 2.32  10 2.37   4 2.37
  19  0.250  0.750  0.000-  78 2.28   4 2.37   8 2.37  30 2.45  96 2.75
  20  0.000  0.361  0.040-   9 2.37   5 2.37  72 2.61
  21  0.750  0.972  0.080-  10 2.37   7 2.37   1 2.37   6 2.37
  22  0.500  0.583  0.119-   2 2.37   8 2.37  11 2.37
  23  0.250  0.194  0.159-  12 2.37   9 2.37   3 2.37  85 2.61
  24  0.000  0.806  0.199-  25 2.32  10 2.37   4 2.37
  25  0.039  0.699  0.291-  24 2.32  73 2.37  91 2.37  62 2.43
  26  0.289  0.533  0.415-  74 2.37  92 2.37  91 2.43  63 2.43
  27  0.539  0.366  0.538-  75 2.37  93 2.37  64 2.43  92 2.43
  28  0.789  0.199  0.661-  76 2.37  94 2.37  93 2.43  65 2.43
  29  0.039  0.033  0.784-  77 2.37  95 2.37  94 2.43  66 2.43
  30  0.289  0.866  0.908-  78 2.37  96 2.37  95 2.43  19 2.45
  31  0.039  0.033  0.291-  12 2.25  61 2.37  79 2.37  68 2.43   6 2.72
  32  0.289  0.866  0.415-  62 2.37  80 2.37  79 2.43  69 2.43
  33  0.539  0.699  0.538-  63 2.37  81 2.37  70 2.43  80 2.43
  34  0.789  0.533  0.661-  64 2.37  82 2.37  81 2.43  71 2.43
  35  0.039  0.366  0.784-  65 2.37  83 2.37  82 2.43  72 2.43
  36  0.289  0.199  0.908-  66 2.37  84 2.37  83 2.43
  37  0.039  0.366  0.291-  67 2.37  85 2.37  74 2.43   5 2.52
  38  0.289  0.199  0.415-  68 2.37  86 2.37  85 2.43  75 2.43
  39  0.539  0.033  0.538-  69 2.37  87 2.37  76 2.43  86 2.43
  40  0.789  0.866  0.661-  70 2.37  88 2.37  87 2.43  77 2.43
  41  0.039  0.699  0.784-  71 2.37  89 2.37  88 2.43  78 2.43
  42  0.289  0.533  0.908-  72 2.37  90 2.37  89 2.43   8 2.52
  43  0.539  0.699  0.291-  18 2.32  73 2.37  91 2.37  80 2.43
  44  0.789  0.533  0.415-  74 2.37  92 2.37  73 2.43  81 2.43
  45  0.039  0.366  0.538-  75 2.37  93 2.37  82 2.43  74 2.43
  46  0.289  0.199  0.661-  76 2.37  94 2.37  75 2.43  83 2.43
  47  0.539  0.033  0.784-  77 2.37  95 2.37  76 2.43  84 2.43
  48  0.789  0.866  0.908-  78 2.37  96 2.37  77 2.43  13 2.45
  49  0.539  0.033  0.291-   6 2.25  61 2.37  79 2.37  86 2.43  12 2.72
  50  0.789  0.866  0.415-  62 2.37  80 2.37  61 2.43  87 2.43
  51  0.039  0.699  0.538-  63 2.37  81 2.37  88 2.43  62 2.43
  52  0.289  0.533  0.661-  64 2.37  82 2.37  63 2.43  89 2.43
  53  0.539  0.366  0.784-  65 2.37  83 2.37  64 2.43  90 2.43
  54  0.789  0.199  0.908-  66 2.37  84 2.37  65 2.43
  55  0.539  0.366  0.291-  67 2.37  85 2.37  92 2.43  11 2.52
  56  0.789  0.199  0.415-  68 2.37  86 2.37  67 2.43  93 2.43
  57  0.039  0.033  0.538-  69 2.37  87 2.37  94 2.43  68 2.43
  58  0.289  0.866  0.661-  70 2.37  88 2.37  69 2.43  95 2.43
  59  0.539  0.699  0.784-  71 2.37  89 2.37  70 2.43  96 2.43
  60  0.789  0.533  0.908-  72 2.37  90 2.37  71 2.43   2 2.52
[...]
  82  0.039  0.449  0.661-  34 2.37  52 2.37  45 2.43  35 2.43
  83  0.289  0.283  0.784-  35 2.37  53 2.37  46 2.43  36 2.43
  84  0.539  0.116  0.908-  36 2.37  54 2.37  47 2.43   7 2.45
  85  0.289  0.283  0.291-  37 2.37  55 2.37  38 2.43  23 2.61
  86  0.539  0.116  0.415-  38 2.37  56 2.37  49 2.43  39 2.43
  87  0.789  0.949  0.538-  39 2.37  57 2.37  40 2.43  50 2.43
  88  0.039  0.783  0.661-  40 2.37  58 2.37  51 2.43  41 2.43
  89  0.289  0.616  0.784-  41 2.37  59 2.37  52 2.43  42 2.43
  90  0.539  0.449  0.908-  42 2.37  60 2.37  53 2.43  14 2.61
  91  0.289  0.616  0.291-  25 2.37  43 2.37  26 2.43
  92  0.539  0.449  0.415-  26 2.37  44 2.37  55 2.43  27 2.43
  93  0.789  0.283  0.538-  27 2.37  45 2.37  28 2.43  56 2.43
  94  0.039  0.116  0.661-  28 2.37  46 2.37  57 2.43  29 2.43
  95  0.289  0.949  0.784-  29 2.37  47 2.37  58 2.43  30 2.43
  96  0.539  0.783  0.908-  13 2.28  30 2.37  48 2.37  59 2.43  19 2.75

  LATTYP: Found a simple orthorhombic cell.
 ALAT       =     7.7498903220
 B/A-ratio  =     2.0948273132
 C/A-ratio  =     2.1213203435

  Lattice vectors:

 A1 = (  -7.7498903220,   0.0000000000,   0.0000000000)
 A2 = (   0.0000000000,   0.0000000000,  16.2346819210)
 A3 = (   0.0000000000,  16.4400000000,   0.0000000000)

Analysis of symmetry for initial positions (statically):
 Subroutine PRICEL returns following result:

[...]

   2 primitive cells build up your supercell.

 Routine SETGRP: Setting up the symmetry group for a
 simple orthorhombic supercell.

 Subroutine GETGRP returns: Found  1 space group operations
 (whereof  1 operations were pure point group operations)
 out of a pool of  8 trial point group operations.

The static configuration has the point symmetry C_1 .

Analysis of symmetry for dynamics (positions and initial velocities):
 Subroutine PRICEL returns following result:

[...]

The dynamic configuration has the point symmetry C_1 .

Analysis of structural, dynamic, and magnetic symmetry:
 Subroutine PRICEL returns following result:

  LATTYP: Found a simple orthorhombic cell.
 ALAT       =     3.8749451610
 B/A-ratio  =     4.1896546264
 C/A-ratio  =     4.2426406870

  Lattice vectors:

 A1 = (  -3.8749451610,   0.0000000000,   0.0000000000)
 A2 = (   0.0000000000,   0.0000000000,  16.2346819210)
 A3 = (   0.0000000000,  16.4400000000,   0.0000000000)

   2 primitive cells build up your supercell.

 Routine SETGRP: Setting up the symmetry group for a
 simple orthorhombic supercell.

 Subroutine GETGRP returns: Found  1 space group operations
 (whereof  1 operations were pure point group operations)
 out of a pool of  8 trial point group operations.

The overall configuration has the point symmetry C_1 .

 Subroutine INISYM returns: Found  1 space group operations
 (whereof  1 operations are pure point group operations),
 and found     2 'primitive' translations

                                     Primitive cell

  volume of cell :    1034.2158

  direct lattice vectors                    reciprocal lattice vectors
    -3.874945161  0.000000000  0.000000000    -0.258068168  0.000000000  0.000000000
     0.000000000  0.000000000 16.234681921     0.000000000  0.000000000  0.061596526
     0.000000000 16.440000000  0.000000000     0.000000000  0.060827251  0.000000000

  length of vectors
     3.874945161 16.234681921 16.440000000     0.258068168  0.061596526  0.060827251

  position of ions in fractional coordinates (direct lattice)
     0.000000000  0.000000000  0.000000000
     0.500000000  0.039780526  0.611111111
     0.000000000  0.079561053  0.222222222
     0.500000000  0.119341579  0.833333333
     0.000000000  0.159122106  0.444444444
     0.500000000  0.198902632  0.055555556
     0.500000000  0.000000000  0.750000000
     0.000000000  0.039780526  0.361111111
     0.500000000  0.079561053  0.972222222
     0.000000000  0.119341579  0.583333333
     0.500000000  0.159122106  0.194444444
[...]
     0.000000000  0.000000000 16.234681921     0.000000000  0.000000000  0.061596526

  length of vectors
     7.749890322 16.440000000 16.234681921     0.129034084  0.060827251  0.061596526

 FORCES acting on ions
    electron-ion (+dipol)            ewald-force                    non-local-force                 convergence-correction
   0.128E+01 -.177E+02 0.793E+01   -.863E+00 0.172E+02 -.722E+01   -.425E+00 0.143E+00 -.610E+00   0.104E-05 0.324E-04 -.194E-04
   0.159E+01 0.262E+02 -.689E+01   -.144E+01 -.255E+02 0.801E+01   0.281E+00 -.105E+01 -.125E+01   0.167E-05 0.818E-04 -.515E-04
   -.118E+01 -.128E+02 0.186E+02   0.710E+00 0.134E+02 -.173E+02   0.179E+00 -.535E+00 -.176E+01   -.246E-05 -.117E-03 -.886E-04
   -.235E+00 0.154E+02 -.620E+01   -.125E+00 -.156E+02 0.619E+01   0.339E+00 0.507E-01 0.296E+00   -.352E-06 0.951E-04 -.670E-04
   0.131E+01 0.317E+01 -.781E+01   -.144E+01 -.277E+01 0.481E+01   0.296E+00 -.527E+00 0.252E+01   -.994E-06 -.393E-04 -.367E-05
   -.803E+01 -.338E+02 0.201E+02   0.634E+01 0.339E+02 -.228E+02   0.233E+01 0.167E+01 0.198E+00   -.398E-06 -.432E-04 -.597E-04
   0.128E+01 -.177E+02 0.793E+01   -.863E+00 0.172E+02 -.722E+01   -.425E+00 0.143E+00 -.610E+00   0.121E-05 0.329E-04 -.202E-04
   0.159E+01 0.262E+02 -.689E+01   -.144E+01 -.255E+02 0.801E+01   0.281E+00 -.105E+01 -.125E+01   0.298E-05 0.820E-04 -.509E-04
   -.118E+01 -.128E+02 0.186E+02   0.710E+00 0.134E+02 -.173E+02   0.179E+00 -.535E+00 -.176E+01   -.280E-05 -.117E-03 -.879E-04
   -.235E+00 0.154E+02 -.620E+01   -.125E+00 -.156E+02 0.619E+01   0.339E+00 0.507E-01 0.296E+00   0.133E-06 0.950E-04 -.666E-04
   0.131E+01 0.317E+01 -.781E+01   -.144E+01 -.277E+01 0.481E+01   0.296E+00 -.527E+00 0.252E+01   -.836E-06 -.391E-04 -.421E-05
   -.803E+01 -.338E+02 0.201E+02   0.634E+01 0.339E+02 -.228E+02   0.233E+01 0.167E+01 0.198E+00   -.941E-06 -.428E-04 -.603E-04
   -.758E+01 0.329E+02 -.155E+02   0.627E+01 -.332E+02 0.180E+02   0.192E+01 -.100E+01 -.730E+00   -.148E-05 0.109E-03 -.262E-04
   0.102E+01 -.490E+01 0.107E+02   -.114E+01 0.450E+01 -.755E+01   0.310E+00 0.735E+00 -.287E+01   -.119E-05 -.136E-03 -.631E-04
   0.425E-01 -.161E+02 0.553E+01   -.248E+00 0.162E+02 -.558E+01   0.186E+00 0.114E-01 -.267E+00   -.124E-05 0.270E-04 -.340E-04
   -.115E+01 0.126E+02 -.204E+02   0.734E+00 -.134E+02 0.192E+02   0.969E-01 0.641E+00 0.176E+01   -.244E-05 0.535E-04 -.458E-04
   0.119E+01 -.278E+02 0.388E+01   -.114E+01 0.272E+02 -.527E+01   0.464E+00 0.130E+01 0.174E+01   0.304E-06 -.950E-04 -.841E-04
   0.225E+01 0.120E+02 -.521E+01   -.170E+01 -.118E+02 0.462E+01   -.566E+00 0.986E+00 -.219E+00   -.334E-06 0.101E-03 -.725E-04
   -.758E+01 0.329E+02 -.155E+02   0.627E+01 -.332E+02 0.180E+02   0.192E+01 -.100E+01 -.730E+00   -.662E-06 0.110E-03 -.262E-04
   0.102E+01 -.490E+01 0.107E+02   -.114E+01 0.450E+01 -.755E+01   0.310E+00 0.735E+00 -.287E+01   -.152E-05 -.136E-03 -.636E-04
   0.425E-01 -.161E+02 0.553E+01   -.248E+00 0.162E+02 -.558E+01   0.186E+00 0.114E-01 -.267E+00   -.752E-06 0.270E-04 -.337E-04
   -.115E+01 0.126E+02 -.204E+02   0.734E+00 -.134E+02 0.192E+02   0.969E-01 0.641E+00 0.176E+01   -.166E-05 0.532E-04 -.458E-04
   0.119E+01 -.278E+02 0.388E+01   -.114E+01 0.272E+02 -.527E+01   0.464E+00 0.130E+01 0.174E+01   0.107E-05 -.949E-04 -.843E-04
   0.225E+01 0.120E+02 -.521E+01   -.170E+01 -.118E+02 0.462E+01   -.566E+00 0.986E+00 -.219E+00   -.132E-05 0.101E-03 -.720E-04
   -.349E+01 0.226E+02 0.824E+01   0.297E+01 -.227E+02 -.799E+01   0.305E+00 0.256E+00 -.721E-01   0.511E-06 0.686E-04 -.179E-04
   0.893E-01 0.442E+01 0.161E+02   -.102E+00 -.426E+01 -.163E+02   -.254E-01 0.246E+00 0.933E-01   0.406E-06 -.283E-04 0.406E-04
   -.125E-01 -.521E+01 0.388E+01   0.186E-02 0.496E+01 -.389E+01   0.122E-02 0.588E+00 -.334E-01   -.433E-06 -.365E-04 0.451E-04
   -.431E-01 -.946E+01 -.487E+01   -.396E-02 0.937E+01 0.490E+01   0.117E-01 0.450E+00 -.117E+00   -.570E-06 -.252E-04 0.748E-04
   -.339E+00 -.125E+02 -.524E+00   0.272E+00 0.129E+02 0.106E+01   0.108E+00 -.863E-01 -.728E+00   -.870E-06 0.506E-04 0.679E-04
   -.161E+01 -.220E+02 0.521E+01   0.175E+01 0.238E+02 -.476E+01   0.772E+00 0.152E+01 -.259E+00   -.572E-05 0.638E-04 0.365E-04
   0.975E+01 -.181E+02 -.662E+01   -.978E+01 0.187E+02 0.676E+01   -.166E+01 0.707E+00 0.732E+00   0.543E-05 -.102E-04 -.684E-04
   0.182E+00 0.281E+01 -.104E+01   -.171E+00 -.294E+01 0.147E+01   0.230E-01 0.582E+00 0.247E-01   -.256E-06 0.654E-04 -.130E-04
   0.439E-01 0.500E+01 0.319E+01   0.617E-02 -.493E+01 -.324E+01   -.159E-01 0.397E+00 0.866E-01   -.315E-06 0.202E-04 0.351E-04
   0.146E-01 0.346E+01 -.210E+01   0.253E-02 -.346E+01 0.203E+01   -.163E-01 0.414E+00 0.170E-01   -.524E-06 -.264E-04 0.222E-04
   -.800E-01 -.171E+01 -.161E+02   0.116E+00 0.151E+01 0.162E+02   -.971E-01 0.510E+00 -.504E-01   -.255E-06 -.953E-04 0.635E-05
   0.190E+01 -.311E+02 -.236E+02   -.153E+01 0.314E+02 0.243E+02   -.763E-01 0.458E+00 0.474E+00   0.951E-06 -.746E-04 -.146E-04
   -.194E+01 -.174E+02 0.210E+02   0.196E+01 0.172E+02 -.210E+02   -.140E+00 0.119E+01 -.909E+00   0.331E-06 -.452E-04 0.250E-04
   -.252E+00 -.147E+02 0.597E+01   0.179E+00 0.148E+02 -.595E+01   0.296E-01 0.395E+00 -.109E-01   0.167E-06 -.420E-04 0.232E-04
   -.133E-01 -.741E+01 -.162E+01   -.999E-02 0.725E+01 0.175E+01   0.456E-02 0.545E+00 -.154E+00   -.144E-06 0.280E-04 0.438E-04
   0.118E-01 -.147E+01 0.138E+01   0.224E-02 0.167E+01 -.127E+01   -.141E-01 0.250E+00 -.177E+00   -.869E-07 0.668E-04 0.587E-04
   0.398E+00 0.912E+01 -.146E+00   -.334E+00 -.920E+01 0.461E-01   -.374E-01 0.377E+00 0.297E-01   0.139E-05 0.498E-04 0.306E-04
   -.161E+01 0.121E+02 -.153E+02   0.150E+01 -.118E+02 0.160E+02   -.645E-01 0.609E+00 0.408E+00   0.582E-06 0.704E-05 -.417E-04
   -.349E+01 0.226E+02 0.824E+01   0.297E+01 -.227E+02 -.799E+01   0.305E+00 0.256E+00 -.721E-01   0.158E-05 0.683E-04 -.183E-04
   0.893E-01 0.442E+01 0.161E+02   -.102E+00 -.426E+01 -.163E+02   -.254E-01 0.246E+00 0.933E-01   0.974E-06 -.279E-04 0.404E-04
   -.125E-01 -.521E+01 0.388E+01   0.186E-02 0.496E+01 -.389E+01   0.122E-02 0.588E+00 -.334E-01   0.251E-06 -.362E-04 0.446E-04
   -.431E-01 -.946E+01 -.487E+01   -.396E-02 0.937E+01 0.490E+01   0.117E-01 0.450E+00 -.117E+00   0.760E-06 -.251E-04 0.747E-04
   -.339E+00 -.125E+02 -.524E+00   0.272E+00 0.129E+02 0.106E+01   0.108E+00 -.863E-01 -.728E+00   -.101E-05 0.507E-04 0.679E-04
   -.161E+01 -.220E+02 0.521E+01   0.175E+01 0.238E+02 -.476E+01   0.772E+00 0.152E+01 -.259E+00   -.700E-05 0.638E-04 0.365E-04
   0.975E+01 -.181E+02 -.662E+01   -.978E+01 0.187E+02 0.676E+01   -.166E+01 0.707E+00 0.732E+00   0.716E-05 -.992E-05 -.682E-04
   0.182E+00 0.281E+01 -.104E+01   -.171E+00 -.294E+01 0.147E+01   0.230E-01 0.582E+00 0.247E-01   -.108E-06 0.656E-04 -.136E-04
   0.439E-01 0.500E+01 0.319E+01   0.617E-02 -.493E+01 -.324E+01   -.159E-01 0.397E+00 0.866E-01   -.619E-06 0.202E-04 0.348E-04
   0.146E-01 0.346E+01 -.210E+01   0.253E-02 -.346E+01 0.203E+01   -.163E-01 0.414E+00 0.170E-01   -.127E-06 -.265E-04 0.219E-04
   -.800E-01 -.171E+01 -.161E+02   0.116E+00 0.151E+01 0.162E+02   -.971E-01 0.510E+00 -.504E-01   -.215E-07 -.956E-04 0.628E-05
   0.190E+01 -.311E+02 -.236E+02   -.153E+01 0.314E+02 0.243E+02   -.763E-01 0.458E+00 0.474E+00   -.777E-06 -.748E-04 -.150E-04
   -.194E+01 -.174E+02 0.210E+02   0.196E+01 0.172E+02 -.210E+02   -.140E+00 0.119E+01 -.909E+00   0.111E-06 -.453E-04 0.244E-04
   -.252E+00 -.147E+02 0.597E+01   0.179E+00 0.148E+02 -.595E+01   0.296E-01 0.395E+00 -.109E-01   -.393E-06 -.421E-04 0.227E-04
   -.133E-01 -.741E+01 -.162E+01   -.999E-02 0.725E+01 0.175E+01   0.456E-02 0.545E+00 -.154E+00   -.188E-06 0.278E-04 0.434E-04
   0.118E-01 -.147E+01 0.138E+01   0.224E-02 0.167E+01 -.127E+01   -.141E-01 0.250E+00 -.177E+00   0.698E-06 0.669E-04 0.590E-04
   0.398E+00 0.912E+01 -.146E+00   -.334E+00 -.920E+01 0.461E-01   -.374E-01 0.377E+00 0.297E-01   0.155E-05 0.501E-04 0.310E-04
   -.161E+01 0.121E+02 -.153E+02   0.150E+01 -.118E+02 0.160E+02   -.645E-01 0.609E+00 0.408E+00   -.240E-06 0.711E-05 -.416E-04
[...]
   0.980E-01 -.382E+01 -.162E+02   -.106E+00 0.369E+01 0.164E+02   -.288E-01 -.276E+00 -.479E-01   0.970E-06 -.975E-04 0.428E-04
   -.300E+01 -.190E+02 -.120E+02   0.247E+01 0.191E+02 0.116E+02   0.199E+00 -.912E+00 0.853E+00   -.133E-05 0.121E-05 -.423E-05
   -.119E+01 -.998E+01 0.185E+02   0.109E+01 0.959E+01 -.189E+02   -.143E+00 -.819E+00 -.703E+00   -.373E-06 -.667E-04 -.901E-06
   0.388E+00 -.964E+01 0.750E+00   -.320E+00 0.978E+01 -.580E+00   -.365E-01 -.422E+00 -.799E-01   0.167E-05 -.253E-04 -.111E-05
   0.674E-02 0.107E+01 -.145E+01   0.325E-02 -.124E+01 0.136E+01   -.154E-02 -.272E+00 0.986E-01   0.370E-06 0.468E-04 0.347E-04
   -.242E-01 0.707E+01 0.162E+01   -.946E-02 -.689E+01 -.174E+01   0.990E-02 -.598E+00 0.140E+00   0.579E-07 0.439E-04 0.451E-04
   -.265E+00 0.148E+02 -.524E+01   0.196E+00 -.148E+02 0.509E+01   0.246E-01 -.467E+00 0.117E+00   0.605E-06 0.161E-04 0.527E-05
   -.155E+01 0.198E+02 -.230E+02   0.158E+01 -.196E+02 0.227E+02   -.192E+00 -.146E+01 0.123E+01   0.168E-05 -.643E-04 -.659E-04
   0.187E+01 0.328E+02 0.235E+02   -.148E+01 -.331E+02 -.243E+02   -.139E+00 -.429E+00 -.413E+00   -.130E-05 0.291E-04 0.146E-04
   -.744E-01 0.235E+01 0.162E+02   0.118E+00 -.207E+01 -.161E+02   -.954E-01 -.574E+00 -.370E-01   -.105E-05 -.282E-04 0.423E-04
   0.149E-01 -.317E+01 0.236E+01   0.199E-02 0.315E+01 -.226E+01   -.406E-02 -.401E+00 -.619E-01   -.528E-06 -.378E-04 0.533E-04
   0.483E-01 -.507E+01 -.331E+01   0.584E-02 0.500E+01 0.347E+01   -.160E-01 -.384E+00 -.163E+00   -.331E-06 -.423E-05 0.748E-04
   0.223E+00 -.365E+01 0.129E+01   -.197E+00 0.367E+01 -.138E+01   0.326E-01 -.420E+00 -.321E+00   0.122E-05 0.634E-04 0.561E-04
   0.909E+01 0.160E+02 0.554E+01   -.904E+01 -.166E+02 -.556E+01   -.147E+01 -.810E+00 -.384E+00   0.743E-05 0.831E-04 0.372E-04
   -.732E+01 -.170E+01 0.335E+00   0.107E-13 -.995E-13 0.222E-12   0.722E+01 0.168E+01 -.164E+00   -.588E-05 0.201E-03 0.904E-04

 POSITION                                       TOTAL-FORCE (eV/Angst)
      0.00000      0.00000      0.00000        -0.004136     -0.344215      0.093842
      5.81242     10.04667      0.64582         0.423719     -0.381763     -0.123837
      3.87495      3.65333      1.29165        -0.294290      0.129649     -0.483323
      1.93747     13.70000      1.93747        -0.020683     -0.122018      0.277034
      0.00000      7.30667      2.58330         0.166731     -0.122211     -0.484870
      5.81242      0.91333      3.22912         0.651337      1.697236     -2.500670
      3.87495      0.00000      0.00000        -0.004136     -0.344215      0.093842
      1.93747     10.04667      0.64582         0.423719     -0.381763     -0.123837
      0.00000      3.65333      1.29165        -0.294290      0.129649     -0.483323
      5.81242     13.70000      1.93747        -0.020683     -0.122018      0.277034
      3.87495      7.30667      2.58330         0.166731     -0.122211     -0.484870
      1.93747      0.91333      3.22912         0.651337      1.697236     -2.500670
      5.81242     12.33000      0.00000         0.615038     -1.273810      1.793423
      3.87495      5.93667      0.64582         0.191260      0.337036      0.284467
      1.93747     15.98333      1.29165        -0.018722      0.123839     -0.313190
      0.00000      9.59000      1.93747        -0.322709     -0.164599      0.513835
      5.81242      3.19667      2.58330         0.516059      0.686026      0.349472
      3.87495     13.24333      3.22912        -0.007508      1.122738     -0.805713
      1.93747     12.33000      0.00000         0.615038     -1.273810      1.793423
      0.00000      5.93667      0.64582         0.191260      0.337036      0.284467
      5.81242     15.98333      1.29165        -0.018722      0.123839     -0.313190
      3.87495      9.59000      1.93747        -0.322709     -0.164599      0.513835
      1.93747      3.19667      2.58330         0.516059      0.686026      0.349472
      0.00000     13.24333      3.22912        -0.007508      1.122738     -0.805713
      0.30592     11.49791      4.72912        -0.210267      0.106406      0.168524
      2.24339      8.75791      6.73023        -0.037236      0.407304     -0.127609
      4.18086      6.01791      8.73135        -0.008388      0.338946     -0.042695
      6.11833      3.27791     10.73246        -0.034361      0.362131     -0.088895
      0.30592      0.53791     12.73357         0.042508      0.351626     -0.195306
      2.24339     14.23791     14.73468         0.909663      3.372856      0.185958
      0.30592      0.53791      4.72912        -1.685598      1.357931      0.864341
      2.24339     14.23791      6.73023         0.035115      0.448197      0.450489
      4.18086     11.49791      8.73135         0.035216      0.459175      0.034960
      6.11833      8.75791     10.73246         0.001861      0.413971     -0.051824
      0.30592      6.01791     12.73357        -0.060480      0.308080      0.012463
      2.24339      3.27791     14.73468         0.290238      0.706462      1.138608
      0.30592      6.01791      4.72912        -0.125951      1.052647     -0.875061
      2.24339      3.27791      6.73023        -0.042666      0.451124      0.013472
      4.18086      0.53791      8.73135        -0.017668      0.390344     -0.019156
      6.11833     14.23791     10.73246         0.000924      0.450195     -0.066424
      0.30592     11.49791     12.73357         0.027746      0.295177     -0.072080
      2.24339      8.75791     14.73468        -0.179091      0.902448      1.008949
      4.18086     11.49791      4.72912        -0.210267      0.106406      0.168524
      6.11833      8.75791      6.73023        -0.037236      0.407304     -0.127609
      0.30592      6.01791      8.73135        -0.008388      0.338946     -0.042695
      2.24339      3.27791     10.73246        -0.034361      0.362131     -0.088895
      4.18086      0.53791     12.73357         0.042508      0.351626     -0.195306
      6.11833     14.23791     14.73468         0.909663      3.372856      0.185958
      4.18086      0.53791      4.72912        -1.685598      1.357931      0.864341
      6.11833     14.23791      6.73023         0.035115      0.448197      0.450489
      0.30592     11.49791      8.73135         0.035216      0.459175      0.034960
      2.24339      8.75791     10.73246         0.001861      0.413971     -0.051824
      4.18086      6.01791     12.73357        -0.060480      0.308080      0.012463
      6.11833      3.27791     14.73468         0.290238      0.706462      1.138608
      4.18086      6.01791      4.72912        -0.125951      1.052647     -0.875061
      6.11833      3.27791      6.73023        -0.042666      0.451124      0.013472
      0.30592      0.53791      8.73135        -0.017668      0.390344     -0.019156
      2.24339     14.23791     10.73246         0.000924      0.450195     -0.066424
      4.18086     11.49791     12.73357         0.027746      0.295177     -0.072080
      6.11833      8.75791     14.73468        -0.179091      0.902448      1.008949
[...]
      0.30592      7.38791     10.73246        -0.006419     -0.358870      0.019569
      2.24339      4.64791     12.73357        -0.035674     -0.410028      0.090906
      4.18086      1.90791     14.73468        -0.322960     -0.787420      0.458148
      2.24339      4.64791      4.72912        -0.239486     -1.209763     -1.106651
      4.18086      1.90791      6.73023         0.031842     -0.280302      0.088190
      6.11833     15.60791      8.73135         0.009514     -0.437023      0.011958
      0.30592     12.86791     10.73246        -0.022685     -0.412978      0.009761
      2.24339     10.12791     12.73357        -0.043508     -0.441061     -0.034699
      4.18086      7.38791     14.73468        -0.160455     -1.293199      0.926196
      2.24339     10.12791      4.72912         0.259779     -0.727207     -1.159784
      4.18086      7.38791      6.73023        -0.050776     -0.293158      0.041011
      6.11833      4.64791      8.73135         0.013939     -0.420014      0.042186
      0.30592      1.90791     10.73246         0.039152     -0.456248     -0.010197
      2.24339     15.60791     12.73357         0.059888     -0.408099     -0.414939
      4.18086     12.86791     14.73468        -1.412132     -1.371832     -0.405571
    total drift:                               -0.101588     -0.017102      0.170923

  FREE ENERGIE OF THE ION-ELECTRON SYSTEM (eV)
  free  energy   TOTEN  =      -425.23025931 eV

  energy  without entropy=     -425.22868098  energy(sigma->0) =     -425.22947014