 vasp.6.4.3 19Mar24 (build Oct 22 2024 11:23:12) complex

 executed on             LinuxIFC date 2025.06.08  19:12:46

 INCAR:
   SYSTEM = Si and Ge interface calculation
   ISTART = 0
   ICHARG = 2
   LWAVE = .FALSE.
   LREAL = AUTO
   ENCUT = 700
   ENAUG = 900
   ADDGRID = .TRUE.
   LMAXMIX = 6
   LASPH = .TRUE.
   LMIXTAU = .TRUE.
   NCORE = 16
   NELM = 100
   NBANDS = 375
   EDIFF = 1d-7
   AMIX = 0.6
   ISMEAR = 0
   SIGMA = 0.01
   NELECT = 624
   ISPIN = 2
   NUPDOWN = 1
   LVTOT = .FALSE.
   LVHAR = .TRUE.

 POTCAR:    PAW_PBE Si 05Jan2001
 POTCAR:    PAW_PBE Ge 05Jan2001
|           W    W    AA    RRRRR   N    N  II  N    N   GGGG   !!!           |
|           W    W   A  A   R    R  NN   N  II  NN   N  G    G  !!!           |
|           W    W  A    A  R    R  N N  N  II  N N  N  G       !!!           |
|           W WW W  AAAAAA  RRRRR   N  N N  II  N  N N  G  GGG   !            |
|           WW  WW  A    A  R   R   N   NN  II  N   NN  G    G                |
|           W    W  A    A  R    R  N    N  II  N    N   GGGG   !!!           |
|     You use a magnetic or noncollinear calculation, but did not specify     |
|     the initial magnetic moment with the MAGMOM tag. Note that a            |
|     default of 6.41e-3 will be used for all atoms. This ferromagnetic       |
|     setup may break the symmetry of the crystal, in particular it may       |
|     rule out finding an antiferromagnetic solution. Thence, we              |
|     recommend setting the initial magnetic moment manually or verifying     |
|     carefully that this magnetic setup is desired.                          |

 POTCAR:    PAW_PBE Si 05Jan2001
   VRHFIN =Si: s2p2

   TITEL  = PAW_PBE Si 05Jan2001
   POMASS =   28.085; ZVAL   =    4.000    mass and valenz
   ENMAX  =  245.345; ENMIN  =  184.009 eV

 POTCAR:    PAW_PBE Ge 05Jan2001
   VRHFIN =Ge: s2p2

   TITEL  = PAW_PBE Ge 05Jan2001
   POMASS =   72.610; ZVAL   =    4.000    mass and valenz
   ENMAX  =  173.807; ENMIN  =  130.355 eV

 Optimization of the real space projectors (new method)

 maximal supplied QI-value         = 19.84
 optimisation between [QCUT,QGAM] = [ 13.49, 26.99] = [ 50.98,203.92] Ry
 Optimized for a Real-space Cutoff    1.07 Angstroem

   l    n(q)    QCUT    max X(q) W(low)/X(q) W(high)/X(q)  e(spline)
   0      9    13.493   159.560    0.22E-03    0.15E-03    0.72E-07
   0      9    13.493   115.863    0.21E-03    0.15E-03    0.71E-07
   1      8    13.493    88.339    0.15E-03    0.11E-03    0.13E-06
   1      8    13.493    48.592    0.15E-03    0.10E-03    0.13E-06
 Optimization of the real space projectors (new method)

 maximal supplied QI-value         = 16.25
 optimisation between [QCUT,QGAM] = [ 13.49, 26.98] = [ 50.95,203.80] Ry
 Optimized for a Real-space Cutoff    1.25 Angstroem

   l    n(q)    QCUT    max X(q) W(low)/X(q) W(high)/X(q)  e(spline)
   0     10    13.489    65.336    0.91E-04    0.11E-03    0.34E-06
   0     10    13.489    52.220    0.89E-04    0.11E-03    0.34E-06
   1     10    13.489    36.409    0.22E-03    0.27E-03    0.14E-06
   1     10    13.489    21.334    0.21E-03    0.27E-03    0.14E-06
   2      9    13.489     4.673    0.11E-03    0.12E-03    0.19E-06
  PAW_PBE Si 05Jan2001                  :
  PAW_PBE Ge 05Jan2001                  :

 POSCAR: Si+Ge
  positions in direct lattice

 exchange-correlation table for PE
   RHO(1)=    0.500       N(1)  =     2000
   RHO(2)=  100.500       N(2)  =     4000

 ion  position               nearest neighbor table
   1  0.000  0.994  0.000-  28 2.35 106 2.35 114 2.82 156 2.84
   2  0.000  0.827  0.196-  29 2.35 106 2.35 107 2.35  46 2.35
   3  0.000  0.661  0.391- 108 2.35  47 2.35  30 2.35 107 2.35
   4  0.333  0.994  0.000-  31 2.35 100 2.35 119 2.57
   5  0.333  0.827  0.196-  32 2.35 100 2.35  49 2.35 101 2.35
   6  0.333  0.661  0.391- 102 2.35  50 2.35  33 2.35 101 2.35
   7  0.667  0.994  0.000- 144 2.04  34 2.35 103 2.35
   8  0.667  0.827  0.196-  35 2.35  52 2.35 103 2.35 104 2.35
   9  0.667  0.661  0.391- 105 2.35  53 2.35  36 2.35 104 2.35
  10  0.000  0.327  0.000- 150 2.08  88 2.35  37 2.35
  11  0.000  0.161  0.196-  38 2.35  89 2.35  28 2.35  88 2.35
  12  0.000  0.994  0.391-  90 2.35  39 2.35  29 2.35  89 2.35
  13  0.333  0.327  0.000-  40 2.35  82 2.35 155 2.91
  14  0.333  0.161  0.196-  41 2.35  83 2.35  31 2.35  82 2.35
  15  0.333  0.994  0.391-  84 2.35  42 2.35  32 2.35  83 2.35
  16  0.667  0.327  0.000-  43 2.35  85 2.35 126 2.46
  17  0.667  0.161  0.196-  44 2.35  86 2.35  34 2.35  85 2.35
  18  0.667  0.994  0.391-  45 2.35  87 2.35  35 2.35  86 2.35
  19  0.000  0.661  0.000- 120 2.08  97 2.35  46 2.35
  20  0.000  0.494  0.196-  98 2.35  47 2.35  37 2.35  97 2.35
  21  0.000  0.327  0.391-  99 2.35  48 2.35  38 2.35  98 2.35
  22  0.333  0.661  0.000-  91 2.35  49 2.35 149 2.90
  23  0.333  0.494  0.196-  92 2.35  50 2.35  40 2.35  91 2.35
  24  0.333  0.327  0.391-  93 2.35  51 2.35  41 2.35  92 2.35
  25  0.667  0.661  0.000-  94 2.35  52 2.35 132 2.45
  26  0.667  0.494  0.196-  95 2.35  53 2.35  43 2.35  94 2.35
  27  0.667  0.327  0.391-  96 2.35  54 2.35  44 2.35  95 2.35
  28  0.083  0.077  0.098-  11 2.35   1 2.35  55 2.35  56 2.35
  29  0.083  0.911  0.293-   2 2.35  56 2.35  12 2.35  57 2.35
  30  0.083  0.744  0.489-  57 2.35   3 2.35
  31  0.417  0.077  0.098-  58 2.35  14 2.35   4 2.35  59 2.35
  32  0.417  0.911  0.293-  59 2.35   5 2.35  15 2.35  60 2.35
  33  0.417  0.744  0.489-  60 2.35   6 2.35
  34  0.750  0.077  0.098-  17 2.35   7 2.35  61 2.35  62 2.35
  35  0.750  0.911  0.293-   8 2.35  62 2.35  18 2.35  63 2.35
  36  0.750  0.744  0.489-   9 2.35  63 2.35
  37  0.083  0.411  0.098-  65 2.35  10 2.35  20 2.35  64 2.35
  38  0.083  0.244  0.293-  11 2.35  65 2.35  66 2.35  21 2.35
  39  0.083  0.077  0.489-  12 2.35  66 2.35
  40  0.417  0.411  0.098-  68 2.35  67 2.35  13 2.35  23 2.35
  41  0.417  0.244  0.293-  14 2.35  68 2.35  69 2.35  24 2.35
  42  0.417  0.077  0.489-  69 2.35  15 2.35
  43  0.750  0.411  0.098-  16 2.35  26 2.35  71 2.35  70 2.35
  44  0.750  0.244  0.293-  17 2.35  71 2.35  27 2.35  72 2.35
  45  0.750  0.077  0.489-  18 2.35  72 2.35 121 2.48
  46  0.083  0.744  0.098-   2 2.35  73 2.35  19 2.35  74 2.35
  47  0.083  0.577  0.293-  74 2.35  20 2.35   3 2.35  75 2.35
  48  0.083  0.411  0.489-  75 2.35  21 2.35
  49  0.417  0.744  0.098-  76 2.35   5 2.35  22 2.35  77 2.35
  50  0.417  0.577  0.293-  77 2.35  23 2.35   6 2.35  78 2.35
  51  0.417  0.411  0.489-  78 2.35  24 2.35
  52  0.750  0.744  0.098-   8 2.35  25 2.35  79 2.35  80 2.35
  53  0.750  0.577  0.293-  26 2.35   9 2.35  80 2.35  81 2.35
  54  0.750  0.411  0.489-  27 2.35  81 2.35 133 2.48
  55  0.167  0.161  0.000-  82 2.35  28 2.35 131 2.83
  56  0.167  0.994  0.196-  29 2.35 100 2.35  83 2.35  28 2.35
  57  0.167  0.827  0.391-  30 2.35  84 2.35 101 2.35  29 2.35
  58  0.500  0.161  0.000-  31 2.35  85 2.35
  59  0.500  0.994  0.196-  32 2.35 103 2.35  86 2.35  31 2.35
  60  0.500  0.827  0.391-  33 2.35  87 2.35  32 2.35 104 2.35
[...]
 142  0.493  0.743  0.768- 149 2.36 146 2.48 110 2.48
 143  0.104  0.368  0.816- 150 2.36 111 2.48 147 2.48
 144  0.716  0.993  0.864-   7 2.04 112 2.48 148 2.48
 145  0.910  0.243  0.624-  99 1.89 141 2.48 123 2.48
 146  0.521  0.868  0.672- 139 2.36 142 2.48 124 2.48  87 2.83
 147  0.132  0.493  0.720- 140 2.36 125 2.48 143 2.48
 148  0.743  0.118  0.768- 141 2.36 121 2.42 126 2.48 144 2.48
 149  0.354  0.743  0.816- 142 2.36 122 2.42  22 2.90
 150  0.966  0.368  0.864-  10 2.08 143 2.36 123 2.42
 151  0.910  0.743  0.624- 135 2.48 129 2.48
 152  0.521  0.368  0.672- 133 2.36 136 2.48 130 2.48
 153  0.132  0.993  0.720- 134 2.36 137 2.48 131 2.48
 154  0.743  0.618  0.768- 135 2.36 127 2.42 132 2.48 138 2.48
 155  0.354  0.243  0.816- 136 2.36 128 2.42  13 2.91
 156  0.966  0.868  0.864- 137 2.36 129 2.42   1 2.84  79 2.94

  LATTYP: Found a simple tetragonal cell.
 ALAT       =    16.2930011750
 C/A-ratio  =     0.8524230514

  Lattice vectors:

 A1 = (  16.2930011750,   0.0000000000,   0.0000000000)
 A2 = (   0.0000000000,  16.2930011750,   0.0000000000)
 A3 = (   0.0000000000,   0.0000000000,  13.8885297780)

Analysis of symmetry for initial positions (statically):
 Subroutine PRICEL returns:
 Original cell was already a primitive cell.

 Routine SETGRP: Setting up the symmetry group for a
 simple tetragonal supercell.

 Subroutine GETGRP returns: Found  1 space group operations
 (whereof  1 operations were pure point group operations)
 out of a pool of 16 trial point group operations.

The static configuration has the point symmetry C_1 .

Analysis of symmetry for dynamics (positions and initial velocities):
 Subroutine PRICEL returns:
 Original cell was already a primitive cell.

[...]

The dynamic configuration has the point symmetry C_1 .

Analysis of structural, dynamic, and magnetic symmetry:
 Subroutine PRICEL returns:
 Original cell was already a primitive cell.

 Routine SETGRP: Setting up the symmetry group for a
 simple tetragonal supercell.

 Subroutine GETGRP returns: Found  1 space group operations
 (whereof  1 operations were pure point group operations)
 out of a pool of 16 trial point group operations.

The overall configuration has the point symmetry C_1 .

 Subroutine INISYM returns: Found  1 space group operations
 (whereof  1 operations are pure point group operations),
 and found     1 'primitive' translations

                                     Primitive cell

  volume of cell :    3686.8753

  direct lattice vectors                    reciprocal lattice vectors
    16.293001175  0.000000000  0.000000000     0.061376047  0.000000000  0.000000000
     0.000000000 16.293001175  0.000000000     0.000000000  0.061376047  0.000000000
     0.000000000  0.000000000 13.888529778     0.000000000  0.000000000  0.072001862

  length of vectors
    16.293001175 16.293001175 13.888529778     0.061376047  0.061376047  0.072001862

  position of ions in fractional coordinates (direct lattice)
     0.000000000  0.994067729  0.000000000
     0.000000000  0.827401042  0.195521072
     0.000000000  0.660734296  0.391042173
     0.333333343  0.994067729  0.000000000
     0.333333343  0.827401042  0.195521072
     0.333333343  0.660734296  0.391042173
     0.666666687  0.994067729  0.000000000
     0.666666687  0.827401042  0.195521072
     0.666666687  0.660734296  0.391042173
     0.000000000  0.327401042  0.000000000
     0.000000000  0.160734370  0.195521072
     0.000000000  0.994067669  0.391042173
     0.333333343  0.327401042  0.000000000
     0.333333343  0.160734370  0.195521072
     0.333333343  0.994067669  0.391042173
     0.666666687  0.327401042  0.000000000
     0.666666687  0.160734370  0.195521072
     0.666666687  0.994067669  0.391042173
     0.000000000  0.660734415  0.000000000
     0.000000000  0.494067699  0.195521072
     0.000000000  0.327401042  0.391042173
     0.333333343  0.660734415  0.000000000
     0.333333343  0.494067699  0.195521072
     0.333333343  0.327401042  0.391042173
     0.666666687  0.660734415  0.000000000
     0.666666687  0.494067699  0.195521072
     0.666666687  0.327401042  0.391042173
[...]
     0.000000000  0.000000000 13.888529778     0.000000000  0.000000000  0.072001862

  length of vectors
    16.293001175 16.293001175 13.888529778     0.061376047  0.061376047  0.072001862

 FORCES acting on ions
    electron-ion (+dipol)            ewald-force                    non-local-force                 convergence-correction
   -.149E+02 -.214E+00 0.537E+02   0.150E+02 -.174E+00 -.518E+02   -.539E+00 0.186E+00 -.287E+01   -.178E-03 -.216E-03 -.612E-05
   -.914E+01 0.433E+00 0.107E+02   0.950E+01 -.120E+00 -.103E+02   -.362E+00 -.395E+00 -.351E+00   -.816E-04 0.641E-05 -.127E-03
   -.143E+02 0.144E+01 -.426E+02   0.156E+02 -.637E+00 0.422E+02   -.844E+00 -.764E+00 0.742E+00   0.551E-04 0.170E-03 -.400E-04
   0.281E+01 0.454E-01 0.697E+02   -.240E+01 0.665E-01 -.675E+02   -.287E+00 -.517E-01 -.270E+01   0.133E-03 -.300E-03 0.651E-04
   0.852E+00 -.408E+00 0.181E+02   -.630E+00 0.420E-01 -.179E+02   -.128E+00 0.270E+00 -.131E+00   0.977E-04 -.553E-04 -.230E-04
   0.387E+01 0.417E+00 -.493E+02   -.334E+01 -.272E+00 0.495E+02   -.363E+00 -.221E+00 0.319E-01   0.841E-04 0.315E-03 0.887E-04
   0.354E+02 0.383E+00 0.362E+02   -.342E+02 0.156E+00 -.363E+02   -.311E+01 -.178E+00 0.474E+01   0.868E-05 -.228E-03 -.168E-04
   0.945E+01 -.280E+00 0.161E+02   -.924E+01 0.788E-01 -.158E+02   -.107E+00 0.261E+00 -.129E+00   -.137E-04 0.493E-04 -.782E-04
   0.716E+01 -.128E+01 -.304E+02   -.753E+01 0.124E+01 0.306E+02   0.190E+00 0.176E+00 -.170E+00   -.848E-04 0.324E-03 0.274E-04
   -.202E+02 0.126E+02 0.313E+02   0.191E+02 -.122E+02 -.311E+02   0.193E+01 -.211E+01 0.377E+01   -.418E-04 0.756E-04 0.857E-04
   -.956E+01 -.924E-01 0.105E+02   0.950E+01 0.123E+00 -.103E+02   -.625E-01 -.394E-01 -.141E+00   -.930E-04 -.170E-03 -.845E-04
   -.158E+02 0.140E+00 -.404E+02   0.160E+02 0.109E-01 0.411E+02   -.512E-01 -.251E+00 -.746E+00   -.943E-04 -.224E-03 -.551E-04
   0.869E+00 -.334E+01 0.765E+02   -.108E+01 0.360E+01 -.749E+02   0.251E+00 -.460E+00 -.241E+01   -.287E-04 0.401E-04 0.141E-03
   0.588E+00 -.272E+00 0.182E+02   -.630E+00 -.427E-01 -.179E+02   0.743E-01 0.242E+00 -.211E+00   0.651E-04 -.178E-03 -.552E-04
   0.286E+01 -.335E+00 -.489E+02   -.311E+01 0.463E-02 0.490E+02   0.224E+00 0.201E+00 0.151E+00   0.236E-04 -.402E-03 -.137E-04
   0.269E+02 -.749E+01 0.537E+02   -.278E+02 0.744E+01 -.521E+02   0.372E+00 0.817E-02 -.155E+01   0.895E-04 -.118E-03 0.733E-04
   0.920E+01 0.207E+00 0.161E+02   -.924E+01 -.801E-01 -.158E+02   0.150E+00 -.238E-01 -.188E+00   0.163E-04 -.214E-03 -.823E-04
   0.756E+01 -.210E+00 -.325E+02   -.774E+01 -.202E-01 0.328E+02   0.158E+00 0.291E+00 -.181E+00   -.120E-04 -.239E-03 0.733E-04
   -.210E+02 -.132E+02 0.315E+02   0.191E+02 0.124E+02 -.315E+02   0.244E+01 0.201E+01 0.393E+01   -.344E-04 0.110E-03 -.416E-04
   -.935E+01 -.827E-01 0.108E+02   0.949E+01 -.206E-02 -.106E+02   -.277E+00 -.223E-01 -.149E+00   0.531E-04 0.173E-03 -.173E-03
   -.149E+02 0.502E+00 -.423E+02   0.156E+02 0.627E+00 0.423E+02   -.791E+00 -.811E+00 0.296E+00   -.210E-04 -.303E-05 -.115E-03
   0.208E+01 0.346E+01 0.766E+02   -.110E+01 -.367E+01 -.748E+02   -.632E+00 0.569E+00 -.282E+01   -.185E-04 0.234E-03 0.211E-04
   0.712E+00 -.129E+00 0.182E+02   -.642E+00 0.714E-03 -.179E+02   0.128E-01 0.969E-01 -.289E+00   -.103E-03 0.269E-03 -.442E-04
   0.360E+01 -.560E+00 -.495E+02   -.334E+01 0.268E+00 0.496E+02   -.119E+00 0.115E+00 0.361E+00   -.563E-04 0.399E-04 -.112E-03
   0.293E+02 0.771E+01 0.537E+02   -.279E+02 -.759E+01 -.519E+02   -.102E+01 0.173E+00 -.173E+01   0.380E-04 0.357E-03 -.728E-04
   0.922E+01 -.694E-01 0.162E+02   -.927E+01 0.134E-02 -.156E+02   0.861E-01 0.106E+00 -.693E+00   0.558E-04 0.199E-03 -.440E-04
   0.777E+01 0.105E+01 -.300E+02   -.752E+01 -.122E+01 0.305E+02   -.113E-01 0.418E-01 -.600E+00   0.168E-04 -.114E-03 -.110E-03
   -.145E+02 0.135E+01 0.368E+02   0.154E+02 -.764E+00 -.369E+02   -.541E+00 -.569E+00 -.129E+00   -.165E-03 -.254E-03 0.171E-04
   -.106E+02 0.553E+00 -.192E+02   0.106E+02 -.375E-01 0.192E+02   0.115E+00 -.400E+00 -.289E-01   -.462E-05 -.115E-03 -.172E-04
   -.171E+02 -.570E+00 -.738E+02   0.179E+02 0.329E-01 0.731E+02   -.949E+00 0.311E+00 0.169E+01   0.943E-04 0.964E-04 0.333E-04
   0.565E+01 0.184E+00 0.500E+02   -.501E+01 0.387E+00 -.502E+02   -.558E+00 -.497E+00 -.176E+00   0.160E-03 -.249E-03 -.602E-04
   0.711E+01 0.162E+00 -.158E+02   -.712E+01 0.748E-02 0.154E+02   0.110E+00 -.106E+00 0.381E+00   0.662E-04 -.223E-03 0.562E-04
   0.153E+02 -.381E+00 -.753E+02   -.150E+02 -.810E-02 0.753E+02   -.438E+00 0.277E+00 0.828E+00   0.286E-04 0.172E-03 0.411E-04
   0.622E+01 -.902E+00 0.339E+02   -.633E+01 0.789E+00 -.337E+02   -.663E-02 0.404E-01 -.443E+00   0.164E-04 -.265E-03 -.712E-04
   0.302E+01 0.108E-01 -.118E+02   -.310E+01 0.510E-01 0.115E+02   0.611E-01 0.708E-01 0.250E+00   -.491E-04 -.412E-04 0.114E-04
   0.209E+01 0.532E-01 -.566E+02   -.169E+01 -.701E-01 0.554E+02   -.419E+00 0.770E-01 0.257E+01   -.142E-03 0.220E-03 0.683E-04
   -.146E+02 0.132E+00 0.368E+02   0.154E+02 0.777E+00 -.370E+02   -.678E+00 -.716E+00 -.106E+00   -.193E-04 0.244E-03 -.601E-04
   -.103E+02 -.157E+00 -.195E+02   0.106E+02 0.639E-03 0.191E+02   -.226E+00 0.125E+00 0.426E+00   -.340E-04 -.482E-04 -.108E-03
   -.177E+02 -.163E+01 -.747E+02   0.177E+02 0.188E+01 0.758E+02   0.120E+00 -.608E+00 -.488E+00   -.696E-04 -.288E-03 -.728E-04
   0.527E+01 0.418E+00 0.502E+02   -.501E+01 -.393E+00 -.502E+02   -.118E+00 -.107E-01 -.377E+00   -.559E-04 0.101E-03 0.325E-04
   0.724E+01 0.991E-01 -.157E+02   -.708E+01 -.112E-03 0.154E+02   -.305E-01 -.778E-02 0.228E+00   0.495E-04 -.101E-03 -.671E-04
   0.180E+02 0.580E+00 -.755E+02   -.177E+02 -.549E+00 0.745E+02   0.823E-01 0.246E+00 0.178E+01   0.134E-03 -.375E-03 -.685E-04
   0.724E+01 0.926E+00 0.336E+02   -.632E+01 -.803E+00 -.337E+02   -.479E+00 -.343E+00 -.146E+00   0.134E-03 0.847E-04 -.161E-04
   0.297E+01 0.491E+00 -.120E+02   -.318E+01 -.844E-03 0.116E+02   0.218E+00 -.375E+00 0.277E+00   -.172E-04 -.161E-03 -.643E-04
   -.564E+01 0.378E+01 -.498E+02   0.556E+01 -.466E+01 0.481E+02   -.822E-01 0.345E+00 0.221E+01   -.859E-04 -.320E-03 0.357E-04
   -.140E+02 0.862E+00 0.387E+02   0.149E+02 -.129E-01 -.383E+02   -.661E+00 -.711E+00 -.938E+00   -.803E-04 -.243E-04 -.113E-03
   -.104E+02 0.636E-01 -.192E+02   0.106E+02 0.368E-01 0.192E+02   -.172E+00 -.111E+00 -.133E-01   0.488E-04 0.140E-03 -.111E-03
   -.168E+02 0.137E+01 -.748E+02   0.177E+02 -.191E+01 0.758E+02   -.609E+00 0.583E+00 -.157E+00   0.412E-04 0.190E-03 -.795E-04
   0.534E+01 0.305E+00 0.491E+02   -.494E+01 0.663E-02 -.495E+02   -.275E+00 -.315E+00 0.253E+00   0.383E-04 0.161E-03 -.753E-04
   0.714E+01 0.416E+00 -.158E+02   -.712E+01 -.738E-02 0.154E+02   0.106E+00 -.342E+00 0.448E+00   -.528E-04 0.365E-03 0.403E-04
   0.172E+02 -.182E-01 -.753E+02   -.177E+02 0.557E+00 0.745E+02   0.793E+00 -.534E+00 0.165E+01   -.354E-04 0.165E-03 -.145E-03
   0.557E+01 -.425E+00 0.316E+02   -.585E+01 0.140E-01 -.321E+02   0.304E+00 0.872E-01 0.621E+00   0.100E-03 0.250E-03 -.193E-03
   0.353E+01 0.138E+00 -.116E+02   -.310E+01 -.502E-01 0.115E+02   -.447E+00 -.139E+00 0.563E-01   -.117E-04 0.269E-03 -.651E-04
   -.598E+01 -.559E+01 -.506E+02   0.543E+01 0.473E+01 0.482E+02   0.128E+00 0.523E+00 0.262E+01   -.667E-05 0.809E-04 -.669E-04
   -.247E+02 -.250E+01 0.686E+02   0.241E+02 0.238E+01 -.672E+02   0.206E+00 -.428E+00 -.224E+01   -.896E-04 -.151E-03 0.783E-04
   -.936E+01 0.752E-01 0.145E+02   0.913E+01 -.523E-03 -.142E+02   0.133E+00 -.114E+00 -.233E+00   -.209E-04 -.238E-03 -.276E-04
   -.786E+01 -.343E+00 -.505E+02   0.769E+01 0.334E+00 0.503E+02   0.227E-01 0.585E-01 0.490E+00   0.125E-03 -.177E-04 0.586E-04
   0.117E+02 0.179E+01 0.758E+02   -.115E+02 -.205E+01 -.766E+02   -.173E+00 0.447E+00 0.211E+00   0.145E-03 -.273E-03 0.544E-04
   0.929E+01 0.264E+00 0.199E+02   -.940E+01 0.628E-03 -.194E+02   0.126E+00 -.201E+00 -.553E+00   0.514E-04 -.236E-03 -.686E-04
   0.146E+02 -.280E+00 -.405E+02   -.151E+02 -.517E+00 0.406E+02   0.505E+00 0.584E+00 0.176E+00   -.514E-04 -.765E-04 0.135E-03
[...]
   -.410E+02 0.915E+00 0.126E+02   0.416E+02 -.110E+01 -.127E+02   0.595E+00 0.463E+00 0.771E-01   -.878E-04 0.248E-03 0.158E-03
   0.121E+02 0.904E+00 0.314E+02   -.117E+02 -.127E+01 -.315E+02   0.126E+01 -.294E-01 -.435E+01   0.377E-04 -.262E-03 -.238E-04
   -.224E+02 0.218E+00 -.417E+02   0.224E+02 -.439E-01 0.435E+02   -.243E+00 -.188E+00 0.865E+01   -.676E-04 -.179E-03 0.130E-03
   0.416E+02 0.133E+01 -.158E+02   -.420E+02 -.124E+01 0.159E+02   -.904E+00 -.701E-01 -.727E-01   0.922E-04 -.159E-03 -.652E-04
   -.588E+01 -.125E+01 0.179E+02   0.595E+01 0.884E+00 -.175E+02   -.114E+01 0.233E-01 -.639E+00   -.985E-04 0.316E-03 0.135E-03
   0.176E+02 -.286E+00 -.145E+01   -.176E+02 0.492E+00 0.109E+01   -.779E+00 -.179E+00 0.112E+01   -.308E-04 -.345E-03 0.540E-04
   0.158E+02 -.353E+01 -.213E+01   -.160E+02 0.390E+01 0.184E+01   -.740E+00 -.823E+00 0.190E+01   0.850E-04 0.115E-03 0.598E-05
   0.582E+01 -.104E+02 0.322E+02   -.509E+01 0.104E+02 -.321E+02   -.234E+01 0.162E+01 -.286E+01   -.310E-05 0.153E-03 0.111E-03
   -.254E+02 -.124E-01 -.788E+01   0.258E+02 -.925E-01 0.653E+01   -.223E+00 0.181E+00 -.813E-01   -.418E-04 0.199E-03 0.136E-03
   0.363E+02 -.600E+00 -.119E+02   -.369E+02 0.316E+00 0.122E+02   -.992E+00 0.349E+00 -.126E+01   0.114E-03 0.420E-04 -.153E-04
   -.722E+01 0.937E+00 0.158E+02   0.669E+01 -.880E+00 -.168E+02   -.923E+00 0.134E+00 0.773E+00   -.121E-03 -.289E-03 0.409E-04
   0.154E+02 0.599E+00 0.251E+00   -.154E+02 -.649E+00 0.106E+00   -.291E+00 0.952E-01 -.736E-01   0.146E-04 0.378E-03 0.834E-04
   0.142E+02 0.273E+01 -.142E+01   -.149E+02 -.388E+01 0.228E+01   -.710E-01 0.125E+01 0.894E+00   0.731E-04 -.121E-03 0.160E-03
   -.785E+01 0.519E+01 0.144E+02   0.775E+01 -.525E+01 -.140E+02   -.841E+00 0.154E+00 0.115E+01   -.203E-03 -.109E-03 0.974E-04
   -.418E+00 0.134E+01 0.580E+00   -.117E-12 -.409E-13 -.391E-13   0.652E+00 -.153E+01 -.606E+00   -.399E-04 -.489E-04 -.103E-02

 POSITION                                       TOTAL-FORCE (eV/Angst)
      0.00000     16.19635      0.00000        -0.452268     -0.200922     -1.038841
      0.00000     13.48085      2.71550        -0.006731     -0.081590      0.008329
      0.00000     10.76534      5.43100         0.412605      0.043994      0.334959
      5.43100     16.19635      0.00000         0.124714      0.061176     -0.495114
      5.43100     13.48085      2.71550         0.092638     -0.094219      0.041394
      5.43100     10.76534      5.43100         0.169901     -0.074101      0.251339
     10.86200     16.19635      0.00000        -1.910241      0.362336      4.693459
     10.86200     13.48085      2.71550         0.097068      0.061261      0.103415
     10.86200     10.76534      5.43100        -0.180603      0.134961     -0.048600
      0.00000      5.33435      0.00000         0.829932     -1.794521      3.932708
      0.00000      2.61885      2.71550        -0.122429     -0.008217      0.033693
      0.00000     16.19635      5.43100         0.153763     -0.099048     -0.044087
      5.43100      5.33435      0.00000         0.038831     -0.196182     -0.852406
      5.43100      2.61885      2.71550         0.030330     -0.071683      0.027168
      5.43100     16.19635      5.43100        -0.025855     -0.128053      0.305050
     10.86200      5.33435      0.00000        -0.546746     -0.047528     -0.005252
     10.86200      2.61885      2.71550         0.101847      0.104127      0.069584
     10.86200     16.19635      5.43100        -0.020303      0.061582      0.141696
      0.00000     10.76535      0.00000         0.516015      1.183734      3.885282
      0.00000      8.04985      2.71550        -0.130964     -0.105561      0.089977
      0.00000      5.33435      5.43100        -0.113555      0.319393      0.270948
      5.43100     10.76535      0.00000         0.349305      0.356155     -0.974770
      5.43100      8.04985      2.71550         0.081102     -0.029857      0.012152
      5.43100      5.33435      5.43100         0.130679     -0.175956      0.397051
     10.86200     10.76535      0.00000         0.422240      0.295600      0.115472
     10.86200      8.04985      2.71550         0.037537      0.039270     -0.092880
     10.86200      5.33435      5.43100         0.233944     -0.122384     -0.058685
      1.35775      1.26110      1.35775         0.316868      0.016207     -0.229228
      1.35775     14.83860      4.07325         0.066054      0.116702     -0.087897
      1.35775     12.12310      6.78875        -0.092121     -0.225272      1.017220
      6.78875      1.26110      1.35775         0.072281      0.074606     -0.411264
      6.78875     14.83860      4.07325         0.098637      0.064402      0.002481
      6.78875     12.12310      6.78875        -0.126331     -0.110635      0.820770
     12.21975      1.26110      1.35775        -0.113702     -0.071529     -0.262988
     12.21975     14.83860      4.07325        -0.022220      0.133859     -0.064212
     12.21975     12.12310      6.78875        -0.019880      0.061623      1.353693
      1.35775      6.69210      1.35775         0.093564      0.195076     -0.240147
      1.35775      3.97659      4.07325         0.079341     -0.029714      0.020250
      1.35775      1.26109      6.78875         0.063889     -0.356914      0.620198
      6.78875      6.69210      1.35775         0.140309      0.015423     -0.321421
      6.78875      3.97659      4.07325         0.129503      0.092393     -0.075936
      6.78875      1.26109      6.78875         0.370054      0.277248      0.753146
     12.21975      6.69210      1.35775         0.441372     -0.218619     -0.191954
     12.21975      3.97659      4.07325         0.004606      0.116594     -0.116142
     12.21975      1.26109      6.78875        -0.162194     -0.539842      0.507299
      1.35775     12.12310      1.35775         0.252743      0.139953     -0.476643
      1.35775      9.40760      4.07325         0.065364     -0.009059     -0.052989
      1.35775      6.69210      6.78875         0.220888      0.044118      0.830601
      6.78875     12.12310      1.35775         0.128355     -0.002116     -0.153628
      6.78875      9.40760      4.07325         0.120569      0.068333      0.010574
      6.78875      6.69210      6.78875         0.323618      0.006266      0.903339
     12.21975     12.12310      1.35775         0.016582     -0.322028      0.098547
     12.21975      9.40760      4.07325        -0.021209     -0.049988     -0.094776
     12.21975      6.69210      6.78875        -0.421091     -0.333070      0.271920
      2.71550      2.61885      0.00000        -0.385710     -0.553430     -0.787982
      2.71550     16.19635      2.71550        -0.101762     -0.038274      0.055089
      2.71550     13.48085      5.43100        -0.142276      0.050398      0.314841
      8.14650      2.61885      0.00000        -0.018851      0.195240     -0.603222
      8.14650     16.19635      2.71550         0.018821      0.064348     -0.014608
      8.14650     13.48085      5.43100         0.007545     -0.211561      0.243865
[...]
      8.03827     12.11360     10.67203         0.917311      0.299163      0.372842
      1.70210      6.00372     11.33881         1.282738      0.279835     -0.060943
     11.65893     16.18684     12.00559         1.651099     -0.393870     -4.399879
     14.82703      3.96709      8.67169        -0.240800     -0.013814     10.474088
      8.49086     14.15022      9.33847        -1.243479      0.020257      0.079543
      2.15469      8.04035     10.00525        -1.073321     -0.345397     -0.182860
     12.11152      1.93047     10.67203        -0.772652      0.027666      0.765549
      5.77536     12.11360     11.33881        -0.957978     -0.449270      1.606295
     15.73219      6.00372     12.00559        -1.612933      1.618906     -2.796232
     14.82703     12.11359      8.67169         0.244887      0.077121     -1.428322
      8.49086      6.00372      9.33847        -1.559886      0.066026     -0.989251
      2.15469     16.18685     10.00525        -1.456431      0.191622     -0.238159
     12.11152     10.07697     10.67203        -0.302838      0.046574      0.283414
      5.77536      3.96710     11.33881        -0.743042      0.107030      1.761893
     15.73218     14.15022     12.00559        -0.942179      0.093878      1.589069
    total drift:                                0.234557     -0.197078     -0.026468

  FREE ENERGIE OF THE ION-ELECTRON SYSTEM (eV)
  free  energy   TOTEN  =      -727.43808625 eV

  energy  without entropy=     -727.43463779  energy(sigma->0) =     -727.43636202