 vasp.6.4.3 19Mar24 (build Oct 22 2024 11:23:12) complex

 executed on             LinuxIFC date 2025.06.09  05:18:20

 INCAR:
   SYSTEM = Si and Ge interface calculation
   ISTART = 0
   ICHARG = 2
   LWAVE = .FALSE.
   LREAL = AUTO
   ENCUT = 700
   ENAUG = 900
   ADDGRID = .TRUE.
   LMAXMIX = 6
   LASPH = .TRUE.
   LMIXTAU = .TRUE.
   NCORE = 16
   NELM = 100
   NBANDS = 432
   EDIFF = 1d-7
   AMIX = 0.6
   ISMEAR = 0
   SIGMA = 0.01
   NELECT = 720
   ISPIN = 2
   NUPDOWN = 1
   LVTOT = .FALSE.
   LVHAR = .TRUE.

 POTCAR:    PAW_PBE Ge 05Jan2001
 POTCAR:    PAW_PBE Sn 08Apr2002
|           W    W    AA    RRRRR   N    N  II  N    N   GGGG   !!!           |
|           W    W   A  A   R    R  NN   N  II  NN   N  G    G  !!!           |
|           W    W  A    A  R    R  N N  N  II  N N  N  G       !!!           |
|           W WW W  AAAAAA  RRRRR   N  N N  II  N  N N  G  GGG   !            |
|           WW  WW  A    A  R   R   N   NN  II  N   NN  G    G                |
|           W    W  A    A  R    R  N    N  II  N    N   GGGG   !!!           |
|     You use a magnetic or noncollinear calculation, but did not specify     |
|     the initial magnetic moment with the MAGMOM tag. Note that a            |
|     default of 5.556e-3 will be used for all atoms. This ferromagnetic      |
|     setup may break the symmetry of the crystal, in particular it may       |
|     rule out finding an antiferromagnetic solution. Thence, we              |
|     recommend setting the initial magnetic moment manually or verifying     |
|     carefully that this magnetic setup is desired.                          |

 POTCAR:    PAW_PBE Ge 05Jan2001
   VRHFIN =Ge: s2p2

   TITEL  = PAW_PBE Ge 05Jan2001
   POMASS =   72.610; ZVAL   =    4.000    mass and valenz
   ENMAX  =  173.807; ENMIN  =  130.355 eV

 POTCAR:    PAW_PBE Sn 08Apr2002
   VRHFIN =Sn: s2p2

   TITEL  = PAW_PBE Sn 08Apr2002
   POMASS =  118.710; ZVAL   =    4.000    mass and valenz
   ENMAX  =  103.236; ENMIN  =   77.427 eV

 Optimization of the real space projectors (new method)

 maximal supplied QI-value         = 16.25
 optimisation between [QCUT,QGAM] = [ 13.49, 26.98] = [ 50.95,203.80] Ry
 Optimized for a Real-space Cutoff    1.25 Angstroem

   l    n(q)    QCUT    max X(q) W(low)/X(q) W(high)/X(q)  e(spline)
   0     10    13.489    65.336    0.91E-04    0.11E-03    0.34E-06
   0     10    13.489    52.220    0.89E-04    0.11E-03    0.34E-06
   1     10    13.489    36.409    0.22E-03    0.27E-03    0.14E-06
   1     10    13.489    21.334    0.21E-03    0.27E-03    0.14E-06
   2      9    13.489     4.673    0.11E-03    0.12E-03    0.19E-06
 Optimization of the real space projectors (new method)

 maximal supplied QI-value         = 12.47
 optimisation between [QCUT,QGAM] = [ 12.47, 27.06] = [ 43.56,205.12] Ry
 Optimized for a Real-space Cutoff    1.58 Angstroem

   l    n(q)    QCUT    max X(q) W(low)/X(q) W(high)/X(q)  e(spline)
   0     13    12.472    14.688    0.45E-04    0.45E-04    0.25E-05
   0     13    12.472     7.308    0.94E-04    0.11E-03    0.61E-05
   1     12    12.472    45.102    0.34E-03    0.14E-03    0.21E-05
   1     12    12.472    30.691    0.31E-03    0.13E-03    0.20E-05
   2     12    12.472     7.156    0.86E-04    0.11E-03    0.17E-05
 WARNING: PSMAXN for non-local potential too small
          PSMAXN should be >   13.5545592237991       NTYP=           2
  PAW_PBE Ge 05Jan2001                  :
  PAW_PBE Sn 08Apr2002                  :

 POSCAR: Ge+Sn
  positions in direct lattice

 exchange-correlation table for PE
   RHO(1)=    0.500       N(1)  =     2000
   RHO(2)=  100.500       N(2)  =     4000

 ion  position               nearest neighbor table
   1  0.979  0.500  0.000- 165 1.63 173 2.09 122 2.45 115 2.45  97 2.45
   2  0.729  0.500  0.147-  98 2.45 123 2.45 116 2.45  97 2.45 174 2.77
   3  0.479  0.500  0.294- 124 2.45  99 2.45 117 2.45  98 2.45
   4  0.229  0.500  0.440- 125 2.45 100 2.45 118 2.45  99 2.45
   5  0.979  0.500  0.587- 126 2.45 119 2.45 100 2.45 101 2.45
   6  0.729  0.500  0.734- 146 1.65 157 2.04 102 2.45 120 2.45 101 2.45
   7  0.313  0.667  0.000- 156 2.21 164 2.23 128 2.45  73 2.45 121 2.45 155 2.59
   8  0.063  0.667  0.147- 129 2.45 122 2.45  74 2.45  73 2.45
   9  0.813  0.667  0.294- 130 2.45 123 2.45  75 2.45  74 2.45
  10  0.563  0.667  0.440- 131 2.45  75 2.45 124 2.45  76 2.45
  11  0.313  0.667  0.587- 132 2.45  77 2.45 125 2.45  76 2.45
  12  0.063  0.667  0.734- 145 1.14 172 1.82  78 2.45 126 2.45  77 2.45
  13  0.646  0.833  0.000- 180 2.26 110 2.45  79 2.45 127 2.45 152 2.90 150 3.20 154 3.21
  14  0.396  0.833  0.147-  80 2.45 128 2.45 111 2.45  79 2.45 162 3.31
  15  0.146  0.833  0.294-  81 2.45 129 2.45 112 2.45  80 2.45
  16  0.896  0.833  0.440-  81 2.45  82 2.45 113 2.45 130 2.45
  17  0.646  0.833  0.587-  83 2.45 131 2.45 114 2.45  82 2.45 163 3.03 154 3.05
  18  0.396  0.833  0.734- 163 1.24  84 2.45 132 2.45  83 2.45 155 2.94
  19  0.979  0.000  0.000- 109 2.45 134 2.45 103 2.45 179 2.49
  20  0.729  1.000  0.147- 177 2.42 135 2.45 104 2.45 110 2.45 103 2.45
  21  0.479  1.000  0.294- 136 2.45 105 2.45 111 2.45 104 2.45
  22  0.229  1.000  0.440- 137 2.45 105 2.45 112 2.45 106 2.45
  23  0.979  1.000  0.587- 151 2.02 138 2.45 113 2.45 106 2.45 107 2.45
  24  0.729  1.000  0.734- 154 2.44 108 2.45 114 2.45 107 2.45
  25  0.313  0.167  0.000- 159 1.75 140 2.45 133 2.45  85 2.45 161 2.92 168 3.28
  26  0.063  0.167  0.147- 141 2.45  86 2.45 134 2.45  85 2.45 168 2.75
  27  0.813  0.167  0.294- 135 2.45 142 2.45  87 2.45  86 2.45
  28  0.563  0.167  0.440- 143 2.45 136 2.45  88 2.45  87 2.45
  29  0.313  0.167  0.587- 144 2.45  89 2.45 137 2.45  88 2.45 169 3.11
  30  0.063  0.167  0.734- 178 2.26  90 2.45 138 2.45  89 2.45 168 2.93 176 3.13 148 3.19
  31  0.646  0.333  0.000- 147 1.17 174 1.81 116 2.45 139 2.45  91 2.45
  32  0.396  0.333  0.147-  92 2.45 117 2.45 140 2.45  91 2.45
  33  0.146  0.333  0.294- 118 2.45  93 2.45 141 2.45  92 2.45
  34  0.896  0.333  0.440- 142 2.45  94 2.45 119 2.45  93 2.45
  35  0.646  0.333  0.587- 120 2.45  95 2.45 143 2.45  94 2.45 160 3.33
  36  0.396  0.333  0.734- 167 2.15 144 2.45  96 2.45  95 2.45 158 2.61 166 3.22
  37  0.146  0.833  0.000- 171 1.17 162 1.81 109 2.45  73 2.45  80 2.45
  38  0.896  0.833  0.147- 110 2.45  74 2.45  81 2.45 109 2.45
  39  0.646  0.833  0.294- 111 2.45  75 2.45  82 2.45 110 2.45
  40  0.396  0.833  0.440- 112 2.45  83 2.45  76 2.45 111 2.45
  41  0.146  0.833  0.587-  84 2.45 113 2.45  77 2.45 112 2.45 172 3.33
  42  0.896  0.833  0.734- 152 2.15  78 2.45 114 2.45 113 2.45 179 2.61 151 3.22
  43  0.146  0.333  0.000- 159 2.26  92 2.45 115 2.45  85 2.45 167 2.90 165 3.20 175 3.21
  44  0.896  0.333  0.147-  93 2.45 116 2.45  86 2.45 115 2.45 174 3.31
  45  0.646  0.333  0.294- 117 2.45  94 2.45  87 2.45 116 2.45
  46  0.396  0.333  0.440-  95 2.45  88 2.45 118 2.45 117 2.45
  47  0.146  0.333  0.587-  96 2.45  89 2.45 119 2.45 118 2.45 148 3.03 175 3.05
  48  0.896  0.333  0.734- 148 1.24  90 2.45 120 2.45 119 2.45 176 2.94
  49  0.479  0.500  0.000-  98 2.45  91 2.45 121 2.45 158 2.49
  50  0.229  0.500  0.147- 156 2.42  99 2.45  92 2.45 122 2.45 121 2.45
  51  0.979  0.500  0.294- 123 2.45  93 2.45 100 2.45 122 2.45
  52  0.729  0.500  0.440- 101 2.45  94 2.45 123 2.45 124 2.45
  53  0.479  0.500  0.587- 166 2.02 125 2.45 102 2.45  95 2.45 124 2.45
  54  0.229  0.500  0.734- 175 2.44  96 2.45 126 2.45 125 2.45
  55  0.813  0.667  0.000- 180 1.75 127 2.45  97 2.45  74 2.45 173 2.92 153 3.28
  56  0.563  0.667  0.147- 128 2.45  98 2.45  75 2.45 127 2.45 153 2.75
  57  0.313  0.667  0.294-  99 2.45 129 2.45  76 2.45 128 2.45
  58  0.063  0.667  0.440-  77 2.45 130 2.45 100 2.45 129 2.45
  59  0.813  0.667  0.587- 131 2.45  78 2.45 101 2.45 130 2.45 145 3.11
  60  0.563  0.667  0.734- 157 2.26 102 2.45 132 2.45 131 2.45 153 2.93 155 3.13 163 3.19
[...]
 136  0.563  0.042  0.440-  21 2.45  28 2.45  65 2.45  64 2.45
 137  0.313  0.042  0.587-  22 2.45  65 2.45  29 2.45  66 2.45
 138  0.063  0.042  0.734- 178 1.33 151 1.56  23 2.45  66 2.45  30 2.45
 139  0.646  0.208  0.000-  67 2.45  31 2.45  68 2.45 147 2.45 160 2.96 177 2.98 149 3.09
 140  0.396  0.208  0.147-  25 2.45  32 2.45  68 2.45  69 2.45 159 3.07
 141  0.146  0.208  0.294-  26 2.45  33 2.45  69 2.45  70 2.45
 142  0.896  0.208  0.440-  34 2.45  71 2.45  27 2.45  70 2.45
 143  0.646  0.208  0.587-  28 2.45  35 2.45  71 2.45  72 2.45 160 2.78 169 3.21
 144  0.396  0.208  0.734- 169 1.63  29 2.45  36 2.45  72 2.45 167 3.05
 145  0.983  0.652  0.734-  12 1.14  78 1.63 126 2.44 172 2.74 173 2.81  59 3.11  77 3.21
 146  0.783  0.486  0.840-   6 1.65  97 2.47 120 2.71 173 2.74 157 2.74 174 2.81
 147  0.583  0.319  0.947-  31 1.17  91 1.95 139 2.45 158 2.74 174 2.74 160 2.81
 148  0.983  0.319  0.734-  48 1.24 119 2.28  90 2.48 175 2.74 176 2.81  47 3.03  30 3.19
 149  0.783  0.152  0.840-  67 2.23  90 2.40 176 2.74 160 2.74 177 2.81 139 3.09 103 3.10
 150  0.583  0.986  0.947-  61 1.63  79 2.70 161 2.74 177 2.74 154 2.81 104 2.95 108 3.11  13 3.20

 151  0.983  0.986  0.734- 138 1.56  23 2.02 178 2.74 179 2.81 113 2.95  42 3.22 107 3.28
 152  0.783  0.819  0.840- 114 1.96  42 2.15 179 2.74 154 2.74 180 2.81  13 2.90  78 3.05
 153  0.583  0.652  0.947- 127 1.58 180 2.74 155 2.74  56 2.75 157 2.81  60 2.93  55 3.28
 154  0.633  0.902  0.787- 114 1.61  24 2.44 152 2.74 163 2.74 150 2.81 108 2.99  17 3.05  13 3.21

 155  0.433  0.736  0.894- 132 2.30   7 2.59 153 2.74 164 2.74 163 2.81  18 2.94  60 3.13  79 3.16
                           127 3.33
 156  0.233  0.569  0.000- 121 1.23   7 2.21  50 2.42 165 2.74 164 2.81  73 2.98 122 3.14
 157  0.633  0.569  0.787- 102 1.33   6 2.04  60 2.26 166 2.74 146 2.74 153 2.81
 158  0.433  0.402  0.894-  91 1.68  49 2.49  36 2.61 167 2.74 147 2.74 166 2.81
 159  0.233  0.236  0.000-  85 1.32  25 1.75  43 2.26 168 2.74 167 2.81 140 3.07
 160  0.633  0.236  0.787-  72 1.82 169 2.74 149 2.74 143 2.78 147 2.81 139 2.96 120 3.12  35 3.33

[...]

 173  0.933  0.569  0.894-   1 2.09  97 2.27 165 2.74 146 2.74 145 2.81 126 2.87  55 2.92
 174  0.733  0.402  0.000-  31 1.81 116 2.07 147 2.74   2 2.77 146 2.81  97 2.94  44 3.31
 175  0.133  0.402  0.787-  96 1.61  54 2.44 167 2.74 148 2.74 165 2.81 126 2.99  47 3.05  43 3.21

 176  0.933  0.236  0.894-  90 2.30  67 2.59 168 2.74 149 2.74 148 2.81  48 2.94  30 3.13 115 3.16
                            85 3.33
 177  0.733  0.069  0.000- 103 1.23  67 2.21  20 2.42 150 2.74 149 2.81 139 2.98 104 3.14
 178  0.133  0.069  0.787- 138 1.33  66 2.04  30 2.26 170 2.74 151 2.74 168 2.81
 179  0.933  0.902  0.894- 109 1.68  19 2.49  42 2.61 152 2.74 171 2.74 151 2.81
 180  0.733  0.736  0.000- 127 1.32  55 1.75  13 2.26 153 2.74 152 2.81  74 3.07

  LATTYP: Found a simple orthorhombic cell.
 ALAT       =    13.6292486190
 B/A-ratio  =     1.0168370232
 C/A-ratio  =     1.4380246504

  Lattice vectors:

 A1 = (   0.0000000000,   0.0000000000,  13.6292486190)
 A2 = (  13.8587245940,   0.0000000000,   0.0000000000)
 A3 = (   0.0000000000,  19.5991954800,   0.0000000000)

Analysis of symmetry for initial positions (statically):
[...]
     0.000000000  0.000000000 13.629248619     0.000000000  0.000000000  0.073371616

  length of vectors
    13.858724594 19.599195480 13.629248619     0.072156712  0.051022502  0.073371616

 FORCES acting on ions
    electron-ion (+dipol)            ewald-force                    non-local-force                 convergence-correction
   0.147E+02 0.744E+01 -.394E+02   -.430E+02 -.530E+01 0.585E+02   -.174E+02 0.878E+00 0.143E+02   0.177E-04 0.471E-04 0.241E-05
   0.878E+00 -.112E+02 -.365E+02   -.873E+00 0.119E+02 0.373E+02   -.220E+00 0.183E+00 0.368E+00   0.786E-05 0.481E-04 0.101E-04
   0.392E+00 -.122E+00 -.108E+02   -.211E+00 0.178E+00 0.107E+02   -.174E+00 0.947E-03 0.210E+00   -.204E-06 0.497E-04 -.737E-06
   -.150E+00 -.240E+00 0.112E+02   0.229E+00 0.420E+00 -.110E+02   -.424E-01 -.856E-01 -.342E+00   -.101E-04 0.499E-04 0.237E-05
   0.253E+01 0.240E+01 0.304E+02   -.240E+01 -.191E+01 -.302E+02   -.425E+00 -.379E+00 -.222E+00   0.123E-04 0.581E-04 0.173E-05
   -.215E+02 0.113E+02 0.450E+02   0.132E+02 -.106E+02 -.755E+02   -.353E+01 -.387E+00 -.209E+02   0.428E-05 0.651E-04 -.147E-04
   -.201E+02 -.254E+02 -.341E+02   0.217E+02 0.295E+02 0.371E+02   0.326E+01 0.392E+01 0.388E+01   -.808E-05 0.490E-05 -.971E-05
   0.636E+01 -.270E+01 -.274E+02   -.628E+01 0.301E+01 0.275E+02   -.249E+00 -.165E+00 0.110E+00   0.255E-05 -.574E-06 0.246E-05
   -.158E+01 0.962E+00 -.136E+02   0.168E+01 -.103E+01 0.136E+02   -.984E-01 0.650E-01 0.662E-01   0.618E-05 0.606E-05 0.702E-05
   -.234E+00 -.373E-01 0.124E+02   0.355E+00 0.162E+00 -.124E+02   -.140E+00 -.741E-01 -.116E+00   0.162E-06 0.135E-04 0.574E-05
   -.654E+00 0.337E+01 0.309E+02   0.877E+00 -.332E+01 -.311E+02   -.341E+00 -.190E+00 -.228E+00   -.803E-05 0.192E-04 0.129E-04
   -.360E+01 0.149E+02 0.175E+02   0.140E+03 0.946E+01 -.222E+02   0.194E+02 -.453E+01 -.751E+01   -.131E-04 -.124E-05 -.505E-05
   0.941E+01 -.269E+02 -.169E+02   -.105E+02 0.306E+02 0.159E+02   -.158E+01 0.298E+01 0.128E+01   -.115E-04 -.484E-04 -.996E-05
   -.558E+01 0.361E+01 -.277E+02   0.594E+01 -.313E+01 0.277E+02   0.285E-01 -.501E+00 0.681E+00   0.534E-05 -.454E-04 -.629E-05
   0.464E+00 0.117E+01 -.150E+02   -.489E+00 -.109E+01 0.152E+02   -.454E-01 -.700E-01 -.588E-01   -.394E-05 -.459E-04 0.139E-04
   0.633E+00 0.210E+00 0.121E+02   -.529E+00 -.227E+00 -.121E+02   -.171E+00 0.340E-01 -.118E+00   0.610E-05 -.374E-04 0.436E-05
   -.932E+01 0.513E+01 0.422E+02   0.100E+02 -.554E+01 -.430E+02   0.906E-02 -.288E+00 -.555E+00   -.120E-04 -.350E-04 0.127E-04
   0.210E+02 -.194E+02 0.538E+01   -.133E+03 0.463E+02 -.342E+01   -.301E+02 0.714E+01 -.174E+01   0.124E-04 -.539E-04 0.755E-06
   -.926E+01 -.199E+02 -.168E+02   0.107E+02 0.221E+02 0.156E+02   -.342E+00 0.117E+01 0.222E+01   0.495E-05 -.219E-04 -.102E-04
   -.505E+01 0.148E+02 -.471E+02   0.483E+01 -.164E+02 0.497E+02   0.988E-01 -.102E+01 0.151E+01   -.299E-05 -.462E-04 0.101E-04
   0.759E+00 0.496E-01 -.123E+02   -.808E+00 -.507E-01 0.125E+02   -.256E-01 -.661E-01 -.190E-01   0.610E-05 -.435E-04 0.907E-05
   -.124E+01 0.406E+00 0.123E+02   0.131E+01 -.290E+00 -.123E+02   -.373E-01 -.654E-01 -.111E-01   -.807E-05 -.412E-04 0.131E-04
   0.537E+01 -.374E+01 0.610E+02   -.665E+01 0.437E+01 -.697E+02   -.209E-01 0.957E+00 -.707E+01   -.143E-05 -.359E-04 0.523E-05
   -.202E+02 -.230E+02 0.140E+02   0.219E+02 0.262E+02 -.118E+02   0.127E+01 0.799E+00 -.231E+01   -.462E-05 -.405E-04 -.361E-05
   -.409E+02 0.180E+02 -.412E+01   0.561E+02 -.340E+02 0.332E+01   0.129E+02 -.135E+02 0.117E+01   0.456E-05 -.154E-04 -.132E-04
   0.859E+01 0.394E+01 -.438E+02   -.896E+01 -.391E+01 0.453E+02   -.146E+00 0.196E-01 0.312E+00   -.875E-05 -.253E-05 -.280E-05
   -.986E+00 -.118E+01 -.130E+02   0.972E+00 0.112E+01 0.131E+02   0.173E-01 -.222E-02 0.257E-01   0.786E-05 -.561E-05 0.400E-05
   -.924E+00 -.110E-01 0.158E+02   0.957E+00 -.235E-02 -.160E+02   -.115E+00 -.114E+00 0.461E-01   0.482E-05 -.124E-04 0.662E-05
   0.921E+01 -.265E+01 0.286E+02   -.991E+01 0.250E+01 -.295E+02   0.340E-01 0.256E+00 0.270E+00   -.126E-04 -.104E-04 0.111E-04
   -.846E+01 -.224E+02 0.237E+02   0.774E+01 0.260E+02 -.237E+02   -.479E+00 0.291E+01 -.211E+01   0.676E-05 -.180E-04 0.542E-05
   -.997E+00 0.202E+02 -.154E+02   0.950E+02 0.112E+01 0.976E+02   0.108E+02 -.481E+01 0.181E+02   0.149E-04 0.200E-04 0.773E-05
   0.324E+00 -.135E+01 -.321E+02   -.243E+00 0.143E+01 0.322E+02   -.912E-01 -.609E-01 0.253E+00   -.657E-05 0.336E-04 -.159E-05
   0.482E+00 -.112E+01 -.126E+02   -.594E+00 0.119E+01 0.128E+02   0.885E-01 0.156E-01 -.119E+00   -.558E-05 0.351E-04 0.419E-06
   0.159E+01 -.535E+00 0.137E+02   -.178E+01 0.392E+00 -.145E+02   0.129E+00 0.210E-01 0.524E+00   0.729E-05 0.331E-04 -.598E-05
   -.195E+01 -.353E+01 0.297E+02   0.262E+01 0.404E+01 -.293E+02   -.571E+00 -.215E+00 -.697E+00   0.299E-05 0.182E-04 -.900E-05
   -.212E+02 0.288E+01 0.338E+02   0.255E+02 -.283E+01 -.363E+02   0.308E+01 0.531E+00 -.441E+01   -.193E-04 0.189E-04 -.104E-05
   -.997E+00 0.202E+02 -.154E+02   0.950E+02 0.112E+01 0.976E+02   0.108E+02 -.481E+01 0.181E+02   0.459E-05 -.549E-04 -.142E-04
   0.324E+00 -.135E+01 -.321E+02   -.243E+00 0.143E+01 0.322E+02   -.912E-01 -.609E-01 0.253E+00   0.120E-05 -.436E-04 0.286E-05
   0.482E+00 -.112E+01 -.126E+02   -.594E+00 0.119E+01 0.128E+02   0.885E-01 0.156E-01 -.119E+00   0.365E-06 -.395E-04 0.598E-05
   0.159E+01 -.535E+00 0.137E+02   -.178E+01 0.392E+00 -.145E+02   0.129E+00 0.210E-01 0.524E+00   -.112E-05 -.423E-04 0.171E-04
   -.195E+01 -.353E+01 0.297E+02   0.262E+01 0.404E+01 -.293E+02   -.571E+00 -.215E+00 -.697E+00   0.628E-05 -.470E-04 0.568E-05
   -.212E+02 0.288E+01 0.338E+02   0.255E+02 -.283E+01 -.363E+02   0.308E+01 0.531E+00 -.441E+01   0.701E-06 -.413E-04 -.150E-04
   0.941E+01 -.269E+02 -.169E+02   -.105E+02 0.306E+02 0.159E+02   -.158E+01 0.298E+01 0.128E+01   -.111E-04 0.371E-04 0.181E-05
   -.558E+01 0.361E+01 -.277E+02   0.594E+01 -.313E+01 0.277E+02   0.285E-01 -.501E+00 0.681E+00   0.901E-05 0.295E-04 -.605E-06
   0.464E+00 0.117E+01 -.150E+02   -.489E+00 -.109E+01 0.152E+02   -.454E-01 -.700E-01 -.588E-01   0.449E-05 0.324E-04 0.281E-05
   0.633E+00 0.210E+00 0.121E+02   -.529E+00 -.226E+00 -.121E+02   -.171E+00 0.340E-01 -.118E+00   -.793E-05 0.318E-04 -.343E-05
   -.932E+01 0.513E+01 0.422E+02   0.100E+02 -.554E+01 -.430E+02   0.906E-02 -.288E+00 -.555E+00   0.374E-05 0.295E-04 -.186E-05
   0.210E+02 -.194E+02 0.538E+01   -.133E+03 0.463E+02 -.342E+01   -.301E+02 0.714E+01 -.174E+01   0.483E-06 0.287E-04 -.325E-05
   -.926E+01 -.199E+02 -.168E+02   0.107E+02 0.221E+02 0.156E+02   -.342E+00 0.117E+01 0.222E+01   -.121E-04 0.557E-04 0.927E-05
   -.505E+01 0.148E+02 -.471E+02   0.483E+01 -.164E+02 0.497E+02   0.988E-01 -.102E+01 0.151E+01   -.107E-04 0.454E-04 -.240E-05
   0.759E+00 0.495E-01 -.123E+02   -.808E+00 -.507E-01 0.125E+02   -.256E-01 -.661E-01 -.190E-01   0.566E-05 0.465E-04 0.194E-05
   -.124E+01 0.406E+00 0.123E+02   0.131E+01 -.290E+00 -.123E+02   -.373E-01 -.654E-01 -.111E-01   0.975E-05 0.510E-04 -.681E-05
   0.537E+01 -.374E+01 0.610E+02   -.665E+01 0.437E+01 -.697E+02   -.209E-01 0.957E+00 -.707E+01   -.537E-05 0.625E-04 -.599E-06
   -.202E+02 -.230E+02 0.140E+02   0.219E+02 0.262E+02 -.118E+02   0.127E+01 0.799E+00 -.231E+01   -.192E-04 0.542E-04 -.241E-05
   -.409E+02 0.180E+02 -.412E+01   0.561E+02 -.340E+02 0.332E+01   0.129E+02 -.135E+02 0.117E+01   -.101E-04 0.169E-04 0.427E-05
   0.859E+01 0.394E+01 -.438E+02   -.896E+01 -.391E+01 0.453E+02   -.146E+00 0.196E-01 0.312E+00   0.235E-05 0.116E-04 -.781E-05
   -.986E+00 -.118E+01 -.130E+02   0.972E+00 0.112E+01 0.131E+02   0.173E-01 -.222E-02 0.257E-01   -.425E-05 0.803E-05 0.673E-05
   -.924E+00 -.110E-01 0.158E+02   0.957E+00 -.236E-02 -.160E+02   -.115E+00 -.114E+00 0.461E-01   0.300E-05 0.659E-05 0.907E-05
   0.921E+01 -.265E+01 0.286E+02   -.991E+01 0.250E+01 -.295E+02   0.340E-01 0.256E+00 0.270E+00   0.144E-04 0.961E-05 0.625E-05
   -.845E+01 -.224E+02 0.237E+02   0.774E+01 0.260E+02 -.237E+02   -.479E+00 0.291E+01 -.211E+01   -.200E-04 0.234E-04 0.214E-05
[...]
   0.394E+00 0.308E+02 -.289E+02   0.103E+01 -.350E+02 0.334E+02   -.323E+00 -.823E+01 0.137E+02   -.116E-04 0.247E-04 -.740E-05
   0.323E+02 0.446E+02 0.113E+02   -.472E+02 -.643E+02 -.234E+02   -.245E+02 -.290E+02 -.195E+02   -.884E-05 -.124E-04 -.168E-04
   0.206E+02 0.259E+02 0.147E+02   -.127E+03 -.719E+02 -.152E+02   -.229E+02 -.322E+02 -.699E+00   0.137E-05 -.208E-04 0.507E-05
   -.251E+02 0.176E+02 -.200E+02   0.355E+02 -.217E+02 0.371E+02   0.149E+02 -.654E+01 0.283E+02   0.979E-05 -.385E-04 -.175E-04
   0.124E+02 0.275E+02 0.300E+02   -.958E+02 -.580E+02 -.103E+03   -.276E+02 -.190E+02 -.351E+02   0.103E-04 -.468E-04 -.890E-05
   -.276E+02 -.420E+02 -.715E+01   0.310E+02 0.479E+02 0.936E+01   0.151E+02 0.192E+02 0.109E+02   0.729E-07 -.369E-04 -.200E-04
   -.175E+01 -.311E+02 0.190E+02   0.834E+00 0.344E+02 -.214E+02   0.119E+01 0.649E+01 -.826E+01   0.212E-04 0.406E-04 -.619E-05
   -.383E+02 -.308E+02 0.138E+02   0.436E+02 0.360E+02 -.171E+02   0.178E+02 0.210E+02 -.839E+01   0.119E-04 0.327E-04 0.113E-04
   0.388E+02 -.104E+02 -.152E+02   -.611E+02 0.190E+02 0.260E+02   -.295E+02 0.111E+02 0.171E+02   0.142E-04 0.503E-04 0.174E-05
   -.169E+01 -.169E+02 -.312E+02   0.243E+01 0.192E+02 0.326E+02   0.136E+01 0.104E+01 0.512E+01   0.139E-04 -.738E-05 0.138E-04
   0.301E+02 0.202E+01 -.517E+01   -.119E+03 0.400E+02 0.362E+01   -.458E+02 0.170E+02 -.769E+00   -.702E-05 -.229E-04 -.111E-04
   -.249E+02 -.317E+02 -.295E+02   0.762E+02 0.631E+02 0.706E+02   0.319E+02 0.242E+02 0.305E+02   0.209E-05 -.133E-04 0.341E-07
   0.236E+02 -.193E+02 0.274E+02   -.319E+02 0.256E+02 -.429E+02   -.125E+02 0.103E+02 -.280E+02   -.246E-05 -.430E-04 -.109E-04
   -.338E+02 -.315E+02 -.137E+02   0.952E+02 0.714E+02 0.147E+02   0.313E+02 0.358E+02 0.209E+00   -.139E-04 -.231E-04 0.616E-06
   0.158E+02 -.222E+01 0.681E+01   0.554E-12 0.568E-13 0.497E-12   -.157E+02 0.234E+01 -.615E+01   0.410E-05 -.165E-05 -.343E-04

 POSITION                                       TOTAL-FORCE (eV/Angst)
     13.57294      9.79960      0.00000       -45.692121      3.024963     33.401522
     10.10825      9.79960      2.00034        -0.215866      0.833025      1.218563
      6.64357      9.79960      4.00067         0.006474      0.055672      0.099970
      3.17889      9.79959      6.00101         0.035363      0.093797     -0.152087
     13.57293      9.79959      8.00134        -0.298959      0.115747     -0.044760
     10.10825      9.79959     10.00167       -11.877776      0.276497    -51.396406
      4.33379     13.06613      0.00000         4.882229      8.020461      6.858567
      0.86910     13.06613      2.00034        -0.175906      0.139560      0.239134
     11.26315     13.06613      4.00067        -0.004895     -0.006859      0.011900
      7.79846     13.06613      6.00100        -0.019554      0.049830     -0.060248
      4.33378     13.06613      8.00134        -0.118701     -0.140109     -0.435623
      0.86910     13.06612     10.00167       155.587252     19.864984    -12.158207
      8.95336     16.33266      0.00000        -2.626640      6.684872      0.303763
      5.48868     16.33266      2.00034         0.386842     -0.022643      0.733083
      2.02400     16.33266      4.00067        -0.071157      0.007293      0.173218
     12.41804     16.33266      6.00100        -0.068066      0.016585     -0.116335
      8.95336     16.33266      8.00134         0.716605     -0.697680     -1.310022
      5.48867     16.33266     10.00167      -142.528744     34.017517      0.218969
     13.57294      0.00000      0.00000         1.051623      3.425224      1.002152
     10.10825     19.59919      2.00033        -0.127071     -2.661230      4.119971
      6.64357     19.59919      4.00067        -0.075177     -0.067917      0.180948
      3.17889     19.59919      6.00100         0.033425      0.049096     -0.011511
     13.57293     19.59919      8.00134        -1.307067      1.584647    -15.791746
     10.10825     19.59919     10.00167         2.896221      3.950247     -0.122933
      4.33379      3.26653      0.00000        28.003351    -29.472549      0.365542
      0.86910      3.26653      2.00033        -0.516598      0.047598      1.886842
     11.26315      3.26653      4.00067         0.002947     -0.062866      0.117171
      7.79846      3.26653      6.00100        -0.082952     -0.128054     -0.162474
      4.33378      3.26653      8.00134        -0.663714      0.099612     -0.632483
      0.86910      3.26653     10.00167        -1.190080      6.500560     -2.133649
      8.95336      6.53307      0.00000       104.850901     16.503814    100.181201
      5.48868      6.53306      2.00034        -0.010032      0.020797      0.403032
      2.02400      6.53306      4.00067        -0.023739      0.083070      0.116170
     12.41804      6.53306      6.00100        -0.063505     -0.121995     -0.206993
      8.95336      6.53306      8.00134         0.103225      0.298751     -0.333055
      5.48867      6.53306     10.00167         7.408421      0.581329     -6.894056
      2.02400     16.33266      0.00000       104.850901     16.503814    100.181201
     12.41804     16.33266      2.00033        -0.010032      0.020797      0.403032
      8.95336     16.33266      4.00067        -0.023739      0.083070      0.116170
      5.48868     16.33266      6.00101        -0.063505     -0.121995     -0.206993
      2.02400     16.33266      8.00134         0.103225      0.298751     -0.333055
     12.41804     16.33266     10.00167         7.408421      0.581329     -6.894056
      2.02400      6.53306      0.00000        -2.626640      6.684872      0.303763
     12.41804      6.53306      2.00034         0.386842     -0.022643      0.733083
      8.95336      6.53306      4.00067        -0.071157      0.007293      0.173218
      5.48868      6.53306      6.00101        -0.068066      0.016585     -0.116335
      2.02400      6.53306      8.00134         0.716605     -0.697680     -1.310022
     12.41804      6.53306     10.00167      -142.528744     34.017517      0.218969
      6.64357      9.79960      0.00000         1.051623      3.425224      1.002152
      3.17889      9.79960      2.00034        -0.127071     -2.661230      4.119971
     13.57293      9.79960      4.00067        -0.075177     -0.067917      0.180948
     10.10825      9.79959      6.00101         0.033425      0.049096     -0.011511
      6.64357      9.79959      8.00134        -1.307067      1.584647    -15.791746
      3.17889      9.79959     10.00167         2.896221      3.950247     -0.122933
     11.26315     13.06613      0.00000        28.003351    -29.472549      0.365542
      7.79847     13.06613      2.00034        -0.516598      0.047598      1.886842
      4.33378     13.06613      4.00067         0.002947     -0.062866      0.117171
      0.86910     13.06613      6.00101        -0.082952     -0.128054     -0.162474
     11.26314     13.06613      8.00134        -0.663714      0.099612     -0.632483
      7.79846     13.06612     10.00167        -1.190080      6.500560     -2.133649
[...]
      6.69246      9.52040     10.00167       -52.284687    -52.615074     13.819166
      3.92071      6.25387     11.45271         1.100342    -12.439414     18.177921
      1.14896      2.98733     12.90374       -39.461892    -48.681603    -31.620770
      6.69246      2.98734     10.00167      -129.622784    -78.207083     -1.196125
      3.92071     19.32000     11.45271        25.267937    -10.697079     45.392529
      1.14896     16.05347     12.90374      -111.016769    -49.505710   -108.376091
      1.84190     14.42020     10.72719        18.530733     25.051041     13.156905
     12.92888     11.15367     12.17822         0.275477      9.862692    -10.627902
     10.15714      7.88713      0.00000        23.019793     26.175622    -11.721828
      1.84190      7.88714     10.72719       -51.889194     19.701540     27.901881
     12.92888      4.62060     12.17822         2.101399      3.327464      6.481949
     10.15714      1.35407      0.00000      -135.167222     59.042707     -2.322924
      1.84190      1.35407     10.72719        83.187014     55.541300     71.522495
     12.92888     17.68673     12.17822       -20.814391     16.645914    -43.470877
     10.15714     14.42020      0.00000        92.662025     75.681711      1.139967
    total drift:                                0.087157      0.120567      0.660006

  FREE ENERGIE OF THE ION-ELECTRON SYSTEM (eV)
  free  energy   TOTEN  =       317.63399954 eV

  energy  without entropy=      317.63629655  energy(sigma->0) =      317.63514805