 vasp.6.4.3 19Mar24 (build Oct 22 2024 11:23:12) complex

 executed on             LinuxIFC date 2025.04.30  10:10:57

 INCAR:
   SYSTEM = Si011 and Ge011 interface calculation
   ISTART = 0
   ICHARG = 2
   LWAVE = .FALSE.
   LREAL = AUTO
   ENCUT = 700
   ENAUG = 900
   ADDGRID = .TRUE.
   LMAXMIX = 6
   LASPH = .TRUE.
   LMIXTAU = .TRUE.
   NCORE = 16
   NELM = 100
   NBANDS = 116
   EDIFF = 1d-7
   AMIX = 0.6
   ISMEAR = 0
   SIGMA = 0.01
   NELECT = 192
   ISPIN = 2
   NUPDOWN = 1
   LVTOT = .FALSE.
   LVHAR = .TRUE.

 POTCAR:    PAW_PBE Si 05Jan2001
 POTCAR:    PAW_PBE Ge 05Jan2001
|           W    W    AA    RRRRR   N    N  II  N    N   GGGG   !!!           |
|           W    W   A  A   R    R  NN   N  II  NN   N  G    G  !!!           |
|           W    W  A    A  R    R  N N  N  II  N N  N  G       !!!           |
|           W WW W  AAAAAA  RRRRR   N  N N  II  N  N N  G  GGG   !            |
|           WW  WW  A    A  R   R   N   NN  II  N   NN  G    G                |
|           W    W  A    A  R    R  N    N  II  N    N   GGGG   !!!           |
|     You use a magnetic or noncollinear calculation, but did not specify     |
|     the initial magnetic moment with the MAGMOM tag. Note that a            |
|     default of 0.021 will be used for all atoms. This ferromagnetic         |
|     setup may break the symmetry of the crystal, in particular it may       |
|     rule out finding an antiferromagnetic solution. Thence, we              |
|     recommend setting the initial magnetic moment manually or verifying     |
|     carefully that this magnetic setup is desired.                          |

 POTCAR:    PAW_PBE Si 05Jan2001
   VRHFIN =Si: s2p2

   TITEL  = PAW_PBE Si 05Jan2001
   POMASS =   28.085; ZVAL   =    4.000    mass and valenz
   ENMAX  =  245.345; ENMIN  =  184.009 eV

 POTCAR:    PAW_PBE Ge 05Jan2001
   VRHFIN =Ge: s2p2

   TITEL  = PAW_PBE Ge 05Jan2001
   POMASS =   72.610; ZVAL   =    4.000    mass and valenz
   ENMAX  =  173.807; ENMIN  =  130.355 eV

 Optimization of the real space projectors (new method)

 maximal supplied QI-value         = 19.84
 optimisation between [QCUT,QGAM] = [ 13.49, 26.99] = [ 50.98,203.92] Ry
 Optimized for a Real-space Cutoff    1.07 Angstroem

   l    n(q)    QCUT    max X(q) W(low)/X(q) W(high)/X(q)  e(spline)
   0      9    13.493   159.560    0.22E-03    0.15E-03    0.72E-07
   0      9    13.493   115.863    0.21E-03    0.15E-03    0.71E-07
   1      8    13.493    88.339    0.15E-03    0.11E-03    0.13E-06
   1      8    13.493    48.592    0.15E-03    0.10E-03    0.13E-06
 Optimization of the real space projectors (new method)

 maximal supplied QI-value         = 16.25
 optimisation between [QCUT,QGAM] = [ 13.49, 26.98] = [ 50.95,203.80] Ry
 Optimized for a Real-space Cutoff    1.25 Angstroem

   l    n(q)    QCUT    max X(q) W(low)/X(q) W(high)/X(q)  e(spline)
   0     10    13.489    65.336    0.91E-04    0.11E-03    0.34E-06
   0     10    13.489    52.220    0.89E-04    0.11E-03    0.34E-06
   1     10    13.489    36.409    0.22E-03    0.27E-03    0.14E-06
   1     10    13.489    21.334    0.21E-03    0.27E-03    0.14E-06
   2      9    13.489     4.673    0.11E-03    0.12E-03    0.19E-06
  PAW_PBE Si 05Jan2001                  :
  PAW_PBE Ge 05Jan2001                  :

 POSCAR: fcc Si+fcc Ge
  positions in direct lattice

 exchange-correlation table for PE
   RHO(1)=    0.500       N(1)  =     2000
   RHO(2)=  100.500       N(2)  =     4000

 ion  position               nearest neighbor table
   1  0.491  0.803  0.902-  13 2.37  42 2.37  41 2.43  19 2.46
   2  0.250  0.750  0.079-  19 2.37  14 2.37  20 2.37  15 2.37
   3  0.500  0.500  0.158-  16 2.37  15 2.37  21 2.37  20 2.37
   4  0.750  0.250  0.237-  21 2.37  17 2.37  16 2.37  22 2.37
   5  0.000  0.000  0.316-  43 2.37  22 2.37  17 2.37  23 2.37
   6  0.741  0.553  0.494-  18 2.37  37 2.37  44 2.43  24 2.46
   7  0.500  0.500  0.000-  20 2.37  19 2.37  48 2.37  13 2.46
   8  0.750  0.250  0.079-  48 2.37  20 2.37  14 2.37  21 2.37
   9  0.000  0.000  0.158-  22 2.37  21 2.37  15 2.37  14 2.37
  10  0.250  0.750  0.237-  15 2.37  23 2.37  22 2.37  16 2.37
  11  0.500  0.500  0.316-  24 2.37  16 2.37  23 2.37  17 2.37
  12  0.750  0.250  0.396-  17 2.37  24 2.37  43 2.37  18 2.46
  13  0.491  0.553  0.902-   1 2.37  30 2.37  35 2.43   7 2.46  19 3.02
  14  0.250  0.000  0.079-  36 2.37   8 2.37   2 2.37   9 2.37
  15  0.500  0.750  0.158-  10 2.37   9 2.37   3 2.37   2 2.37
  16  0.750  0.500  0.237-   3 2.37  11 2.37  10 2.37   4 2.37
  17  0.000  0.250  0.316-  12 2.37   4 2.37  11 2.37   5 2.37
  18  0.741  0.303  0.494-   6 2.37  25 2.37  26 2.43  12 2.46  24 3.02
  19  0.500  0.750  0.000-   2 2.37   7 2.37  36 2.37   1 2.46  13 3.02
  20  0.750  0.500  0.079-   7 2.37   2 2.37   8 2.37   3 2.37
  21  0.000  0.250  0.158-   4 2.37   3 2.37   9 2.37   8 2.37
  22  0.250  0.000  0.237-   9 2.37   5 2.37   4 2.37  10 2.37
  23  0.500  0.750  0.316-  31 2.37  10 2.37  11 2.37   5 2.37
  24  0.750  0.500  0.396-  11 2.37  12 2.37  31 2.37   6 2.46  18 3.02
  25  0.241  0.053  0.494-  18 2.37  37 2.37  38 2.43  43 2.46
  26  0.991  0.303  0.575-  38 2.37  44 2.37  39 2.43  18 2.43
  27  0.741  0.553  0.657-  39 2.37  45 2.37  44 2.43  40 2.43
  28  0.491  0.803  0.739-  40 2.37  46 2.37  45 2.43  41 2.43
  29  0.241  0.053  0.820-  41 2.37  47 2.37  42 2.43  46 2.43
  30  0.991  0.303  0.902-  13 2.37  42 2.37  47 2.43  48 2.46
  31  0.250  0.750  0.396-  23 2.37  43 2.37  24 2.37  37 2.46
  32  0.491  0.803  0.575-  38 2.37  44 2.37  45 2.43  37 2.43
  33  0.241  0.053  0.657-  39 2.37  45 2.37  38 2.43  46 2.43
  34  0.991  0.303  0.739-  40 2.37  46 2.37  39 2.43  47 2.43
  35  0.741  0.553  0.820-  41 2.37  47 2.37  13 2.43  40 2.43
  36  0.000  0.000  0.000-  14 2.37  48 2.37  19 2.37  42 2.46
  37  0.241  0.803  0.494-  25 2.37   6 2.37  32 2.43  31 2.46
  38  0.991  0.053  0.575-  26 2.37  32 2.37  33 2.43  25 2.43
  39  0.741  0.303  0.657-  27 2.37  33 2.37  34 2.43  26 2.43
  40  0.491  0.553  0.739-  28 2.37  34 2.37  35 2.43  27 2.43
  41  0.241  0.803  0.820-  29 2.37  35 2.37   1 2.43  28 2.43
  42  0.991  0.053  0.902-  30 2.37   1 2.37  29 2.43  36 2.46
  43  0.250  0.000  0.396-   5 2.37  12 2.37  31 2.37  25 2.46
  44  0.491  0.553  0.575-  32 2.37  26 2.37  27 2.43   6 2.43
  45  0.241  0.803  0.657-  33 2.37  27 2.37  28 2.43  32 2.43
  46  0.991  0.053  0.739-  34 2.37  28 2.37  29 2.43  33 2.43
  47  0.741  0.303  0.820-  35 2.37  29 2.37  30 2.43  34 2.43
  48  0.000  0.250  0.000-   8 2.37   7 2.37  36 2.37  30 2.46

  LATTYP: Found a simple orthorhombic cell.
 ALAT       =     5.4800000000
 B/A-ratio  =     1.4142135624
 C/A-ratio  =     4.4695116526

  Lattice vectors:

 A1 = (   5.4800000000,   0.0000000000,   0.0000000000)
 A2 = (   0.0000000000,   7.7498903220,   0.0000000000)
 A3 = (   0.0000000000,   0.0000000000,  24.4929238560)

Analysis of symmetry for initial positions (statically):
 Subroutine PRICEL returns:
 Original cell was already a primitive cell.

 Routine SETGRP: Setting up the symmetry group for a
 simple orthorhombic supercell.

 Subroutine GETGRP returns: Found  1 space group operations
 (whereof  1 operations were pure point group operations)
 out of a pool of  8 trial point group operations.

The static configuration has the point symmetry C_1 .

Analysis of symmetry for dynamics (positions and initial velocities):
 Subroutine PRICEL returns:
 Original cell was already a primitive cell.

[...]

The dynamic configuration has the point symmetry C_1 .

Analysis of structural, dynamic, and magnetic symmetry:
 Subroutine PRICEL returns:
 Original cell was already a primitive cell.

 Routine SETGRP: Setting up the symmetry group for a
 simple orthorhombic supercell.

 Subroutine GETGRP returns: Found  1 space group operations
 (whereof  1 operations were pure point group operations)
 out of a pool of  8 trial point group operations.

The overall configuration has the point symmetry C_1 .

 Subroutine INISYM returns: Found  1 space group operations
 (whereof  1 operations are pure point group operations),
 and found     1 'primitive' translations

                                     Primitive cell

  volume of cell :    1040.1998

  direct lattice vectors                    reciprocal lattice vectors
     5.480000000  0.000000000  0.000000000     0.182481752  0.129034084  0.000000000
    -5.480000000  7.749890322  0.000000000     0.000000000  0.129034084  0.000000000
     0.000000000  0.000000000 24.492923856     0.000000000  0.000000000  0.040828119

  length of vectors
     5.480000000  9.491638426 24.492923856     0.223493590  0.129034084  0.040828119

  position of ions in fractional coordinates (direct lattice)
     0.490740741  0.803191489  0.902012515
     0.250000000  0.750000000  0.079103360
     0.500000000  0.500000000  0.158206721
     0.750000000  0.250000000  0.237310081
     0.000000000  0.000000000  0.316413441
     0.740740741  0.553191489  0.493504286
     0.500000000  0.500000000  0.000000000
     0.750000000  0.250000000  0.079103360
     0.000000000  0.000000000  0.158206721
     0.250000000  0.750000000  0.237310081
     0.500000000  0.500000000  0.316413441
     0.750000000  0.250000000  0.395516801
     0.490740741  0.553191489  0.902012515
     0.250000000  0.000000000  0.079103360
     0.500000000  0.750000000  0.158206721
     0.750000000  0.500000000  0.237310081
     1.000000000  0.250000000  0.316413441
     0.740740741  0.303191489  0.493504286
     0.500000000  0.750000000  0.000000000
     0.750000000  0.500000000  0.079103360
     1.000000000  0.250000000  0.158206721
     0.250000000  0.000000000  0.237310081
     0.500000000  0.750000000  0.316413441
     0.750000000  0.500000000  0.395516801
     0.240740741  0.053191489  0.493504286
     0.990740741  0.303191489  0.575205932
     0.740740741  0.553191489  0.656907578
     0.490740741  0.803191489  0.738609224
     0.240740741  0.053191489  0.820310870
     0.990740741  0.303191489  0.902012515
     0.250000000  0.750000000  0.395516801
     0.490740741  0.803191489  0.575205932
     0.240740741  0.053191489  0.656907578
     0.990740741  0.303191489  0.738609224
     0.740740741  0.553191489  0.820310870
     0.000000000  0.000000000  0.000000000
     0.240740741  0.803191489  0.493504286
     0.990740741  0.053191489  0.575205932
     0.740740741  0.303191489  0.656907578
     0.490740741  0.553191489  0.738609224
     0.240740741  0.803191489  0.820310870
     0.990740741  0.053191489  0.902012515
     0.250000000  0.000000000  0.395516801
     0.490740741  0.553191489  0.575205932
     0.240740741  0.803191489  0.656907578
     0.990740741  0.053191489  0.738609224
     0.740740741  0.303191489  0.820310870
     1.000000000  0.250000000  0.000000000

  ion indices of the primitive-cell ions
   primitive index   ion index
                 1           1
                 2           2
                 3           3
                 4           4
                 5           5
                 6           6
                 7           7
                 8           8
                 9           9
[...]
     42      -1.7235      1.00000
     43      -0.9253      1.00000
     44      -0.6615      1.00000
     45      -0.2285      1.00000
     46      -0.1441      1.00000
     47       0.2659      1.00000
     48       0.2680      1.00000
     49       0.3023      1.00000
     50       0.4787      1.00000
     51       0.4819      1.00000
     52       0.7163      1.00000
     53       0.7857      1.00000
     54       1.0078      1.00000
     55       1.0717      1.00000
     56       1.1399      1.00000
     57       1.2090      1.00000
     58       1.2189      1.00000
     59       1.3224      1.00000
     60       1.3637      1.00000
[...]
    102       5.5995      0.00000
    103       5.8919      0.00000
    104       6.0889      0.00000
    105       6.1441      0.00000
    106       6.1905      0.00000
    107       6.3111      0.00000
    108       6.4132      0.00000
    109       6.4686      0.00000
    110       6.5044      0.00000
    111       6.5154      0.00000
    112       6.6383      0.00000
    113       6.7575      0.00000
    114       6.8699      0.00000
    115       6.9021      0.00000
    116       7.1630      0.00000
 Fermi energy:         4.2518578712

 spin component 2

[...]

 k-point    15 :       0.4286    0.5000    0.0000
  band No.  band energies     occupation
      1      -7.5950      1.00000
      2      -7.4874      1.00000
      3      -7.3028      1.00000
      4      -6.9143      1.00000
      5      -6.7459      1.00000
      6      -6.5138      1.00000
      7      -6.4076      1.00000
      8      -6.0481      1.00000
      9      -5.9394      1.00000
     10      -5.8990      1.00000
     11      -5.7755      1.00000
     12      -5.5687      1.00000
     13      -5.5312      1.00000
     14      -5.4453      1.00000
     15      -5.2908      1.00000
     16      -5.2462      1.00000
     17      -5.1599      1.00000
     18      -5.0245      1.00000
     19      -4.8959      1.00000
     20      -4.8369      1.00000
     21      -4.6733      1.00000
     22      -4.6243      1.00000
     23      -4.0202      1.00000
     24      -3.9664      1.00000
     25      -3.8144      1.00000
     26      -3.7907      1.00000
     27      -3.2619      1.00000
     28      -3.1537      1.00000
     29      -3.0406      1.00000
     30      -2.9689      1.00000
     31      -2.7672      1.00000
     32      -2.6633      1.00000
     33      -2.4897      1.00000
     34      -2.3669      1.00000
     35      -2.2241      1.00000
     36      -2.1880      1.00000
     37      -2.1441      1.00000
     38      -2.0979      1.00000
     39      -1.9724      1.00000
     40      -1.8935      1.00000
     41      -1.7745      1.00000
     42      -1.7023      1.00000
     43      -0.9047      1.00000
     44      -0.6390      1.00000
     45      -0.2119      1.00000
     46      -0.1238      1.00000
     47       0.2872      1.00000
     48       0.2880      1.00000
     49       0.3267      1.00000
     50       0.5039      1.00000
     51       0.5045      1.00000
     52       0.7370      1.00000
     53       0.8064      1.00000
     54       1.0299      1.00000
     55       1.0909      1.00000
     56       1.1626      1.00000
     57       1.2310      1.00000
     58       1.2458      1.00000
     59       1.3419      1.00000
     60       1.3842      1.00000
[...]
    102       5.6247      0.00000
    103       5.9191      0.00000
    104       6.1091      0.00000
    105       6.1687      0.00000
    106       6.2075      0.00000
    107       6.3268      0.00000
    108       6.4325      0.00000
    109       6.4866      0.00000
    110       6.5237      0.00000
    111       6.5400      0.00000
    112       6.6569      0.00000
    113       6.7821      0.00000
    114       6.8897      0.00000
    115       6.9211      0.00000
    116       7.1836      0.00000

 soft charge-density along one line, spin component           1
         0         1         2         3         4         5         6         7         8         9
 total charge-density along one line

 soft charge-density along one line, spin component           2
         0         1         2         3         4         5         6         7         8         9
 total charge-density along one line

------------------------ aborting loop because EDIFF is reached ----------------------------------------

  FORCE on cell =-STRESS in cart. coord.  units (eV):
  Direction    XX          YY          ZZ          XY          YZ          ZX
  Alpha Z   248.95637   248.95637   248.95637
  Ewald   -1991.70845 -1510.67558 -1688.24547    -9.70914    -0.00000    -0.00000
  Hartree    70.05957   283.41150   147.10680    -2.12543     0.00002    -0.00056
  E(xc)    -638.67391  -639.62024  -637.37444    -0.02264     0.00010     0.00041
  Local    -385.37144 -1078.04235  -754.15071    11.38901     0.00190     0.00489
  n-local  1410.61802  1432.77876  1418.38380    -0.35616    -0.01716    -0.07486
  augment  -111.52761  -112.28323  -110.80611    -0.03830     0.00014    -0.00008
  Kinetic  1436.87730  1414.92748  1391.72884     0.66041     0.00185     0.00084
  Fock        0.00000     0.00000     0.00000     0.00000     0.00000     0.00000
  Total      39.22985    39.45271    15.59908    -0.20225    -0.01314    -0.06936
  in kB      60.42415    60.76740    24.02663    -0.31151    -0.02024    -0.10684

 VOLUME and BASIS-vectors are now :
  energy-cutoff  :      700.00
  volume of cell :     1040.20
      direct lattice vectors                 reciprocal lattice vectors
     5.480000000  0.000000000  0.000000000     0.182481752  0.129034084  0.000000000
    -5.480000000  7.749890322  0.000000000     0.000000000  0.129034084  0.000000000
     0.000000000  0.000000000 24.492923856     0.000000000  0.000000000  0.040828119

  length of vectors
     5.480000000  9.491638426 24.492923856     0.223493590  0.129034084  0.040828119

 FORCES acting on ions
    electron-ion (+dipol)            ewald-force                    non-local-force                 convergence-correction
   0.302E+02 -.212E+01 0.299E+01   -.278E+02 0.188E+01 -.285E+01   -.243E+01 -.308E+00 0.276E+00   -.669E-05 -.152E-05 -.109E-03
   0.258E+01 0.115E+00 0.224E+02   -.250E+01 -.328E-01 -.228E+02   -.225E+00 0.209E-02 0.260E+00   -.118E-04 -.427E-05 0.565E-04
   -.322E+00 -.161E-01 0.674E+01   0.250E+00 -.729E-03 -.669E+01   -.459E-01 0.269E-01 -.109E+00   0.521E-05 0.895E-06 0.233E-04
   -.320E+00 -.160E-01 -.673E+01   0.250E+00 -.729E-03 0.669E+01   -.479E-01 0.240E-01 0.103E+00   0.656E-05 -.406E-06 -.226E-04
   0.233E+01 0.829E-01 -.227E+02   -.250E+01 -.328E-01 0.228E+02   -.309E+00 0.345E-01 -.340E+00   -.117E-04 0.544E-05 -.624E-04
   0.302E+02 -.212E+01 -.300E+01   -.278E+02 0.188E+01 0.285E+01   -.242E+01 -.306E+00 -.266E+00   -.717E-05 -.738E-05 0.108E-03
   -.286E+02 0.226E+01 0.184E+02   0.266E+02 -.187E+01 -.179E+02   0.211E+01 0.158E+00 -.799E+00   0.163E-04 0.107E-04 -.531E-05
   0.232E+01 0.791E-01 0.227E+02   -.250E+01 -.328E-01 -.228E+02   -.306E+00 0.357E-01 0.348E+00   -.129E-04 0.478E-05 0.645E-04
   -.309E+00 -.298E-01 0.672E+01   0.250E+00 -.729E-03 -.669E+01   -.498E-01 0.342E-01 -.967E-01   0.865E-05 -.751E-06 0.274E-04
   -.312E+00 -.298E-01 -.672E+01   0.250E+00 -.729E-03 0.669E+01   -.458E-01 0.376E-01 0.969E-01   0.734E-05 0.757E-06 -.259E-04
   0.258E+01 0.112E+00 -.224E+02   -.250E+01 -.328E-01 0.228E+02   -.223E+00 0.211E-02 -.266E+00   -.125E-04 -.500E-05 -.566E-04
   -.286E+02 0.226E+01 -.184E+02   0.266E+02 -.187E+01 0.179E+02   0.211E+01 0.158E+00 0.809E+00   0.156E-04 0.629E-05 0.751E-05
   -.220E+02 -.105E+01 0.712E+01   0.203E+02 0.102E+01 -.741E+01   0.234E+01 0.382E+00 0.198E+00   0.435E-05 0.129E-04 -.103E-03
   -.910E+00 0.680E-01 0.244E+02   0.186E+01 -.132E-01 -.235E+02   -.398E+00 0.634E-01 -.637E+00   0.178E-04 -.361E-05 0.729E-04
   0.327E+00 -.313E-01 0.664E+01   -.186E+00 -.303E-03 -.661E+01   -.846E-01 0.434E-01 -.249E-01   -.681E-05 0.227E-06 0.247E-04
   0.321E+00 -.282E-01 -.664E+01   -.186E+00 -.303E-03 0.661E+01   -.817E-01 0.392E-01 0.285E-01   -.560E-05 -.744E-06 -.228E-04
   -.120E+01 0.770E-02 -.240E+02   0.186E+01 -.132E-01 0.235E+02   -.416E+00 0.119E+00 0.654E+00   0.947E-05 0.144E-05 -.517E-04
   -.220E+02 -.105E+01 -.712E+01   0.203E+02 0.102E+01 0.741E+01   0.235E+01 0.385E+00 -.195E+00   0.434E-05 0.595E-05 0.104E-03
   0.202E+02 0.115E+01 0.142E+02   -.191E+02 -.102E+01 -.133E+02   -.196E+01 -.469E+00 -.720E+00   -.195E-04 -.192E-04 -.995E-05
   -.120E+01 0.690E-02 0.240E+02   0.186E+01 -.132E-01 -.235E+02   -.423E+00 0.120E+00 -.648E+00   0.104E-04 0.328E-05 0.524E-04
   0.302E+00 -.192E-01 0.662E+01   -.186E+00 -.303E-03 -.661E+01   -.684E-01 0.295E-01 -.183E-01   -.749E-05 -.714E-06 0.257E-04
   0.308E+00 -.220E-01 -.662E+01   -.186E+00 -.303E-03 0.661E+01   -.728E-01 0.330E-01 0.101E-01   -.793E-05 0.325E-08 -.250E-04
   -.904E+00 0.672E-01 -.244E+02   0.186E+01 -.132E-01 0.235E+02   -.404E+00 0.644E-01 0.631E+00   0.188E-04 -.172E-05 -.726E-04
   0.202E+02 0.115E+01 -.142E+02   -.191E+02 -.102E+01 0.133E+02   -.196E+01 -.467E+00 0.724E+00   -.196E-04 -.218E-04 0.918E-05
   0.286E+02 -.128E+01 -.276E+01   -.278E+02 0.188E+01 0.285E+01   -.134E+01 0.661E-03 -.929E-02   -.538E-05 0.743E-05 0.114E-03
   -.976E-01 -.763E-01 0.907E+01   -.194E+00 0.290E-01 -.976E+01   -.349E+00 -.364E-01 0.155E+00   -.104E-04 -.609E-05 0.862E-04
   0.273E+01 0.288E-04 0.249E+01   -.265E+01 0.566E-03 -.248E+01   -.436E+00 -.102E-01 -.587E-01   0.108E-04 0.417E-05 0.374E-04
   0.273E+01 0.992E-03 -.248E+01   -.265E+01 0.566E-03 0.248E+01   -.439E+00 -.963E-02 0.427E-01   0.936E-05 0.159E-04 -.438E-04
   0.123E+00 -.615E-01 -.941E+01   -.194E+00 0.290E-01 0.976E+01   -.258E+00 -.519E-01 -.237E+00   -.141E-04 -.186E-06 -.971E-04
   0.286E+02 -.128E+01 0.276E+01   -.278E+02 0.188E+01 -.285E+01   -.133E+01 0.713E-03 0.109E-01   -.603E-05 0.178E-05 -.115E-03
   -.271E+02 0.134E+01 -.184E+02   0.266E+02 -.187E+01 0.179E+02   0.114E+01 -.547E-01 0.306E+00   0.151E-04 -.206E-05 0.780E-05
   0.124E+00 -.571E-01 0.940E+01   -.194E+00 0.290E-01 -.976E+01   -.268E+00 -.624E-01 0.253E+00   -.119E-04 0.679E-05 0.949E-04
   0.272E+01 0.122E-01 0.248E+01   -.265E+01 0.566E-03 -.248E+01   -.435E+00 -.146E-01 -.563E-01   0.577E-05 -.456E-05 0.447E-04
   0.272E+01 0.111E-01 -.248E+01   -.265E+01 0.566E-03 0.248E+01   -.438E+00 -.187E-01 0.383E-01   0.788E-05 -.161E-04 -.384E-04
   -.960E-01 -.726E-01 -.906E+01   -.194E+00 0.290E-01 0.976E+01   -.341E+00 -.277E-01 -.146E+00   -.926E-05 0.934E-06 -.847E-04
   -.271E+02 0.134E+01 0.184E+02   0.266E+02 -.187E+01 -.179E+02   0.114E+01 -.515E-01 -.306E+00   0.168E-04 -.624E-05 -.105E-04
   -.207E+02 -.156E+01 -.685E+01   0.203E+02 0.102E+01 0.741E+01   0.142E+01 -.716E-01 0.253E+00   0.691E-05 -.120E-05 0.130E-03
   -.125E+01 -.426E-01 0.106E+02   0.785E+00 0.117E-01 -.104E+02   0.679E+00 -.834E-01 -.307E+00   0.389E-05 -.797E-05 0.983E-04
   -.271E+01 0.402E-01 0.240E+01   0.259E+01 0.235E-03 -.242E+01   0.536E+00 -.358E-01 0.941E-02   -.814E-05 -.122E-04 0.418E-04
   -.270E+01 0.373E-01 -.241E+01   0.259E+01 0.235E-03 0.242E+01   0.529E+00 -.267E-01 -.105E-01   -.936E-05 0.171E-05 -.402E-04
   -.998E+00 0.393E-02 -.103E+02   0.785E+00 0.117E-01 0.104E+02   0.725E+00 -.111E+00 0.368E+00   0.641E-05 0.156E-04 -.864E-04
   -.207E+02 -.156E+01 0.686E+01   0.203E+02 0.102E+01 -.741E+01   0.142E+01 -.602E-01 -.253E+00   0.874E-05 -.785E-05 -.134E-03
   0.192E+02 0.166E+01 -.143E+02   -.191E+02 -.102E+01 0.133E+02   -.121E+01 -.160E-01 0.539E-01   -.173E-04 0.169E-04 0.202E-05
   -.100E+01 0.244E-02 0.103E+02   0.785E+00 0.117E-01 -.104E+02   0.720E+00 -.128E+00 -.349E+00   0.507E-05 0.732E-05 0.829E-04
   -.268E+01 0.259E-01 0.239E+01   0.259E+01 0.235E-03 -.242E+01   0.517E+00 -.202E-01 0.187E-01   -.249E-05 0.122E-04 0.334E-04
   -.269E+01 0.288E-01 -.239E+01   0.259E+01 0.235E-03 0.242E+01   0.520E+00 -.185E-01 -.262E-01   -.160E-05 -.187E-05 -.349E-04
   -.125E+01 -.441E-01 -.106E+02   0.785E+00 0.117E-01 0.104E+02   0.695E+00 -.653E-01 0.315E+00   0.260E-05 -.162E-04 -.961E-04
   0.192E+02 0.166E+01 0.143E+02   -.191E+02 -.102E+01 -.133E+02   -.121E+01 -.171E-01 -.490E-01   -.173E-04 0.138E-04 -.135E-05
   0.958E+00 0.944E+00 -.102E-01   -.249E-13 0.258E-13 -.870E-13   -.107E+01 -.749E+00 0.351E-01   -.189E-04 0.744E-05 -.187E-06

 POSITION                                       TOTAL-FORCE (eV/Angst)
     -1.71223      6.22465     22.09292         0.030716     -0.557344      0.421824
     -2.74000      5.81242      1.93747        -0.144623      0.079825     -0.144778
      0.00000      3.87495      3.87495        -0.115729      0.006021     -0.063655
      2.74000      1.93747      5.81242        -0.115707      0.003259      0.063830
      0.00000      0.00000      7.74989        -0.485184      0.080520     -0.325662
      1.02777      4.28717     12.08736         0.030964     -0.553283     -0.421229
      0.00000      3.87495      0.00000         0.127129      0.540847     -0.307755
      2.74000      1.93747      1.93747        -0.485209      0.077972      0.327810
      0.00000      0.00000      3.87495        -0.106732     -0.000418     -0.072139
     -2.74000      5.81242      5.81242        -0.105571      0.003052      0.064677
      0.00000      3.87495      7.74989        -0.145226      0.077382      0.143910
      2.74000      1.93747      9.68736         0.125759      0.542420      0.308480
     -0.34223      4.28717     22.09292         0.641369      0.349931     -0.097059
      1.37000      0.00000      1.93747         0.558472      0.114125      0.339398
     -1.37000      5.81242      3.87495         0.059152      0.007768     -0.003520
      1.37000      3.87495      5.81242         0.056079      0.006642     -0.000032
     -1.37000      1.93747      7.74989         0.247120      0.109209      0.103580
      2.39777      2.34970     12.08736         0.643282      0.347953      0.094290
     -1.37000      5.81242      0.00000        -0.786139     -0.338931      0.214687
      1.37000      3.87495      1.93747         0.246242      0.109237     -0.100709
     -1.37000      1.93747      3.87495         0.050057      0.005947     -0.009428
      1.37000      0.00000      5.81242         0.051890      0.006565      0.005789
     -1.37000      5.81242      7.74989         0.558137      0.114243     -0.341836
      1.37000      3.87495      9.68736        -0.784380     -0.342791     -0.218562
      1.02777      0.41223     12.08736        -0.534666      0.592935      0.074710
      3.76777      2.34970     14.08848        -0.638552     -0.087772     -0.540447
      1.02777      4.28717     16.08959        -0.353360     -0.013684     -0.056543
     -1.71223      6.22465     18.09070        -0.354912     -0.012117      0.045608
      1.02777      0.41223     20.09181        -0.326111     -0.088421      0.115012
      3.76777      2.34970     22.09292        -0.531346      0.595891     -0.070558
     -2.74000      5.81242      9.68736         0.665429     -0.592518     -0.161506
     -1.71223      6.22465     14.08848        -0.335709     -0.094563     -0.103581
      1.02777      0.41223     16.08959        -0.356626     -0.005827     -0.064800
      3.76777      2.34970     18.09070        -0.360161     -0.011074      0.040304
      1.02777      4.28717     20.09181        -0.628201     -0.075304      0.553046
      0.00000      0.00000      0.00000         0.663007     -0.587812      0.165470
     -3.08223      6.22465     12.08736         0.970121     -0.617727      0.812506
      5.13777      0.41223     14.08848         0.218137     -0.118311     -0.064373
      2.39777      2.34970     16.08959         0.421118      0.000602     -0.003662
     -0.34223      4.28717     18.09070         0.422474      0.006815     -0.004920
     -3.08223      6.22465     20.09181         0.514601     -0.099121      0.489062
      5.13777      0.41223     22.09292         0.974500     -0.609684     -0.810652
      1.37000      0.00000      9.68736        -1.085345      0.621765     -0.911484
     -0.34223      4.28717     14.08848         0.504582     -0.117396     -0.473639
     -3.08223      6.22465     16.08959         0.428778      0.001974     -0.005888
      5.13777      0.41223     18.09070         0.423445      0.006484      0.002139
      2.39777      2.34970     20.09181         0.229422     -0.101808      0.073372
     -1.37000      1.93747      0.00000        -1.082494      0.616521      0.918915
    total drift:                               -0.114723      0.194683      0.024924

  FREE ENERGIE OF THE ION-ELECTRON SYSTEM (eV)
  free  energy   TOTEN  =      -230.19994791 eV

  energy  without entropy=     -230.19971049  energy(sigma->0) =     -230.19982920