 vasp.6.4.3 19Mar24 (build Oct 22 2024 11:23:12) complex

 executed on             LinuxIFC date 2025.04.30  06:37:52

 INCAR:
   SYSTEM = Si123 and Ge123 interface calculation
   ISTART = 0
   ICHARG = 2
   LWAVE = .FALSE.
   LREAL = AUTO
   ENCUT = 700
   ENAUG = 900
   ADDGRID = .TRUE.
   LMAXMIX = 6
   LASPH = .TRUE.
   LMIXTAU = .TRUE.
   NCORE = 16
   NELM = 100
   NBANDS = 116
   EDIFF = 1d-7
   AMIX = 0.6
   ISMEAR = 0
   SIGMA = 0.01
   NELECT = 192
   ISPIN = 2
   NUPDOWN = 1
   LVTOT = .FALSE.
   LVHAR = .TRUE.

 POTCAR:    PAW_PBE Si 05Jan2001
 POTCAR:    PAW_PBE Ge 05Jan2001
|           W    W    AA    RRRRR   N    N  II  N    N   GGGG   !!!           |
|           W    W   A  A   R    R  NN   N  II  NN   N  G    G  !!!           |
|           W    W  A    A  R    R  N N  N  II  N N  N  G       !!!           |
|           W WW W  AAAAAA  RRRRR   N  N N  II  N  N N  G  GGG   !            |
|           WW  WW  A    A  R   R   N   NN  II  N   NN  G    G                |
|           W    W  A    A  R    R  N    N  II  N    N   GGGG   !!!           |
|     You use a magnetic or noncollinear calculation, but did not specify     |
|     the initial magnetic moment with the MAGMOM tag. Note that a            |
|     default of 0.021 will be used for all atoms. This ferromagnetic         |
|     setup may break the symmetry of the crystal, in particular it may       |
|     rule out finding an antiferromagnetic solution. Thence, we              |
|     recommend setting the initial magnetic moment manually or verifying     |
|     carefully that this magnetic setup is desired.                          |

 POTCAR:    PAW_PBE Si 05Jan2001
   VRHFIN =Si: s2p2

   TITEL  = PAW_PBE Si 05Jan2001
   POMASS =   28.085; ZVAL   =    4.000    mass and valenz
   ENMAX  =  245.345; ENMIN  =  184.009 eV

 POTCAR:    PAW_PBE Ge 05Jan2001
   VRHFIN =Ge: s2p2

   TITEL  = PAW_PBE Ge 05Jan2001
   POMASS =   72.610; ZVAL   =    4.000    mass and valenz
   ENMAX  =  173.807; ENMIN  =  130.355 eV

 Optimization of the real space projectors (new method)

 maximal supplied QI-value         = 19.84
 optimisation between [QCUT,QGAM] = [ 13.49, 26.99] = [ 50.98,203.92] Ry
 Optimized for a Real-space Cutoff    1.07 Angstroem

   l    n(q)    QCUT    max X(q) W(low)/X(q) W(high)/X(q)  e(spline)
   0      9    13.493   159.560    0.22E-03    0.15E-03    0.72E-07
   0      9    13.493   115.863    0.21E-03    0.15E-03    0.71E-07
   1      8    13.493    88.339    0.15E-03    0.11E-03    0.13E-06
   1      8    13.493    48.592    0.15E-03    0.10E-03    0.13E-06
 Optimization of the real space projectors (new method)

 maximal supplied QI-value         = 16.25
 optimisation between [QCUT,QGAM] = [ 13.49, 26.98] = [ 50.95,203.80] Ry
 Optimized for a Real-space Cutoff    1.25 Angstroem

   l    n(q)    QCUT    max X(q) W(low)/X(q) W(high)/X(q)  e(spline)
   0     10    13.489    65.336    0.91E-04    0.11E-03    0.34E-06
   0     10    13.489    52.220    0.89E-04    0.11E-03    0.34E-06
   1     10    13.489    36.409    0.22E-03    0.27E-03    0.14E-06
   1     10    13.489    21.334    0.21E-03    0.27E-03    0.14E-06
   2      9    13.489     4.673    0.11E-03    0.12E-03    0.19E-06
  PAW_PBE Si 05Jan2001                  :
  PAW_PBE Ge 05Jan2001                  :

 POSCAR: fcc Si+fcc Ge
  positions in direct lattice

 exchange-correlation table for PE
   RHO(1)=    0.500       N(1)  =     2000
   RHO(2)=  100.500       N(2)  =     4000

 ion  position               nearest neighbor table
   1  0.000  0.000  0.000-  20 2.37  19 2.37  15 2.37  41 2.54  27 2.61  46 2.81  36 2.81
   2  0.429  0.607  0.091-  20 2.37  16 2.37  21 2.37  36 2.48
   3  0.857  0.214  0.182-  17 2.37  22 2.37  21 2.37  30 2.40  25 2.54
   4  0.286  0.821  0.273-  18 2.37  13 2.37  22 2.37  23 2.37  43 2.78  48 2.80
   5  0.714  0.429  0.364-  24 2.37  23 2.37  14 2.37  37 2.53
   6  0.143  0.036  0.455-  24 2.37  15 2.37  27 2.43  32 2.49  31 2.81  46 2.87
   7  0.000  0.500  0.000-  14 2.37  13 2.37  21 2.37  47 2.54  33 2.61  40 2.81  30 2.81
   8  0.429  0.107  0.091-  14 2.37  22 2.37  15 2.37  30 2.48
   9  0.857  0.714  0.182-  23 2.37  16 2.37  15 2.37  36 2.40  31 2.54
  10  0.286  0.321  0.273-  24 2.37  19 2.37  16 2.37  17 2.37  37 2.78  42 2.80
  11  0.714  0.929  0.364-  18 2.37  17 2.37  20 2.37  43 2.53
  12  0.143  0.536  0.455-  18 2.37  21 2.37  33 2.43  26 2.49  25 2.81  40 2.87
  13  0.250  0.750  0.000-  48 1.98   4 2.37   7 2.37  29 2.54  47 2.57  34 2.81  40 2.83
  14  0.679  0.357  0.091-   7 2.37   8 2.37   5 2.37  47 2.65
  15  0.107  0.964  0.182-   9 2.37   1 2.37   6 2.37   8 2.37
  16  0.536  0.571  0.273-   9 2.37  10 2.37   2 2.37  31 2.78  37 2.80  36 2.80  42 2.83
  17  0.964  0.179  0.364-   3 2.37  11 2.37  10 2.37  25 2.53  43 2.56  44 2.65
  18  0.393  0.786  0.455-  43 1.98   4 2.37  11 2.37  12 2.37  34 2.87  40 2.89
  19  0.250  0.250  0.000-  42 1.98  10 2.37   1 2.37  35 2.54  41 2.57  28 2.81  46 2.83
  20  0.679  0.857  0.091-   1 2.37   2 2.37  11 2.37  41 2.65
  21  0.107  0.464  0.182-   3 2.37   7 2.37  12 2.37   2 2.37
  22  0.536  0.071  0.273-   3 2.37   4 2.37   8 2.37  25 2.78  43 2.80  30 2.80  48 2.83
  23  0.964  0.679  0.364-   9 2.37   5 2.37   4 2.37  31 2.53  37 2.56  38 2.65
  24  0.393  0.286  0.455-  37 1.98  10 2.37   5 2.37   6 2.37  28 2.87  46 2.89
  25  0.861  0.244  0.493-  43 2.37  44 2.38  39 2.40  17 2.53   3 2.54  22 2.78  12 2.81
  26  0.432  0.637  0.587-  44 2.37  45 2.38  40 2.40  12 2.49
  27  0.004  0.030  0.681-  45 2.37  46 2.38  41 2.40   6 2.43   1 2.61
  28  0.575  0.423  0.775-  46 2.37  47 2.38  42 2.40  37 2.44  19 2.81  24 2.87
  29  0.146  0.816  0.869-  47 2.37  48 2.38  38 2.44  13 2.54
  30  0.718  0.208  0.963-  48 2.37   3 2.40  39 2.44   8 2.48  22 2.80   7 2.81
  31  0.861  0.744  0.493-  37 2.37  38 2.38  45 2.40  23 2.53   9 2.54  16 2.78   6 2.81
  32  0.432  0.137  0.587-  38 2.37  39 2.38  46 2.40   6 2.49
  33  0.004  0.530  0.681-  39 2.37  40 2.38  47 2.40  12 2.43   7 2.61
  34  0.575  0.923  0.775-  40 2.37  41 2.38  48 2.40  43 2.44  13 2.81  18 2.87
  35  0.146  0.316  0.869-  41 2.37  42 2.38  44 2.44  19 2.54
  36  0.718  0.708  0.963-  42 2.37   9 2.40  45 2.44   2 2.48  16 2.80   1 2.81
  37  0.611  0.494  0.493-  24 1.98  31 2.37  28 2.44   5 2.53  23 2.56  10 2.78  16 2.80
  38  0.182  0.887  0.587-  32 2.37  31 2.38  29 2.44  23 2.65
  39  0.754  0.280  0.681-  33 2.37  32 2.38  25 2.40  30 2.44
  40  0.325  0.673  0.775-  34 2.37  33 2.38  26 2.40   7 2.81  13 2.83  12 2.87  18 2.89
  41  0.896  0.066  0.869-  35 2.37  34 2.38  27 2.40   1 2.54  19 2.57  20 2.65
  42  0.468  0.458  0.963-  19 1.98  36 2.37  35 2.38  28 2.40  10 2.80  16 2.83
  43  0.611  0.994  0.493-  18 1.98  25 2.37  34 2.44  11 2.53  17 2.56   4 2.78  22 2.80
  44  0.182  0.387  0.587-  26 2.37  25 2.38  35 2.44  17 2.65
  45  0.754  0.780  0.681-  27 2.37  26 2.38  31 2.40  36 2.44
  46  0.325  0.173  0.775-  28 2.37  27 2.38  32 2.40   1 2.81  19 2.83   6 2.87  24 2.89
  47  0.896  0.566  0.869-  29 2.37  28 2.38  33 2.40   7 2.54  13 2.57  14 2.65
  48  0.468  0.958  0.963-  13 1.98  30 2.37  29 2.38  34 2.40   4 2.80  22 2.83

  LATTYP: Found a simple monoclinic cell.
 ALAT       =     9.4916384256
 B/A-ratio  =     0.8474011784
 C/A-ratio  =     1.2909944488
 COS(beta)  =    -0.2581988897

  Lattice vectors:

 A1 = (  -2.4507305030,   9.1697938910,   0.0000000000)
 A2 = (   0.0000000000,   0.0000000000,   8.0432255870)
 A3 = (  12.2536525170,   0.0000000000,   0.0000000000)

Analysis of symmetry for initial positions (statically):
 Subroutine PRICEL returns following result:

  Warning from LATTYP: Monoclinic adjustment (A1->A3, A2->A1, A3->A2)!
  Warning from LATTYP: Got some problem with cell dimensions!
  Tried to take original basis but could not verify dimensions!
  LATTYP: Found a simple monoclinic cell.
 ALAT       =     6.7116018955
 B/A-ratio  =     1.1984062393
 C/A-ratio  =     1.2909944487
 COS(beta)  =    -0.2581988898

[...]

   2 primitive cells build up your supercell.

 Routine SETGRP: Setting up the symmetry group for a
 simple monoclinic supercell.

 Subroutine GETGRP returns: Found  1 space group operations
 (whereof  1 operations were pure point group operations)
 out of a pool of  4 trial point group operations.

The static configuration has the point symmetry C_1 .

Analysis of symmetry for dynamics (positions and initial velocities):
 Subroutine PRICEL returns following result:

[...]

The dynamic configuration has the point symmetry C_1 .

Analysis of structural, dynamic, and magnetic symmetry:
 Subroutine PRICEL returns following result:

  Warning from LATTYP: Monoclinic adjustment (A1->A3, A2->A1, A3->A2)!
  Warning from LATTYP: Got some problem with cell dimensions!
  Tried to take original basis but could not verify dimensions!
  LATTYP: Found a simple monoclinic cell.
 ALAT       =     6.7116018955
 B/A-ratio  =     1.1984062393
 C/A-ratio  =     1.2909944487
 COS(beta)  =    -0.2581988898

  Lattice vectors:

 A1 = (   4.9014610070,   4.5848969455,   0.0000000000)
 A2 = (   0.0000000000,   0.0000000000,  -8.0432255870)
 A3 = (  -7.3521915100,   4.5848969455,   0.0000000000)

   2 primitive cells build up your supercell.

 Routine SETGRP: Setting up the symmetry group for a
 simple monoclinic supercell.

 Subroutine GETGRP returns: Found  1 space group operations
 (whereof  1 operations were pure point group operations)
 out of a pool of  4 trial point group operations.

The overall configuration has the point symmetry C_1 .

 Subroutine INISYM returns: Found  1 space group operations
 (whereof  1 operations are pure point group operations),
 and found     2 'primitive' translations

                                     Primitive cell

  volume of cell :     451.8824

  direct lattice vectors                    reciprocal lattice vectors
     4.901461007  4.584896945  0.000000000     0.081608320  0.130864446  0.000000000
     0.000000000  0.000000000 -8.043225587     0.000000000  0.000000000 -0.124328230
    -7.352191510  4.584896945  0.000000000    -0.081608320  0.087242964  0.000000000

  length of vectors
     6.711601896  8.043225587  8.664640789     0.154225229  0.124328230  0.119462349

  position of ions in fractional coordinates (direct lattice)
     0.000000000  0.000000000  0.000000000
     0.428571429  0.908954959  0.785714285
     0.857142857  0.817909918  0.571428571
     0.285714286  0.726864877  0.357142856
     0.714285714  0.635819836  0.142857144
     0.142857143  0.544774795  0.928571429
     0.250000000  0.000000000  0.250000000
     0.678571429  0.908954959  0.035714285
     0.107142857  0.817909918  0.821428571
     0.535714286  0.726864877  0.607142856
     0.964285714  0.635819836  0.392857144
     0.392857143  0.544774795  0.178571429
     0.860655738  0.507476326  0.627716356
     0.432084309  0.413440755  0.842002069
     0.003512881  0.319405183  0.056287783
     0.574941452  0.225369612  0.270573498
     0.146370023  0.131334040  0.484859213
     0.717798595  0.037298469  0.699144927
     0.610655738  0.507476326  0.377716356
     0.182084309  0.413440755  0.592002069
[...]
     42      -0.0496      1.00000
     43       0.1573      1.00000
     44       0.2557      1.00000
     45       0.6769      1.00000
     46       0.7186      1.00000
     47       0.8037      1.00000
     48       0.8276      1.00000
     49       1.0354      1.00000
     50       1.0627      1.00000
     51       1.1621      1.00000
     52       1.2368      1.00000
     53       1.3068      1.00000
     54       1.4045      1.00000
     55       1.6070      1.00000
     56       1.6370      1.00000
     57       1.8009      1.00000
     58       1.8447      1.00000
     59       1.8794      1.00000
     60       1.9281      1.00000
[...]
    102       6.6008      0.00000
    103       6.7048      0.00000
    104       6.8731      0.00000
    105       6.9033      0.00000
    106       6.9969      0.00000
    107       7.0800      0.00000
    108       7.1440      0.00000
    109       7.1684      0.00000
    110       7.2599      0.00000
    111       7.5270      0.00000
    112       7.6010      0.00000
    113       7.6336      0.00000
    114       7.6910      0.00000
    115       7.9336      0.00000
    116       8.0194      0.00000
 Fermi energy:         5.9411861664

 spin component 2

[...]

 k-point    31 :      -0.2000    0.3333    0.5000
  band No.  band energies     occupation
      1      -7.8287      1.00000
      2      -7.5823      1.00000
      3      -7.5171      1.00000
      4      -7.4162      1.00000
      5      -6.4519      1.00000
      6      -6.4433      1.00000
      7      -6.1760      1.00000
      8      -6.0421      1.00000
      9      -5.7172      1.00000
     10      -5.6494      1.00000
     11      -5.5198      1.00000
     12      -5.1702      1.00000
     13      -5.1385      1.00000
     14      -4.6560      1.00000
     15      -4.3220      1.00000
     16      -3.9341      1.00000
     17      -3.9038      1.00000
     18      -3.7548      1.00000
     19      -3.6038      1.00000
     20      -3.5552      1.00000
     21      -3.3289      1.00000
     22      -3.1853      1.00000
     23      -2.7830      1.00000
     24      -2.7785      1.00000
     25      -2.5889      1.00000
     26      -2.5604      1.00000
     27      -2.0915      1.00000
     28      -2.0193      1.00000
     29      -1.8109      1.00000
     30      -1.7247      1.00000
     31      -1.6248      1.00000
     32      -1.5000      1.00000
     33      -1.2860      1.00000
     34      -1.2008      1.00000
     35      -1.1640      1.00000
     36      -1.0733      1.00000
     37      -0.7702      1.00000
     38      -0.7606      1.00000
     39      -0.4531      1.00000
     40      -0.3254      1.00000
     41      -0.1232      1.00000
     42      -0.0289      1.00000
     43       0.1766      1.00000
     44       0.2764      1.00000
     45       0.6982      1.00000
     46       0.7395      1.00000
     47       0.8270      1.00000
     48       0.8503      1.00000
     49       1.0557      1.00000
     50       1.0854      1.00000
     51       1.1821      1.00000
     52       1.2577      1.00000
     53       1.3269      1.00000
     54       1.4258      1.00000
     55       1.6288      1.00000
     56       1.6579      1.00000
     57       1.8207      1.00000
     58       1.8664      1.00000
     59       1.9006      1.00000
     60       1.9486      1.00000
[...]
    102       6.6259      0.00000
    103       6.7284      0.00000
    104       6.8991      0.00000
    105       6.9280      0.00000
    106       7.0208      0.00000
    107       7.1040      0.00000
    108       7.1680      0.00000
    109       7.1920      0.00000
    110       7.2829      0.00000
    111       7.5494      0.00000
    112       7.6240      0.00000
    113       7.6569      0.00000
    114       7.7132      0.00000
    115       7.9578      0.00000
    116       8.0433      0.00000

 soft charge-density along one line, spin component           1
         0         1         2         3         4         5         6         7         8         9
 total charge-density along one line

 soft charge-density along one line, spin component           2
         0         1         2         3         4         5         6         7         8         9
 total charge-density along one line

------------------------ aborting loop because EDIFF is reached ----------------------------------------

  FORCE on cell =-STRESS in cart. coord.  units (eV):
  Direction    XX          YY          ZZ          XY          YZ          ZX
  Alpha Z   286.53957   286.53957   286.53957
  Ewald   -1994.07617 -1433.19380 -2067.36306   -24.22103    10.94739     0.89339
  Hartree    71.07212   249.32441    94.19107    -2.53226     1.39885     0.51976
  E(xc)    -645.04395  -648.66268  -641.79666     0.49802    -0.34844    -0.10475
  Local    -425.03066 -1131.86757  -374.86094    23.02839    -7.58517    -2.21572
  n-local  1446.13874  1500.99642  1410.97589    -6.28774     0.84179     0.72624
  augment  -116.47153  -116.88203  -115.26280     0.08723     0.19150     0.03551
  Kinetic  1451.30734  1426.44651  1479.64026    -2.30384    -1.64517     0.00659
  Fock        0.00000     0.00000     0.00000     0.00000     0.00000     0.00000
  Total      74.43546   132.70084    72.06331   -11.73123     3.80076    -0.13899
  in kB     131.95780   235.24958   127.75251   -20.79691     6.73792    -0.24640

 VOLUME and BASIS-vectors are now :
  energy-cutoff  :      700.00
  volume of cell :      903.76
      direct lattice vectors                 reciprocal lattice vectors
    12.253652517  0.000000000  0.000000000     0.081608320  0.130864446  0.000000000
   -14.704383020  9.169793891  0.000000000     0.000000000  0.109053705  0.000000000
     0.000000000  0.000000000  8.043225587     0.000000000  0.000000000  0.124328230

  length of vectors
    12.253652517 17.329281578  8.043225587     0.154225229  0.109053705  0.124328230

 FORCES acting on ions
    electron-ion (+dipol)            ewald-force                    non-local-force                 convergence-correction
   -.174E+02 0.779E+01 -.131E+02   0.172E+02 -.870E+01 0.153E+02   0.106E+01 0.473E+00 -.120E+01   -.505E-04 0.643E-04 0.713E-05
   0.208E+02 0.758E+01 0.105E+02   -.210E+02 -.709E+01 -.961E+01   -.359E+00 -.392E+00 -.813E+00   0.138E-03 -.124E-03 0.550E-04
   -.243E+02 -.480E+01 0.292E+02   0.241E+02 0.518E+01 -.279E+02   0.894E+00 0.296E+00 -.154E+01   0.133E-03 -.151E-03 0.768E-04
   0.628E+01 0.165E+02 -.728E+01   -.615E+01 -.180E+02 0.691E+01   -.396E+00 0.101E+01 0.307E+00   -.653E-04 0.719E-04 0.238E-04
   -.390E+02 0.672E+01 0.158E+01   0.404E+02 -.747E+01 -.165E+01   -.216E+00 0.517E+00 -.883E-01   -.130E-03 0.121E-03 0.414E-04
   0.900E+01 0.127E+02 0.171E+02   -.913E+01 -.119E+02 -.179E+02   0.543E+00 -.493E+00 -.624E+00   -.835E-05 -.222E-04 0.142E-04
   -.174E+02 0.779E+01 -.131E+02   0.172E+02 -.870E+01 0.153E+02   0.106E+01 0.473E+00 -.120E+01   -.742E-04 0.577E-04 0.755E-05
   0.208E+02 0.758E+01 0.105E+02   -.210E+02 -.709E+01 -.961E+01   -.359E+00 -.392E+00 -.813E+00   0.988E-04 -.137E-03 0.563E-04
   -.243E+02 -.480E+01 0.292E+02   0.241E+02 0.518E+01 -.279E+02   0.894E+00 0.296E+00 -.154E+01   0.124E-03 -.145E-03 0.822E-04
   0.628E+01 0.165E+02 -.728E+01   -.615E+01 -.180E+02 0.691E+01   -.396E+00 0.101E+01 0.307E+00   -.327E-04 0.771E-04 0.212E-04
   -.390E+02 0.672E+01 0.158E+01   0.404E+02 -.747E+01 -.165E+01   -.216E+00 0.517E+00 -.883E-01   -.967E-04 0.133E-03 0.380E-04
   0.900E+01 0.127E+02 0.171E+02   -.913E+01 -.119E+02 -.179E+02   0.543E+00 -.493E+00 -.624E+00   -.160E-04 -.202E-04 0.124E-04
   -.203E+02 0.199E+02 -.132E+02   0.199E+02 -.194E+02 0.153E+02   0.260E+01 -.784E+01 0.133E+00   -.154E-03 0.191E-03 0.843E-04
   0.190E+02 0.710E+01 -.597E+01   -.175E+02 -.742E+01 0.757E+01   -.191E+01 0.445E+00 -.117E+01   -.144E-03 0.703E-04 0.579E-04
   -.206E+01 -.117E+02 0.506E+01   0.160E+01 0.118E+02 -.457E+01   0.686E+00 0.961E-01 -.632E+00   0.934E-04 -.766E-04 0.670E-04
   0.298E+02 -.672E+01 -.258E+02   -.302E+02 0.615E+01 0.245E+02   -.408E-01 0.671E-01 0.200E+01   0.124E-03 -.174E-03 0.110E-03
   -.275E+02 -.259E+01 -.278E+01   0.285E+02 0.252E+01 0.819E+00   0.357E+00 0.419E+00 0.135E+01   0.134E-04 0.466E-04 0.852E-05
   0.384E+00 0.331E+02 0.662E+01   -.767E+00 -.334E+02 -.809E+01   0.169E+01 -.722E+01 -.414E+00   -.146E-03 0.150E-03 -.360E-04
   -.203E+02 0.199E+02 -.132E+02   0.199E+02 -.194E+02 0.153E+02   0.260E+01 -.784E+01 0.133E+00   -.131E-03 0.189E-03 0.860E-04
   0.190E+02 0.710E+01 -.597E+01   -.175E+02 -.742E+01 0.757E+01   -.191E+01 0.445E+00 -.117E+01   -.107E-03 0.865E-04 0.551E-04
   -.206E+01 -.117E+02 0.506E+01   0.160E+01 0.118E+02 -.457E+01   0.686E+00 0.961E-01 -.632E+00   0.101E-03 -.741E-04 0.602E-04
   0.298E+02 -.672E+01 -.258E+02   -.302E+02 0.615E+01 0.245E+02   -.408E-01 0.671E-01 0.200E+01   0.891E-04 -.186E-03 0.111E-03
   -.275E+02 -.259E+01 -.278E+01   0.285E+02 0.252E+01 0.819E+00   0.357E+00 0.419E+00 0.135E+01   -.243E-04 0.451E-04 0.136E-04
   0.384E+00 0.331E+02 0.662E+01   -.767E+00 -.334E+02 -.809E+01   0.169E+01 -.722E+01 -.414E+00   -.139E-03 0.141E-03 -.346E-04
   0.175E+02 -.820E+01 -.225E+02   -.180E+02 0.921E+01 0.227E+02   -.111E+01 -.143E-02 -.368E-01   0.645E-04 -.136E-03 0.111E-06
   -.199E+02 -.749E+01 0.449E+01   0.199E+02 0.762E+01 -.514E+01   -.260E-01 0.299E+00 -.507E+00   0.184E-03 -.170E-04 -.289E-04
   0.231E+02 0.437E+01 0.245E+02   -.237E+02 -.426E+01 -.250E+02   -.567E+00 -.327E+00 -.710E+00   -.946E-04 0.189E-04 -.792E-04
   -.428E+01 -.175E+02 -.283E+01   0.424E+01 0.182E+02 0.256E+01   0.123E+00 -.166E+00 -.990E-01   -.106E-03 0.797E-04 -.394E-04
   0.386E+02 -.791E+01 0.859E+01   -.408E+02 0.844E+01 -.811E+01   -.120E+00 -.177E-01 -.234E+00   0.463E-04 -.182E-04 -.527E-05
   -.747E+01 -.131E+02 0.265E+02   0.744E+01 0.135E+02 -.265E+02   -.568E+00 0.569E+00 -.109E+01   0.977E-04 -.159E-03 -.506E-04
   0.175E+02 -.820E+01 -.225E+02   -.180E+02 0.921E+01 0.227E+02   -.111E+01 -.143E-02 -.368E-01   0.682E-04 -.125E-03 -.305E-05
   -.199E+02 -.749E+01 0.449E+01   0.199E+02 0.762E+01 -.514E+01   -.260E-01 0.299E+00 -.507E+00   0.145E-03 -.348E-04 -.313E-04
   0.231E+02 0.437E+01 0.245E+02   -.237E+02 -.426E+01 -.250E+02   -.567E+00 -.327E+00 -.710E+00   -.129E-03 0.127E-04 -.788E-04
   -.428E+01 -.175E+02 -.283E+01   0.424E+01 0.182E+02 0.256E+01   0.123E+00 -.166E+00 -.990E-01   -.984E-04 0.878E-04 -.352E-04
   0.386E+02 -.791E+01 0.859E+01   -.408E+02 0.844E+01 -.811E+01   -.120E+00 -.177E-01 -.234E+00   0.822E-04 -.165E-04 -.279E-06
   -.747E+01 -.131E+02 0.265E+02   0.744E+01 0.135E+02 -.265E+02   -.568E+00 0.569E+00 -.109E+01   0.121E-03 -.146E-03 -.473E-04
   0.178E+02 -.170E+02 -.226E+02   -.185E+02 0.180E+02 0.233E+02   -.156E+01 0.523E+01 0.877E+00   -.834E-04 0.596E-04 -.496E-04
   -.179E+02 -.633E+01 -.133E+02   0.184E+02 0.623E+01 0.137E+02   0.121E+01 -.392E+00 -.350E+00   0.112E-03 -.620E-04 -.788E-04
   0.331E+00 0.120E+02 0.120E+01   -.648E-01 -.124E+02 -.728E+00   -.233E+00 -.224E+00 -.196E+00   0.176E-04 -.110E-03 -.108E-03
   -.287E+02 0.650E+01 -.212E+02   0.296E+02 -.670E+01 0.219E+02   0.465E-01 0.200E+00 0.112E+01   -.252E-04 0.121E-03 -.824E-04
   0.270E+02 0.256E+01 0.360E+01   -.273E+02 -.296E+01 -.367E+01   -.386E+00 -.371E+00 0.585E+00   -.106E-03 0.121E-03 -.283E-04
   -.165E+01 -.310E+02 0.156E+02   0.184E+01 0.329E+02 -.157E+02   -.821E+00 0.515E+01 -.820E+00   0.188E-04 -.476E-04 0.503E-04
   0.178E+02 -.170E+02 -.226E+02   -.185E+02 0.180E+02 0.233E+02   -.156E+01 0.523E+01 0.877E+00   -.847E-04 0.550E-04 -.461E-04
   -.179E+02 -.633E+01 -.133E+02   0.184E+02 0.623E+01 0.137E+02   0.121E+01 -.392E+00 -.350E+00   0.149E-03 -.566E-04 -.750E-04
   0.331E+00 0.120E+02 0.120E+01   -.648E-01 -.124E+02 -.728E+00   -.233E+00 -.224E+00 -.196E+00   0.515E-04 -.927E-04 -.111E-03
   -.287E+02 0.650E+01 -.212E+02   0.296E+02 -.670E+01 0.219E+02   0.465E-01 0.200E+00 0.112E+01   -.318E-04 0.111E-03 -.877E-04
   0.270E+02 0.256E+01 0.360E+01   -.273E+02 -.296E+01 -.367E+01   -.386E+00 -.371E+00 0.585E+00   -.142E-03 0.116E-03 -.304E-04
   -.165E+01 -.310E+02 0.156E+02   0.184E+01 0.329E+02 -.157E+02   -.821E+00 0.515E+01 -.820E+00   -.185E-05 -.533E-04 0.450E-04
   -.182E+01 0.531E+01 0.826E+01   0.471E-13 0.284E-13 -.817E-13   0.180E+01 -.538E+01 -.829E+01   -.152E-03 0.440E-04 0.184E-04

 POSITION                                       TOTAL-FORCE (eV/Angst)
      0.00000      0.00000      0.00000         0.897741     -0.434022      0.973309
     -3.67610      5.56737      0.73230        -0.555645      0.095126      0.031524
      7.35219      1.96496      1.46459         0.703559      0.671045     -0.213743
     -8.57756      7.53233      2.19689        -0.270006     -0.470786     -0.063151
      2.45073      3.92991      2.92918         1.147150     -0.233147     -0.158047
      1.22537      0.32749      3.66148         0.411340      0.315021     -1.371835
     -7.35219      4.58490      0.00000         0.897741     -0.434022      0.973309
      3.67610      0.98248      0.73230        -0.555645      0.095126      0.031524
      0.00000      6.54985      1.46459         0.703559      0.671045     -0.213743
     -1.22537      2.94743      2.19689        -0.270006     -0.470786     -0.063151
     -4.90146      8.51481      2.92918         1.147150     -0.233147     -0.158047
     -6.12683      4.91239      3.66148         0.411340      0.315021     -1.371835
     -7.96487      6.87735      0.00000         2.202671     -7.318165      2.330835
      3.06341      3.27493      0.73230        -0.386341      0.119139      0.430584
    -12.86634      8.84230      1.46459         0.223991      0.237634     -0.144903
     -1.83805      5.23988      2.19689        -0.494221     -0.507157      0.683318
      9.19024      1.63746      2.92918         1.287548      0.343622     -0.611289
     -6.73951      7.20484      3.66148         1.309619     -7.491059     -1.881058
     -0.61268      2.29245      0.00000         2.202671     -7.318165      2.330835
     -4.28878      7.85982      0.73230        -0.386341      0.119139      0.430584
     -5.51414      4.25740      1.46459         0.223991      0.237634     -0.144903
      5.51414      0.65499      2.19689        -0.494221     -0.507157      0.683318
      1.83805      6.22236      2.92918         1.287548      0.343622     -0.611289
      0.61268      2.61994      3.66148         1.309619     -7.491059     -1.881058
      6.95557      2.23914      3.96148        -1.594295      1.011164      0.253419
     -4.07272      5.84155      4.71783        -0.030210      0.427814     -1.158227
     -0.39662      0.27418      5.47418        -1.094156     -0.212605     -1.288983
      0.82874      3.87660      6.23053         0.086961      0.487820     -0.367624
    -10.19954      7.47902      6.98688        -2.306933      0.513158      0.242220
      5.73021      1.91164      7.74323        -0.602541      0.938717     -1.062019
     -0.39662      6.82403      3.96148        -1.594295      1.011164      0.253419
      3.27948      1.25666      4.71783        -0.030210      0.427814     -1.158227
     -7.74881      4.85908      5.47418        -1.094156     -0.212605     -1.288983
     -6.52345      8.46150      6.23053         0.086961      0.487820     -0.367624
     -2.84735      2.89412      6.98688        -2.306933      0.513158      0.242220
     -1.62199      6.49654      7.74323        -0.602541      0.938717     -1.062019
      0.21606      4.53158      3.96148        -2.245972      6.212739      1.591654
    -10.81222      8.13400      4.71783         1.671491     -0.491914      0.086765
      5.11752      2.56663      5.47418         0.034125     -0.544514      0.272829
     -5.91076      6.16905      6.23053         0.984886      0.005664      1.814664
     10.01898      0.60167      6.98688        -0.754804     -0.762596      0.517519
     -1.00930      4.20409      7.74323        -0.625958      7.087303     -0.907761
     -7.13613      9.11648      3.96148        -2.245972      6.212739      1.591654
     -3.46003      3.54911      4.71783         1.671491     -0.491914      0.086765
     -2.23467      7.15153      5.47418         0.034125     -0.544514      0.272829
      1.44143      1.58415      6.23053         0.984886      0.005664      1.814664
      2.66679      5.18657      6.98688        -0.754804     -0.762596      0.517519
     -8.36149      8.78899      7.74323        -0.625958      7.087303     -0.907761
    total drift:                               -0.013558     -0.067486     -0.027938

  FREE ENERGIE OF THE ION-ELECTRON SYSTEM (eV)
  free  energy   TOTEN  =      -201.16153709 eV

  energy  without entropy=     -201.16028881  energy(sigma->0) =     -201.16091295