 vasp.6.4.3 19Mar24 (build Oct 22 2024 11:23:12) complex

 executed on             LinuxIFC date 2025.06.08  10:24:11

 INCAR:
   SYSTEM = Si and Ge interface calculation
   ISTART = 0
   ICHARG = 2
   LWAVE = .FALSE.
   LREAL = AUTO
   ENCUT = 700
   ENAUG = 900
   ADDGRID = .TRUE.
   LMAXMIX = 6
   LASPH = .TRUE.
   LMIXTAU = .TRUE.
   NCORE = 16
   NELM = 100
   NBANDS = 288
   EDIFF = 1d-7
   AMIX = 0.6
   ISMEAR = 0
   SIGMA = 0.01
   NELECT = 480
   ISPIN = 2
   NUPDOWN = 1
   LVTOT = .FALSE.
   LVHAR = .TRUE.

 POTCAR:    PAW_PBE Si 05Jan2001
 POTCAR:    PAW_PBE Ge 05Jan2001
|           W    W    AA    RRRRR   N    N  II  N    N   GGGG   !!!           |
|           W    W   A  A   R    R  NN   N  II  NN   N  G    G  !!!           |
|           W    W  A    A  R    R  N N  N  II  N N  N  G       !!!           |
|           W WW W  AAAAAA  RRRRR   N  N N  II  N  N N  G  GGG   !            |
|           WW  WW  A    A  R   R   N   NN  II  N   NN  G    G                |
|           W    W  A    A  R    R  N    N  II  N    N   GGGG   !!!           |
|     You use a magnetic or noncollinear calculation, but did not specify     |
|     the initial magnetic moment with the MAGMOM tag. Note that a            |
|     default of 8.333e-3 will be used for all atoms. This ferromagnetic      |
|     setup may break the symmetry of the crystal, in particular it may       |
|     rule out finding an antiferromagnetic solution. Thence, we              |
|     recommend setting the initial magnetic moment manually or verifying     |
|     carefully that this magnetic setup is desired.                          |

 POTCAR:    PAW_PBE Si 05Jan2001
   VRHFIN =Si: s2p2

   TITEL  = PAW_PBE Si 05Jan2001
   POMASS =   28.085; ZVAL   =    4.000    mass and valenz
   ENMAX  =  245.345; ENMIN  =  184.009 eV

 POTCAR:    PAW_PBE Ge 05Jan2001
   VRHFIN =Ge: s2p2

   TITEL  = PAW_PBE Ge 05Jan2001
   POMASS =   72.610; ZVAL   =    4.000    mass and valenz
   ENMAX  =  173.807; ENMIN  =  130.355 eV

 Optimization of the real space projectors (new method)

 maximal supplied QI-value         = 19.84
 optimisation between [QCUT,QGAM] = [ 13.49, 26.99] = [ 50.98,203.92] Ry
 Optimized for a Real-space Cutoff    1.07 Angstroem

   l    n(q)    QCUT    max X(q) W(low)/X(q) W(high)/X(q)  e(spline)
   0      9    13.493   159.560    0.22E-03    0.15E-03    0.72E-07
   0      9    13.493   115.863    0.21E-03    0.15E-03    0.71E-07
   1      8    13.493    88.339    0.15E-03    0.11E-03    0.13E-06
   1      8    13.493    48.592    0.15E-03    0.10E-03    0.13E-06
 Optimization of the real space projectors (new method)

 maximal supplied QI-value         = 16.25
 optimisation between [QCUT,QGAM] = [ 13.49, 26.98] = [ 50.95,203.80] Ry
 Optimized for a Real-space Cutoff    1.25 Angstroem

   l    n(q)    QCUT    max X(q) W(low)/X(q) W(high)/X(q)  e(spline)
   0     10    13.489    65.336    0.91E-04    0.11E-03    0.34E-06
   0     10    13.489    52.220    0.89E-04    0.11E-03    0.34E-06
   1     10    13.489    36.409    0.22E-03    0.27E-03    0.14E-06
   1     10    13.489    21.334    0.21E-03    0.27E-03    0.14E-06
   2      9    13.489     4.673    0.11E-03    0.12E-03    0.19E-06
  PAW_PBE Si 05Jan2001                  :
  PAW_PBE Ge 05Jan2001                  :

 POSCAR: Si+Ge
  positions in direct lattice

 exchange-correlation table for PE
   RHO(1)=    0.500       N(1)  =     2000
   RHO(2)=  100.500       N(2)  =     4000

 ion  position               nearest neighbor table
   1  0.979  0.986  0.000-  49 2.35  67 2.35  56 2.35  87 2.45
   2  0.729  0.819  0.091-  50 2.35  68 2.35  57 2.35  49 2.35
   3  0.479  0.652  0.183-  51 2.35  69 2.35  58 2.35  50 2.35
   4  0.229  0.486  0.274-  52 2.35  51 2.35  70 2.35  59 2.35
   5  0.979  0.319  0.366-  53 2.35  60 2.35  71 2.35  52 2.35
   6  0.729  0.152  0.457-  72 2.35  54 2.35  53 2.35 106 2.47
   7  0.979  0.319  0.000-  37 2.35  55 2.35  62 2.35
   8  0.729  0.152  0.091-  38 2.35  56 2.35  63 2.35  37 2.35
   9  0.479  0.986  0.183-  64 2.35  39 2.35  57 2.35  38 2.35
  10  0.229  0.819  0.274-  39 2.35  40 2.35  65 2.35  58 2.35
  11  0.979  0.652  0.366-  41 2.35  59 2.35  66 2.35  40 2.35
  12  0.729  0.486  0.457-  60 2.35  41 2.35  42 2.35  82 2.45
  13  0.979  0.652  0.000-  43 2.35  68 2.35  61 2.35 114 2.47
  14  0.729  0.486  0.091-  44 2.35  62 2.35  69 2.35  43 2.35
  15  0.479  0.319  0.183-  70 2.35  45 2.35  63 2.35  44 2.35
  16  0.229  0.152  0.274-  45 2.35  46 2.35  71 2.35  64 2.35
  17  0.979  0.986  0.366-  72 2.35  47 2.35  65 2.35  46 2.35
  18  0.729  0.819  0.457-  66 2.35  48 2.35  47 2.35
  19  0.479  0.986  0.000-  67 2.35  49 2.35  38 2.35 117 2.45
  20  0.229  0.819  0.091-  68 2.35  50 2.35  39 2.35  67 2.35
  21  0.979  0.652  0.183-  51 2.35  69 2.35  40 2.35  68 2.35
  22  0.729  0.486  0.274-  69 2.35  70 2.35  52 2.35  41 2.35
  23  0.479  0.319  0.366-  42 2.35  71 2.35  53 2.35  70 2.35
  24  0.229  0.152  0.457-  72 2.35  54 2.35  71 2.35  79 2.47
  25  0.479  0.319  0.000-  55 2.35  44 2.35  37 2.35
  26  0.229  0.152  0.091-  55 2.35  45 2.35  56 2.35  38 2.35
  27  0.979  0.986  0.183-  46 2.35  56 2.35  39 2.35  57 2.35
  28  0.729  0.819  0.274-  57 2.35  58 2.35  40 2.35  47 2.35
  29  0.479  0.652  0.366-  48 2.35  59 2.35  41 2.35  58 2.35
  30  0.229  0.486  0.457-  59 2.35  60 2.35  42 2.35 100 2.45
  31  0.479  0.652  0.000-  50 2.35  61 2.35  43 2.35  96 2.47
  32  0.229  0.486  0.091-  62 2.35  51 2.35  44 2.35  61 2.35
  33  0.979  0.319  0.183-  52 2.35  45 2.35  63 2.35  62 2.35
  34  0.729  0.152  0.274-  63 2.35  64 2.35  46 2.35  53 2.35
  35  0.479  0.986  0.366-  54 2.35  65 2.35  47 2.35  64 2.35
  36  0.229  0.819  0.457-  66 2.35  48 2.35  65 2.35
  37  0.729  0.236  0.000-   7 2.35   8 2.35  25 2.35  90 2.46
  38  0.479  0.069  0.091-  19 2.35   8 2.35   9 2.35  26 2.35
  39  0.229  0.902  0.183-  10 2.35   9 2.35  20 2.35  27 2.35
  40  0.979  0.736  0.274-  21 2.35  10 2.35  28 2.35  11 2.35
  41  0.729  0.569  0.366-  11 2.35  29 2.35  12 2.35  22 2.35
  42  0.479  0.402  0.457-  23 2.35  12 2.35  30 2.35 100 2.48
  43  0.729  0.569  0.000-  13 2.35  31 2.35  14 2.35
  44  0.479  0.402  0.091-  14 2.35  32 2.35  25 2.35  15 2.35
  45  0.229  0.236  0.183-  15 2.35  16 2.35  33 2.35  26 2.35
  46  0.979  0.069  0.274-  16 2.35  34 2.35  27 2.35  17 2.35
  47  0.729  0.902  0.366-  17 2.35  35 2.35  28 2.35  18 2.35
  48  0.479  0.736  0.457-  29 2.35  18 2.35  36 2.35  73 2.46
  49  0.729  0.902  0.000-   1 2.35  19 2.35   2 2.35 117 2.48
  50  0.479  0.736  0.091-   2 2.35  31 2.35  20 2.35   3 2.35
  51  0.229  0.569  0.183-   3 2.35  21 2.35   4 2.35  32 2.35
  52  0.979  0.402  0.274-   4 2.35  22 2.35  33 2.35   5 2.35
  53  0.729  0.236  0.366-   5 2.35  23 2.35  34 2.35   6 2.35
  54  0.479  0.069  0.457-  35 2.35   6 2.35  24 2.35
  55  0.229  0.236  0.000-   7 2.35  25 2.35  26 2.35 111 2.46
  56  0.979  0.069  0.091-   1 2.35   8 2.35  26 2.35  27 2.35
  57  0.729  0.902  0.183-  28 2.35   2 2.35   9 2.35  27 2.35
  58  0.479  0.736  0.274-   3 2.35  28 2.35  10 2.35  29 2.35
  59  0.229  0.569  0.366-  11 2.35  29 2.35   4 2.35  30 2.35
  60  0.979  0.402  0.457-   5 2.35  12 2.35  30 2.35  82 2.48
[...]
 106  0.851  0.196  0.560-  91 2.38 118 2.38   6 2.47
 107  0.601  0.821  0.695-  92 2.38 119 2.38 109 2.48  85 2.48
 108  0.351  0.446  0.830-  93 2.38 120 2.38 110 2.48  86 2.48
 109  0.601  0.946  0.628-  76 2.38  97 2.38 107 2.48  83 2.48
 110  0.351  0.571  0.762-  98 2.38  77 2.38  84 2.48 108 2.48
 111  0.101  0.196  0.897-  78 2.38  99 2.38  55 2.46
 112  0.601  0.446  0.628-  82 2.38 100 2.38 104 2.48  77 2.48
 113  0.351  0.071  0.762-  83 2.38 101 2.38  78 2.48 105 2.48
 114  0.101  0.696  0.897-  84 2.38 102 2.38  13 2.47
 115  0.101  0.696  0.628-  73 2.38 103 2.38  98 2.48  80 2.48
 116  0.851  0.321  0.762-  74 2.38 104 2.38  99 2.48  81 2.48
 117  0.601  0.946  0.897- 105 2.38  75 2.38  19 2.45  49 2.48
 118  0.101  0.196  0.628-  79 2.38 106 2.38  74 2.48 101 2.48
 119  0.851  0.821  0.762-  80 2.38 107 2.38  75 2.48 102 2.48
 120  0.601  0.446  0.897-  81 2.38 108 2.38

  LATTYP: Found a simple orthorhombic cell.
 ALAT       =     7.6805944440
 B/A-ratio  =     2.1213200862
 C/A-ratio  =     2.7342758666

  Lattice vectors:

 A1 = (   7.6805944440,   0.0000000000,   0.0000000000)
 A2 = (   0.0000000000,  16.2929992680,   0.0000000000)
 A3 = (   0.0000000000,   0.0000000000,  21.0008640290)

Analysis of symmetry for initial positions (statically):
 Subroutine PRICEL returns following result:

[...]

   2 primitive cells build up your supercell.

 Routine SETGRP: Setting up the symmetry group for a
 simple orthorhombic supercell.

 Subroutine GETGRP returns: Found  2 space group operations
 (whereof  1 operations were pure point group operations)
 out of a pool of  8 trial point group operations.

The static configuration has the point symmetry C_1 .
 The point group associated with its full space group is C_1h.

Analysis of symmetry for dynamics (positions and initial velocities):
 Subroutine PRICEL returns following result:

[...]

The dynamic configuration has the point symmetry C_1 .
 The point group associated with its full space group is C_1h.

Analysis of structural, dynamic, and magnetic symmetry:
 Subroutine PRICEL returns following result:

  LATTYP: Found a simple orthorhombic cell.
 ALAT       =     3.8402967612
 B/A-ratio  =     4.2426406815
 C/A-ratio  =     5.4685523893

  Lattice vectors:

 A1 = (   3.8402967612,   0.0000000000,   0.0000000000)
 A2 = (   0.0000000000,  16.2929992680,   0.0000000000)
 A3 = (   0.0000000000,   0.0000000000,  21.0008640290)

   2 primitive cells build up your supercell.

 Routine SETGRP: Setting up the symmetry group for a
 simple orthorhombic supercell.

 Subroutine GETGRP returns: Found  2 space group operations
 (whereof  1 operations were pure point group operations)
 out of a pool of  8 trial point group operations.

The overall configuration has the point symmetry C_1 .
 The point group associated with its full space group is C_1h.

 Subroutine INISYM returns: Found  2 space group operations
 (whereof  1 operations are pure point group operations),
 and found     2 'primitive' translations

                                     Primitive cell

  volume of cell :    1314.0231

  direct lattice vectors                    reciprocal lattice vectors
     3.840296761  0.000000000  0.000000000     0.260396543  0.000000000  0.000000000
     0.000000000 16.292999268  0.000000000     0.000000000  0.061376054  0.000000000
     0.000000000  0.000000000 21.000864029     0.000000000  0.000000000  0.047617088

  length of vectors
     3.840296761 16.292999268 21.000864029     0.260396543  0.061376054  0.047617088

  position of ions in fractional coordinates (direct lattice)
     0.957034823  0.985678196  0.000000001
     0.457034553  0.819011450  0.091431901
     0.957034703  0.652344763  0.182863802
     0.457034523  0.485678136  0.274295658
     0.957034585  0.319011390  0.365727574
     0.457034285  0.152344704  0.457159460
     0.957034823  0.319011539  0.000000001
     0.457034553  0.152344853  0.091431901
[...]
     0.000000000  0.000000000 21.000864029     0.000000000  0.000000000  0.047617088

  length of vectors
     7.680594444 16.292999268 21.000864029     0.130198256  0.061376054  0.047617088

 FORCES acting on ions
    electron-ion (+dipol)            ewald-force                    non-local-force                 convergence-correction
   0.625E+01 -.250E+02 0.479E+02   -.585E+01 0.231E+02 -.459E+02   -.251E+00 0.214E+01 -.164E+01   -.105E-05 -.357E-04 0.387E-03
   0.151E+00 0.886E+00 0.378E+02   0.181E+00 -.137E+01 -.377E+02   -.248E+00 0.168E+00 -.308E+00   -.969E-06 0.278E-04 0.302E-03
   0.510E-01 -.362E+00 0.117E+02   -.871E-02 0.126E+00 -.117E+02   -.174E-01 0.103E+00 -.653E-01   0.141E-05 -.108E-04 0.864E-04
   0.199E-01 -.203E+00 -.119E+02   -.872E-02 0.161E+00 0.117E+02   0.466E-02 -.655E-01 0.219E+00   0.103E-05 -.332E-05 -.968E-04
   0.151E+00 0.886E+00 -.378E+02   0.181E+00 -.137E+01 0.377E+02   -.248E+00 0.168E+00 0.308E+00   -.964E-06 0.298E-04 -.302E-03
   0.652E+01 -.121E+02 -.490E+02   -.563E+01 0.102E+02 0.467E+02   -.261E+00 0.169E+01 0.235E+01   0.212E-04 -.831E-04 -.367E-03
   0.365E+01 -.188E+02 0.593E+02   -.289E+01 0.172E+02 -.567E+02   -.142E+00 0.203E+01 -.332E+01   0.186E-04 0.587E-04 0.377E-03
   0.787E-01 0.123E+01 0.372E+02   0.219E+00 -.173E+01 -.371E+02   -.238E+00 0.292E+00 -.209E+00   -.247E-05 0.450E-05 0.303E-03
   0.200E-01 -.203E+00 0.119E+02   -.875E-02 0.161E+00 -.117E+02   0.466E-02 -.655E-01 -.219E+00   0.103E-05 -.346E-05 0.963E-04
   0.473E-01 -.235E+00 -.117E+02   -.818E-02 0.145E+00 0.117E+02   -.138E-01 -.115E-01 -.277E-02   0.108E-05 0.472E-04 -.575E-04
   0.787E-01 0.123E+01 -.372E+02   0.219E+00 -.173E+01 0.371E+02   -.238E+00 0.292E+00 0.209E+00   -.246E-05 0.234E-05 -.304E-03
   0.625E+01 -.250E+02 -.479E+02   -.585E+01 0.231E+02 0.459E+02   -.251E+00 0.214E+01 0.164E+01   -.106E-05 -.362E-04 -.387E-03
   0.652E+01 -.121E+02 0.490E+02   -.563E+01 0.102E+02 -.467E+02   -.261E+00 0.169E+01 -.235E+01   0.212E-04 -.854E-04 0.368E-03
   0.144E+00 0.989E+00 0.370E+02   0.221E+00 -.108E+01 -.371E+02   -.179E+00 -.296E-01 -.520E-01   0.162E-05 -.387E-04 0.241E-03
   0.473E-01 -.235E+00 0.117E+02   -.821E-02 0.145E+00 -.117E+02   -.138E-01 -.115E-01 0.277E-02   0.107E-05 0.493E-04 0.569E-04
   0.510E-01 -.362E+00 -.117E+02   -.869E-02 0.126E+00 0.117E+02   -.174E-01 0.103E+00 0.653E-01   0.141E-05 -.876E-05 -.867E-04
   0.144E+00 0.989E+00 -.370E+02   0.221E+00 -.108E+01 0.371E+02   -.179E+00 -.296E-01 0.520E-01   0.163E-05 -.386E-04 -.241E-03
   0.365E+01 -.188E+02 -.593E+02   -.289E+01 0.172E+02 0.567E+02   -.142E+00 0.203E+01 0.332E+01   0.186E-04 0.569E-04 -.377E-03
   0.625E+01 -.250E+02 0.479E+02   -.585E+01 0.231E+02 -.459E+02   -.251E+00 0.214E+01 -.164E+01   -.105E-05 -.357E-04 0.387E-03
   0.151E+00 0.886E+00 0.378E+02   0.180E+00 -.137E+01 -.377E+02   -.248E+00 0.168E+00 -.308E+00   -.976E-06 0.278E-04 0.302E-03
   0.510E-01 -.362E+00 0.117E+02   -.872E-02 0.126E+00 -.117E+02   -.174E-01 0.103E+00 -.653E-01   0.141E-05 -.108E-04 0.864E-04
   0.199E-01 -.203E+00 -.119E+02   -.874E-02 0.161E+00 0.117E+02   0.466E-02 -.655E-01 0.219E+00   0.103E-05 -.332E-05 -.968E-04
   0.151E+00 0.886E+00 -.378E+02   0.180E+00 -.137E+01 0.377E+02   -.248E+00 0.168E+00 0.308E+00   -.981E-06 0.298E-04 -.302E-03
   0.652E+01 -.121E+02 -.490E+02   -.563E+01 0.102E+02 0.467E+02   -.261E+00 0.169E+01 0.235E+01   0.212E-04 -.831E-04 -.367E-03
   0.365E+01 -.188E+02 0.593E+02   -.289E+01 0.172E+02 -.567E+02   -.142E+00 0.203E+01 -.332E+01   0.186E-04 0.587E-04 0.377E-03
   0.787E-01 0.123E+01 0.372E+02   0.219E+00 -.173E+01 -.371E+02   -.238E+00 0.292E+00 -.209E+00   -.247E-05 0.450E-05 0.303E-03
   0.199E-01 -.203E+00 0.119E+02   -.876E-02 0.161E+00 -.117E+02   0.466E-02 -.655E-01 -.219E+00   0.103E-05 -.346E-05 0.963E-04
   0.473E-01 -.235E+00 -.117E+02   -.820E-02 0.145E+00 0.117E+02   -.138E-01 -.115E-01 -.277E-02   0.107E-05 0.472E-04 -.575E-04
   0.787E-01 0.123E+01 -.372E+02   0.219E+00 -.173E+01 0.371E+02   -.238E+00 0.292E+00 0.209E+00   -.248E-05 0.234E-05 -.304E-03
   0.625E+01 -.250E+02 -.479E+02   -.585E+01 0.231E+02 0.459E+02   -.251E+00 0.214E+01 0.164E+01   -.104E-05 -.362E-04 -.387E-03
   0.652E+01 -.121E+02 0.490E+02   -.563E+01 0.102E+02 -.467E+02   -.261E+00 0.169E+01 -.235E+01   0.212E-04 -.854E-04 0.368E-03
   0.144E+00 0.989E+00 0.370E+02   0.221E+00 -.108E+01 -.371E+02   -.179E+00 -.296E-01 -.520E-01   0.162E-05 -.387E-04 0.241E-03
   0.473E-01 -.235E+00 0.117E+02   -.822E-02 0.145E+00 -.117E+02   -.138E-01 -.115E-01 0.277E-02   0.107E-05 0.493E-04 0.569E-04
   0.510E-01 -.362E+00 -.117E+02   -.871E-02 0.126E+00 0.117E+02   -.174E-01 0.103E+00 0.653E-01   0.141E-05 -.876E-05 -.867E-04
   0.144E+00 0.989E+00 -.370E+02   0.221E+00 -.108E+01 0.371E+02   -.179E+00 -.296E-01 0.520E-01   0.161E-05 -.386E-04 -.241E-03
   0.365E+01 -.188E+02 -.593E+02   -.289E+01 0.172E+02 0.567E+02   -.142E+00 0.203E+01 0.332E+01   0.186E-04 0.569E-04 -.377E-03
   -.666E+01 0.126E+02 0.486E+02   0.582E+01 -.107E+02 -.463E+02   0.218E+00 -.168E+01 -.232E+01   -.220E-04 0.883E-04 0.350E-03
   -.152E+00 -.917E+00 0.377E+02   -.181E+00 0.142E+01 -.377E+02   0.245E+00 -.172E+00 -.298E+00   0.104E-05 -.157E-04 0.308E-03
   -.190E-01 0.191E+00 0.119E+02   0.869E-02 -.162E+00 -.117E+02   0.212E-02 0.760E-01 -.203E+00   -.103E-05 0.114E-06 0.951E-04
   -.503E-01 0.362E+00 -.117E+02   0.875E-02 -.127E+00 0.117E+02   0.242E-01 -.103E+00 0.758E-01   -.139E-05 0.129E-04 -.715E-04
   -.152E+00 -.917E+00 -.377E+02   -.181E+00 0.142E+01 0.377E+02   0.245E+00 -.172E+00 0.298E+00   0.103E-05 -.170E-04 -.309E-03
   -.596E+01 0.252E+02 -.491E+02   0.561E+01 -.234E+02 0.470E+02   0.152E+00 -.211E+01 0.184E+01   0.803E-06 0.281E-04 -.392E-03
   -.367E+01 0.180E+02 0.594E+02   0.288E+01 -.165E+02 -.568E+02   0.115E+00 -.203E+01 -.328E+01   -.185E-04 -.726E-04 0.378E-03
   -.151E+00 -.950E+00 0.371E+02   -.219E+00 0.106E+01 -.371E+02   0.176E+00 0.273E-01 -.582E-01   -.186E-05 0.127E-04 0.238E-03
   -.503E-01 0.362E+00 0.117E+02   0.872E-02 -.127E+00 -.117E+02   0.242E-01 -.103E+00 -.758E-01   -.140E-05 0.153E-04 0.708E-04
   -.479E-01 0.251E+00 -.117E+02   0.821E-02 -.143E+00 0.117E+02   0.225E-01 -.745E-02 -.607E-02   -.111E-05 -.509E-04 -.725E-04
   -.151E+00 -.950E+00 -.371E+02   -.219E+00 0.106E+01 0.371E+02   0.176E+00 0.273E-01 0.582E-01   -.186E-05 0.116E-04 -.238E-03
   -.666E+01 0.126E+02 -.486E+02   0.582E+01 -.107E+02 0.463E+02   0.218E+00 -.168E+01 0.232E+01   -.220E-04 0.859E-04 -.351E-03
   -.596E+01 0.252E+02 0.491E+02   0.561E+01 -.234E+02 -.470E+02   0.152E+00 -.211E+01 -.184E+01   0.825E-06 0.273E-04 0.393E-03
   -.708E-01 -.123E+01 0.371E+02   -.221E+00 0.171E+01 -.371E+02   0.221E+00 -.274E+00 -.179E+00   0.259E-05 0.159E-04 0.306E-03
   -.479E-01 0.251E+00 0.117E+02   0.818E-02 -.143E+00 -.117E+02   0.225E-01 -.745E-02 0.607E-02   -.112E-05 -.520E-04 0.721E-04
   -.190E-01 0.191E+00 -.119E+02   0.871E-02 -.162E+00 0.117E+02   0.212E-02 0.760E-01 0.203E+00   -.103E-05 0.145E-05 -.955E-04
   -.708E-01 -.123E+01 -.371E+02   -.221E+00 0.171E+01 0.371E+02   0.221E+00 -.274E+00 0.179E+00   0.258E-05 0.183E-04 -.306E-03
   -.367E+01 0.180E+02 -.594E+02   0.288E+01 -.165E+02 0.568E+02   0.115E+00 -.203E+01 0.328E+01   -.185E-04 -.709E-04 -.378E-03
   -.666E+01 0.126E+02 0.486E+02   0.582E+01 -.107E+02 -.463E+02   0.218E+00 -.168E+01 -.232E+01   -.220E-04 0.883E-04 0.350E-03
   -.152E+00 -.917E+00 0.377E+02   -.181E+00 0.142E+01 -.377E+02   0.245E+00 -.172E+00 -.298E+00   0.104E-05 -.157E-04 0.308E-03
   -.190E-01 0.191E+00 0.119E+02   0.872E-02 -.162E+00 -.117E+02   0.212E-02 0.760E-01 -.203E+00   -.103E-05 0.114E-06 0.951E-04
   -.503E-01 0.362E+00 -.117E+02   0.875E-02 -.127E+00 0.117E+02   0.242E-01 -.103E+00 0.758E-01   -.140E-05 0.129E-04 -.715E-04
   -.152E+00 -.917E+00 -.377E+02   -.181E+00 0.142E+01 0.377E+02   0.245E+00 -.172E+00 0.298E+00   0.104E-05 -.170E-04 -.309E-03
   -.596E+01 0.252E+02 -.491E+02   0.561E+01 -.234E+02 0.470E+02   0.152E+00 -.211E+01 0.184E+01   0.832E-06 0.281E-04 -.392E-03
[...]
   0.313E+00 -.182E+00 0.308E+01   -.118E-01 0.326E+00 -.299E+01   -.695E-01 -.531E-01 -.641E+00   0.433E-05 -.274E-04 0.629E-04
   -.512E-01 0.122E+00 0.854E+01   0.100E-01 -.127E+00 -.792E+01   0.258E-01 -.284E-02 -.112E+01   -.958E-06 -.127E-04 -.841E-04
   -.513E-01 0.123E+00 -.854E+01   0.998E-02 -.127E+00 0.792E+01   0.258E-01 -.284E-02 0.112E+01   -.969E-06 -.118E-04 0.844E-04
   -.287E+00 0.174E+00 -.303E+01   0.108E-01 -.298E+00 0.295E+01   0.319E-01 0.501E-01 0.638E+00   -.439E-05 0.181E-04 -.750E-04
   0.488E+01 0.138E+02 0.178E+02   -.428E+01 -.145E+02 -.175E+02   -.140E+00 0.404E+00 0.674E+00   -.119E-05 0.174E-04 -.460E-04
   0.708E-01 -.124E+00 -.136E+02   -.120E-01 0.128E+00 0.136E+02   -.511E-01 -.131E-01 0.721E+00   0.352E-06 -.703E-07 0.169E-03
   0.250E+00 -.355E+00 -.438E+01   -.104E-01 0.298E+00 0.392E+01   0.364E-01 0.513E-01 0.107E+01   0.444E-05 0.357E-04 -.618E-04
   -.477E+01 -.139E+02 0.168E+02   0.419E+01 0.145E+02 -.165E+02   0.108E+00 -.417E+00 0.688E+00   0.151E-05 -.123E-04 -.493E-04
   -.134E+01 0.288E+01 -.113E+02   0.253E+00 -.280E+01 0.109E+02   0.885E+00 0.971E-02 0.701E+00   -.620E-05 0.191E-05 0.103E-03
   0.313E+00 -.182E+00 -.308E+01   -.118E-01 0.326E+00 0.299E+01   -.695E-01 -.531E-01 0.641E+00   0.433E-05 -.262E-04 -.625E-04
   -.308E+00 -.461E+00 0.315E+02   0.278E+00 0.496E+00 -.312E+02   0.647E-01 -.665E-01 0.416E+00   0.516E-06 0.531E-05 0.430E-04
   0.131E+01 -.288E+01 -.111E+02   -.250E+00 0.280E+01 0.106E+02   -.855E+00 0.110E-02 0.702E+00   0.646E-05 0.103E-04 0.133E-03
   -.274E+00 0.370E+00 -.433E+01   0.113E-01 -.326E+00 0.388E+01   -.638E-01 -.381E-01 0.107E+01   -.443E-05 -.286E-04 -.813E-04
   0.160E+00 0.527E+00 0.386E+01   -.130E+00 -.557E+00 -.281E+01   0.135E-01 0.154E-01 0.135E+01   0.151E-05 -.161E-04 0.584E-04
   0.307E+00 -.104E+00 0.939E-04   0.397E-14 0.133E-13 0.843E-12   -.732E+00 -.805E-01 0.133E-14   0.385E-05 -.829E-04 -.148E-05

 POSITION                                       TOTAL-FORCE (eV/Angst)
      7.51559     16.05965      0.00000         0.148954      0.269258      0.339947
      5.59545     13.34415      1.92015         0.087046     -0.318791     -0.228657
      3.67530     10.62865      3.84030         0.028486     -0.131962     -0.038863
      1.75515      7.91315      5.76045         0.019393     -0.105848      0.052809
      7.51559      5.19765      7.68060         0.087046     -0.318791      0.228657
      5.59544      2.48215      9.60074         0.629547     -0.194112      0.026006
      7.51559      5.19765      0.00000         0.620979      0.460835     -0.686473
      5.59545      2.48215      1.92015         0.063215     -0.211469     -0.134229
      3.67530     16.05965      3.84030         0.019393     -0.105848     -0.052809
      1.75515     13.34415      5.76045         0.028873     -0.100152      0.025693
      7.51559     10.62865      7.68060         0.063215     -0.211469      0.134229
      5.59544      7.91315      9.60074         0.148954      0.269258     -0.339947
      7.51559     10.62866      0.00000         0.629547     -0.194112     -0.026006
      5.59545      7.91315      1.92015         0.189957     -0.123821     -0.124807
      3.67530      5.19765      3.84030         0.028873     -0.100152     -0.025693
      1.75515      2.48215      5.76045         0.028486     -0.131962      0.038863
      7.51559     16.05965      7.68060         0.189957     -0.123821      0.124807
      5.59544     13.34415      9.60074         0.620979      0.460835      0.686473
      3.67530     16.05965      0.00000         0.148954      0.269258      0.339947
      1.75515     13.34415      1.92015         0.087046     -0.318791     -0.228657
      7.51559     10.62865      3.84030         0.028486     -0.131962     -0.038863
      5.59545      7.91315      5.76045         0.019393     -0.105848      0.052809
      3.67530      5.19765      7.68060         0.087046     -0.318791      0.228657
      1.75515      2.48215      9.60074         0.629547     -0.194112      0.026006
      3.67530      5.19765      0.00000         0.620979      0.460835     -0.686473
      1.75515      2.48215      1.92015         0.063215     -0.211469     -0.134229
      7.51559     16.05965      3.84030         0.019393     -0.105848     -0.052809
      5.59545     13.34415      5.76045         0.028873     -0.100152      0.025693
      3.67530     10.62865      7.68060         0.063215     -0.211469      0.134229
      1.75515      7.91315      9.60074         0.148954      0.269258     -0.339947
      3.67530     10.62866      0.00000         0.629547     -0.194112     -0.026006
      1.75515      7.91315      1.92015         0.189957     -0.123821     -0.124807
      7.51559      5.19765      3.84030         0.028873     -0.100152     -0.025693
      5.59545      2.48215      5.76045         0.028486     -0.131962      0.038863
      3.67530     16.05965      7.68060         0.189957     -0.123821      0.124807
      1.75515     13.34415      9.60074         0.620979      0.460835      0.686473
      5.59545      3.83990      0.00000        -0.609460      0.187473      0.038176
      3.67530      1.12440      1.92015        -0.083476      0.330244     -0.229796
      1.75515     14.70190      3.84030        -0.004635      0.106425     -0.053695
      7.51559     11.98640      5.76045        -0.013809      0.134028      0.039951
      5.59545      9.27090      7.68060        -0.083476      0.330244      0.229796
      3.67530      6.55540      9.60074        -0.194531     -0.271082     -0.214440
      5.59545      9.27091      0.00000        -0.665061     -0.450922     -0.690592
      3.67530      6.55540      1.92015        -0.190053      0.140298     -0.120145
      1.75515      3.83990      3.84030        -0.013809      0.134028     -0.039951
      7.51559      1.12440      5.76045        -0.013619      0.102558      0.023337
      5.59545     14.70190      7.68060        -0.190053      0.140298      0.120145
      3.67530     11.98640      9.60074        -0.609460      0.187473     -0.038176
      5.59545     14.70191      0.00000        -0.194531     -0.271082      0.214440
      3.67530     11.98640      1.92015        -0.067438      0.210032     -0.134112
      1.75515      9.27090      3.84030        -0.013619      0.102558     -0.023337
      7.51559      6.55540      5.76045        -0.004635      0.106425      0.053695
      5.59545      3.83990      7.68060        -0.067438      0.210032      0.134112
      3.67530      1.12440      9.60074        -0.665061     -0.450922      0.690592
      1.75515      3.83990      0.00000        -0.609460      0.187473      0.038176
      7.51559      1.12440      1.92015        -0.083476      0.330244     -0.229796
      5.59544     14.70190      3.84030        -0.004635      0.106425     -0.053695
      3.67530     11.98640      5.76045        -0.013809      0.134028      0.039951
      1.75515      9.27090      7.68060        -0.083476      0.330244      0.229796
      7.51559      6.55540      9.60074        -0.194531     -0.271082     -0.214440
[...]
      6.53744      3.19890     11.76468        -0.477638      0.232391     -1.032811
      4.61729     13.38203     14.59358         0.235108      0.092795     -0.549045
      2.69715      7.27215     17.42248        -0.011839     -0.006038     -0.498891
      4.61729     15.41865     13.17913        -0.011839     -0.006038      0.498891
      2.69715      9.30878     16.00803        -0.240410     -0.072926      0.555859
      0.77700      3.19890     18.83693         0.463231     -0.247534      1.002501
      4.61729      7.27215     13.17913         0.011298     -0.006787      0.674585
      2.69715      1.16228     16.00803         0.279837     -0.003423      0.612075
      0.77700     11.34540     18.83693        -0.477638      0.232391      1.032811
      0.77700     11.34540     13.17913        -0.202692      0.096081      0.257712
      6.53744      5.23553     16.00803         0.235108      0.092795      0.549045
      4.61729     15.41865     18.83693         0.038747     -0.030303      0.754455
      0.77700      3.19890     13.17913         0.205864     -0.081331      0.229195
      6.53744     13.38203     16.00803        -0.322533      0.006878      0.613111
      4.61729      7.27215     18.83693         0.046657     -0.012792      2.391331
    total drift:                               -0.424859     -0.184836      0.000092

  FREE ENERGIE OF THE ION-ELECTRON SYSTEM (eV)
  free  energy   TOTEN  =      -578.29997417 eV

  energy  without entropy=     -578.29762529  energy(sigma->0) =     -578.29879973