 vasp.6.4.3 19Mar24 (build Oct 22 2024 11:23:12) complex

 executed on             LinuxIFC date 2025.06.03  23:28:41

 INCAR:
   SYSTEM = Si and Ge interface calculation
   ISTART = 0
   ICHARG = 2
   LWAVE = .FALSE.
   LREAL = AUTO
   ENCUT = 700
   ENAUG = 900
   ADDGRID = .TRUE.
   LMAXMIX = 6
   LASPH = .TRUE.
   LMIXTAU = .TRUE.
   NCORE = 16
   NELM = 100
   NBANDS = 116
   EDIFF = 1d-7
   AMIX = 0.6
   ISMEAR = 0
   SIGMA = 0.01
   NELECT = 192
   ISPIN = 2
   NUPDOWN = 1
   LVTOT = .FALSE.
   LVHAR = .TRUE.

 POTCAR:    PAW_PBE Ge 05Jan2001
|           W    W    AA    RRRRR   N    N  II  N    N   GGGG   !!!           |
|           W    W   A  A   R    R  NN   N  II  NN   N  G    G  !!!           |
|           W    W  A    A  R    R  N N  N  II  N N  N  G       !!!           |
|           W WW W  AAAAAA  RRRRR   N  N N  II  N  N N  G  GGG   !            |
|           WW  WW  A    A  R   R   N   NN  II  N   NN  G    G                |
|           W    W  A    A  R    R  N    N  II  N    N   GGGG   !!!           |
|     You use a magnetic or noncollinear calculation, but did not specify     |
|     the initial magnetic moment with the MAGMOM tag. Note that a            |
|     default of 0.021 will be used for all atoms. This ferromagnetic         |
|     setup may break the symmetry of the crystal, in particular it may       |
|     rule out finding an antiferromagnetic solution. Thence, we              |
|     recommend setting the initial magnetic moment manually or verifying     |
|     carefully that this magnetic setup is desired.                          |

 POTCAR:    PAW_PBE Ge 05Jan2001
   VRHFIN =Ge: s2p2

   TITEL  = PAW_PBE Ge 05Jan2001
   POMASS =   72.610; ZVAL   =    4.000    mass and valenz
   ENMAX  =  173.807; ENMIN  =  130.355 eV

 Optimization of the real space projectors (new method)

 maximal supplied QI-value         = 16.25
 optimisation between [QCUT,QGAM] = [ 13.49, 26.98] = [ 50.95,203.80] Ry
 Optimized for a Real-space Cutoff    1.25 Angstroem

   l    n(q)    QCUT    max X(q) W(low)/X(q) W(high)/X(q)  e(spline)
   0     10    13.489    65.336    0.91E-04    0.11E-03    0.34E-06
   0     10    13.489    52.220    0.89E-04    0.11E-03    0.34E-06
   1     10    13.489    36.409    0.22E-03    0.27E-03    0.14E-06
   1     10    13.489    21.334    0.21E-03    0.27E-03    0.14E-06
   2      9    13.489     4.673    0.11E-03    0.12E-03    0.19E-06
  PAW_PBE Ge 05Jan2001                  :

 POSCAR: Ge+Ge
  positions in direct lattice

 exchange-correlation table for PE
   RHO(1)=    0.500       N(1)  =     2000
   RHO(2)=  100.500       N(2)  =     4000

 ion  position               nearest neighbor table
   1  0.994  0.994  0.000-  47 2.44  10 2.45  31 2.45
   2  0.828  0.828  0.244-  31 2.45  11 2.45  16 2.45  32 2.45
   3  0.661  0.661  0.487-  17 2.45  32 2.45  12 2.45  33 2.45
   4  0.328  0.328  0.000-  45 2.26  28 2.45  13 2.45  48 2.49  39 2.55
   5  0.161  0.161  0.244-  10 2.45  14 2.45  28 2.45  29 2.45
   6  0.994  0.994  0.487-  11 2.45  30 2.45  29 2.45  15 2.45  37 2.59
   7  0.661  0.661  0.000-  34 2.45  16 2.45  42 2.54
   8  0.494  0.494  0.244-  13 2.45  34 2.45  35 2.45  17 2.45
   9  0.328  0.328  0.487-  14 2.45  35 2.45  36 2.45  18 2.45
  10  0.244  0.994  0.122-  20 2.45  19 2.45   5 2.45   1 2.45
  11  0.078  0.828  0.365-   6 2.45   2 2.45  20 2.45  21 2.45
  12  0.911  0.661  0.609-  21 2.45   3 2.45  43 2.55
  13  0.578  0.328  0.122-   8 2.45  26 2.45  25 2.45   4 2.45  48 2.60
  14  0.411  0.161  0.365-   9 2.45  27 2.45   5 2.45  26 2.45
  15  0.244  0.994  0.609-  37 2.26  27 2.45   6 2.45  40 2.49  46 2.54
  16  0.911  0.661  0.122-  23 2.45  22 2.45   7 2.45   2 2.45
  17  0.744  0.494  0.365-   3 2.45  24 2.45  23 2.45   8 2.45
  18  0.578  0.328  0.609-  38 2.43  24 2.45   9 2.45
  19  0.494  0.994  0.000-  44 2.44  10 2.45  31 2.45
  20  0.328  0.828  0.244-  10 2.45  11 2.45  32 2.45  34 2.45
  21  0.161  0.661  0.487-  35 2.45  12 2.45  11 2.45  33 2.45
  22  0.161  0.661  0.000-  34 2.45  16 2.45  39 2.54
  23  0.994  0.494  0.244-  28 2.45  35 2.45  16 2.45  17 2.45
  24  0.828  0.328  0.487-  29 2.45  17 2.45  36 2.45  18 2.45
  25  0.828  0.328  0.000-  48 2.26  13 2.45  28 2.45  45 2.49  42 2.55
  26  0.661  0.161  0.244-  13 2.45  31 2.45  29 2.45  14 2.45
  27  0.494  0.994  0.487-  14 2.45  32 2.45  15 2.45  30 2.45  40 2.59
  28  0.078  0.328  0.122-  23 2.45   4 2.45   5 2.45  25 2.45  45 2.60
  29  0.911  0.161  0.365-  24 2.45  26 2.45   5 2.45   6 2.45
  30  0.744  0.994  0.609-  40 2.26   6 2.45  27 2.45  37 2.49  43 2.54
  31  0.744  0.994  0.122-   2 2.45  26 2.45   1 2.45  19 2.45
  32  0.578  0.828  0.365-  27 2.45   3 2.45  20 2.45   2 2.45
  33  0.411  0.661  0.609-  21 2.45   3 2.45  46 2.55
  34  0.411  0.661  0.122-   7 2.45  22 2.45   8 2.45  20 2.45
  35  0.244  0.494  0.365-  23 2.45   9 2.45   8 2.45  21 2.45
  36  0.078  0.328  0.609-  41 2.43  24 2.45   9 2.45
  37  0.039  0.939  0.703-  15 2.26  46 2.45  43 2.45  47 2.45  30 2.49   6 2.59
  38  0.650  0.217  0.784-  18 2.43  47 2.45  44 2.45  48 2.45
  39  0.261  0.495  0.865-  48 2.45  45 2.45  22 2.54   4 2.55
  40  0.539  0.939  0.703-  30 2.26  43 2.45  46 2.45  44 2.45  15 2.49  27 2.59
  41  0.150  0.217  0.784-  36 2.43  44 2.45  47 2.45  45 2.45
  42  0.761  0.495  0.865-  45 2.45  48 2.45   7 2.54  25 2.55
  43  0.844  0.828  0.744-  40 2.45  37 2.45  30 2.54  12 2.55
  44  0.455  0.106  0.825-  19 2.44  40 2.45  41 2.45  38 2.45
  45  0.067  0.384  0.906-   4 2.26  42 2.45  41 2.45  39 2.45  25 2.49  28 2.60
  46  0.344  0.828  0.744-  37 2.45  40 2.45  15 2.54  33 2.55
  47  0.955  0.106  0.825-   1 2.44  37 2.45  38 2.45  41 2.45
  48  0.567  0.384  0.906-  25 2.26  39 2.45  42 2.45  38 2.45   4 2.49  13 2.60

  LATTYP: Found a base centered orthorhombic cell.
 ALAT       =     8.0013380050
 B/A-ratio  =     2.9999998809
 C/A-ratio  =     1.4512252725

  Lattice vectors:

 A1 = (   4.0006690020, -12.0020065310,   0.0000000000)
 A2 = (   4.0006690030,  12.0020065310,   0.0000000000)
 A3 = (   0.0000000000,   0.0000000000,  11.6117439270)

Analysis of symmetry for initial positions (statically):
 Subroutine PRICEL returns following result:

  LATTYP: Found a simple orthorhombic cell.
 ALAT       =     4.0006685304
 B/A-ratio  =     2.9024508876
 C/A-ratio  =     3.0000002349

[...]

   2 primitive cells build up your supercell.

 Routine SETGRP: Setting up the symmetry group for a
 base centered orthorhombic supercell.

 Subroutine GETGRP returns: Found  1 space group operations
 (whereof  1 operations were pure point group operations)
 out of a pool of  8 trial point group operations.

The static configuration has the point symmetry C_1 .

Analysis of symmetry for dynamics (positions and initial velocities):
 Subroutine PRICEL returns following result:

[...]

The dynamic configuration has the point symmetry C_1 .

Analysis of structural, dynamic, and magnetic symmetry:
 Subroutine PRICEL returns following result:

  LATTYP: Found a simple orthorhombic cell.
 ALAT       =     4.0006685304
 B/A-ratio  =     2.9024508876
 C/A-ratio  =     3.0000002349

  Lattice vectors:

 A1 = (  -4.0006685304,   0.0000000000,   0.0000000000)
 A2 = (   0.0000000000,   0.0000000000,  11.6117439270)
 A3 = (   0.0000004726,  12.0020065310,   0.0000000000)

   2 primitive cells build up your supercell.

 Routine SETGRP: Setting up the symmetry group for a
 base centered orthorhombic supercell.

 Subroutine GETGRP returns: Found  1 space group operations
 (whereof  1 operations were pure point group operations)
 out of a pool of  8 trial point group operations.

The overall configuration has the point symmetry C_1 .

 Subroutine INISYM returns: Found  1 space group operations
 (whereof  1 operations are pure point group operations),
 and found     2 'primitive' translations

                                     Primitive cell

  volume of cell :     557.5501

  direct lattice vectors                    reciprocal lattice vectors
    -4.000668530  0.000000000  0.000000000    -0.249958224  0.000000010  0.000000000
     0.000000000  0.000000000 11.611743927     0.000000000  0.000000000  0.086119708
     0.000000473 12.002006531  0.000000000     0.000000000  0.083319401  0.000000000

  length of vectors
     4.000668530 11.611743927 12.002006531     0.249958224  0.086119708  0.083319401

  position of ions in fractional coordinates (direct lattice)
     0.017083292  0.000000000  0.994305491
     0.517083210  0.243624032  0.827638865
     0.017083666  0.487248093  0.660972118
     0.017083480  0.000000000  0.327638835
     0.517083518  0.243624032  0.160972148
     0.017083469  0.487248093  0.994305432
     0.017083488  0.000000000  0.660972118
     0.517083321  0.243624032  0.494305462
     0.017083420  0.487248093  0.327638775
     0.517083497  0.121812016  0.994305491
     0.017083537  0.365436077  0.827638865
     0.517083431  0.609060228  0.660972118
     0.517083493  0.121812016  0.327638835
     0.017083401  0.365436077  0.160972148
     0.517083646  0.609060228  0.994305432
     0.517083311  0.121812016  0.660972118
     0.017083646  0.365436077  0.494305402
     0.517083776  0.609060228  0.327638716
     0.983171573  0.703020036  0.939236522
     0.483171546  0.784228086  0.217014313
     0.983171403  0.865436137  0.494792223
     0.483171384  0.743624091  0.828125477
     0.983171356  0.824832141  0.105903149
     0.483171923  0.906040192  0.383681059

  ion indices of the primitive-cell ions
   primitive index   ion index
                 1           1
                 2           2
                 3          21
                 4          25
                 5           5
                 6           6
                 7          22
                 8          23
                 9          24
                10          10
                11          11
                12          12
                13          28
                14          29
                15          15
                16          16
                17          35
                18          36
                19          37
                20          41
                21          42
                22          43
                23          47
                24          45

 KPOINTS: Automatic KPOINTS generated

Automatic generation of k-mesh.
 Grid dimensions read from file:
 generate k-points for:    4    3    3

 Generating k-lattice:

  Cartesian coordinates                     Fractional coordinates (reciprocal lattice)
     0.031244774 -0.010414925  0.000000000     0.250000000  0.000000000  0.000000000
     0.000000000  0.027773134  0.000000000     0.000000000  0.333333333  0.000000000
     0.000000000  0.000000000  0.028706569     0.000000000  0.000000000  0.333333333

  Length of vectors
     0.032934884  0.027773134  0.028706569

  Shift w.r.t. Gamma in fractional coordinates (k-lattice)
     0.000000000  0.000000000  0.000000000

 WARNING: IBZKPT: internal override: KBLOWUP is changed to .FALSE.
      ... skipping the blow-up phase ...

 Subroutine IBZKPT returns following result:

 Found     19 irreducible k-points:

[...]
     42      -2.5877      1.00000
     43      -2.4316      1.00000
     44      -2.1408      1.00000
     45      -2.0662      1.00000
     46      -1.6974      1.00000
     47      -1.3913      1.00000
     48      -1.1634      1.00000
     49      -0.9935      1.00000
     50      -0.7850      1.00000
     51      -0.6127      1.00000
     52      -0.5434      1.00000
     53      -0.4970      1.00000
     54      -0.4072      1.00000
     55      -0.3801      1.00000
     56      -0.2802      1.00000
     57      -0.1558      1.00000
     58      -0.0254      1.00000
     59       0.0179      1.00000
     60       0.0857      1.00000
[...]
    102       4.3104      0.00000
    103       4.3703      0.00000
    104       4.4990      0.00000
    105       4.5719      0.00000
    106       4.6588      0.00000
    107       4.8668      0.00000
    108       4.8917      0.00000
    109       5.0313      0.00000
    110       5.1998      0.00000
    111       5.2843      0.00000
    112       5.3516      0.00000
    113       5.3937      0.00000
    114       5.4676      0.00000
    115       5.5508      0.00000
    116       5.5959      0.00000
 Fermi energy:         3.3323825302

 spin component 2

[...]

 k-point    19 :      -0.2500   -0.3333    0.3333
  band No.  band energies     occupation
      1     -10.0934      1.00000
      2      -9.9559      1.00000
      3      -8.9826      1.00000
      4      -8.8615      1.00000
      5      -8.6382      1.00000
      6      -8.2958      1.00000
      7      -7.7998      1.00000
      8      -7.6924      1.00000
      9      -7.5044      1.00000
     10      -7.4495      1.00000
     11      -7.3250      1.00000
     12      -7.2482      1.00000
     13      -6.9991      1.00000
     14      -6.9423      1.00000
     15      -6.8078      1.00000
     16      -6.7307      1.00000
     17      -6.6591      1.00000
     18      -6.5607      1.00000
     19      -6.4562      1.00000
     20      -6.1323      1.00000
     21      -6.0363      1.00000
     22      -5.8110      1.00000
     23      -5.7259      1.00000
     24      -5.5426      1.00000
     25      -5.3319      1.00000
     26      -4.9229      1.00000
     27      -4.7448      1.00000
     28      -4.6946      1.00000
     29      -4.3791      1.00000
     30      -4.2895      1.00000
     31      -4.2546      1.00000
     32      -4.1398      1.00000
     33      -3.9367      1.00000
     34      -3.9272      1.00000
     35      -3.5949      1.00000
     36      -3.5856      1.00000
     37      -3.4368      1.00000
     38      -3.3084      1.00000
     39      -3.1226      1.00000
     40      -2.9614      1.00000
     41      -2.8011      1.00000
     42      -2.5677      1.00000
     43      -2.4134      1.00000
     44      -2.1187      1.00000
     45      -2.0460      1.00000
     46      -1.6760      1.00000
     47      -1.3741      1.00000
     48      -1.1425      1.00000
     49      -0.9781      1.00000
     50      -0.7681      1.00000
     51      -0.5926      1.00000
     52      -0.5274      1.00000
     53      -0.4802      1.00000
     54      -0.3880      1.00000
     55      -0.3636      1.00000
     56      -0.2622      1.00000
     57      -0.1428      1.00000
     58      -0.0089      1.00000
     59       0.0353      1.00000
     60       0.1033      1.00000
[...]
    102       4.3345      0.00000
    103       4.3980      0.00000
    104       4.5181      0.00000
    105       4.5961      0.00000
    106       4.6760      0.00000
    107       4.8825      0.00000
    108       4.9083      0.00000
    109       5.0492      0.00000
    110       5.2194      0.00000
    111       5.3031      0.00000
    112       5.3693      0.00000
    113       5.4134      0.00000
    114       5.4850      0.00000
    115       5.5694      0.00000
    116       5.6145      0.00000

 soft charge-density along one line, spin component           1
         0         1         2         3         4         5         6         7         8         9
 total charge-density along one line

 soft charge-density along one line, spin component           2
         0         1         2         3         4         5         6         7         8         9
 total charge-density along one line

------------------------ aborting loop because EDIFF is reached ----------------------------------------

  FORCE on cell =-STRESS in cart. coord.  units (eV):
  Direction    XX          YY          ZZ          XY          YZ          ZX
  Alpha Z   394.91413   394.91413   394.91413
  Ewald   -1218.75440 -1984.89594 -1762.67642    -0.13098    92.36510    -0.03773
  Hartree   395.41001    55.08596   142.35670    -0.02450   121.17439    -0.00459
  E(xc)    -664.86948  -661.25660  -662.13214     0.00056     0.76021     0.00503
  Local   -1313.83755  -240.80970  -537.99461     0.13459  -231.48657     0.07917
  n-local   976.45844   940.71129   950.21165    -0.00437    -6.55774     0.04048
  augment    59.62931    59.46593    59.58332    -0.00157    -0.72659     0.00169
  Kinetic  1457.41185  1463.31589  1468.18876     0.00591    14.72650    -0.07751
  Fock        0.00000     0.00000     0.00000     0.00000     0.00000     0.00000
  Total      86.36231    26.53097    52.45138    -0.02037    -9.74471     0.00654
  in kB     124.08546    38.11972    75.36219    -0.02926   -14.00120     0.00940

 VOLUME and BASIS-vectors are now :
  energy-cutoff  :      700.00
  volume of cell :     1115.10
      direct lattice vectors                 reciprocal lattice vectors
     8.001338005  0.000000000  0.000000000     0.124979097 -0.041659701  0.000000000
     4.000669003 12.002006531  0.000000000     0.000000000  0.083319401  0.000000000
     0.000000000  0.000000000 11.611743927     0.000000000  0.000000000  0.086119708

  length of vectors
     8.001338005 12.651225760 11.611743927     0.131739536  0.083319401  0.086119708

 FORCES acting on ions
    electron-ion (+dipol)            ewald-force                    non-local-force                 convergence-correction
   0.106E+01 0.329E+02 0.439E+01   -.989E+00 -.340E+02 -.429E+01   -.423E-01 0.444E+00 0.790E-01   0.147E-05 0.852E-04 0.106E-03
   0.283E-01 0.537E+01 0.137E+02   0.442E-02 -.553E+01 -.134E+02   0.213E-02 0.156E+00 -.206E+00   -.842E-06 0.874E-04 -.933E-05
   -.159E+00 0.142E+02 -.170E+02   0.729E-01 -.142E+02 0.176E+02   0.449E-01 -.114E+00 -.337E+00   0.358E-05 -.901E-04 -.143E-03
   -.474E+01 0.142E+02 -.118E+02   0.535E+01 -.158E+02 0.119E+02   0.100E+01 -.460E+00 0.202E+01   -.118E-05 -.146E-03 0.878E-04
   -.237E-01 0.338E+01 0.349E+00   -.752E-02 -.391E+01 -.244E+00   0.356E-01 0.287E+00 -.582E-01   -.206E-05 -.970E-05 0.551E-04
   0.540E+00 -.321E+01 0.211E+02   -.705E+00 0.290E+01 -.219E+02   0.245E-01 0.231E+00 -.541E+00   -.103E-05 0.185E-03 -.105E-03
   0.733E+00 -.322E+02 0.341E+02   -.639E+00 0.326E+02 -.348E+02   -.244E-01 -.190E+00 0.214E+00   0.875E-06 0.447E-04 0.959E-04
   -.927E-02 -.944E+01 -.692E+01   -.211E-01 0.980E+01 0.704E+01   0.726E-02 -.332E+00 0.502E-01   -.228E-06 -.855E-04 0.105E-03
   -.194E+00 -.156E+02 -.120E+02   0.880E-01 0.154E+02 0.123E+02   0.448E-01 0.650E-01 0.133E+00   -.119E-05 -.104E-03 -.693E-05
   -.198E+00 0.156E+02 0.120E+02   0.874E-01 -.154E+02 -.123E+02   0.813E-01 -.668E-01 -.106E+00   0.641E-06 0.802E-04 0.292E-04
   -.115E-01 0.944E+01 0.686E+01   -.207E-01 -.981E+01 -.698E+01   0.222E-01 0.357E+00 -.482E-01   0.144E-05 0.982E-04 -.122E-03
   0.722E+00 0.318E+02 -.343E+02   -.626E+00 -.322E+02 0.350E+02   -.297E-03 0.216E+00 -.185E+00   0.288E-05 -.544E-04 -.904E-04
   0.541E+00 0.335E+01 -.210E+02   -.702E+00 -.305E+01 0.218E+02   0.500E-01 -.232E+00 0.558E+00   -.547E-05 -.144E-03 0.129E-03
   -.170E-01 -.335E+01 -.286E+00   -.775E-02 0.388E+01 0.178E+00   0.469E-01 -.261E+00 0.654E-01   -.841E-06 0.300E-04 -.851E-05
   -.477E+01 -.141E+02 0.119E+02   0.539E+01 0.157E+02 -.120E+02   0.105E+01 0.482E+00 -.204E+01   -.543E-06 0.189E-03 -.913E-04
   -.159E+00 -.143E+02 0.169E+02   0.737E-01 0.143E+02 -.175E+02   0.684E-01 0.113E+00 0.355E+00   -.175E-05 0.674E-04 0.106E-03
   0.284E-01 -.541E+01 -.137E+02   0.447E-02 0.557E+01 0.135E+02   0.172E-01 -.132E+00 0.210E+00   -.209E-06 -.114E-03 -.880E-05
   0.107E+01 -.330E+02 -.415E+01   -.100E+01 0.340E+02 0.404E+01   -.106E-01 -.427E+00 -.882E-01   -.357E-06 -.106E-03 -.115E-03
   0.106E+01 0.329E+02 0.439E+01   -.989E+00 -.340E+02 -.429E+01   -.423E-01 0.444E+00 0.790E-01   -.768E-06 0.834E-04 0.105E-03
   0.283E-01 0.537E+01 0.137E+02   0.446E-02 -.553E+01 -.134E+02   0.213E-02 0.156E+00 -.206E+00   0.181E-06 0.870E-04 -.109E-04
   -.159E+00 0.142E+02 -.170E+02   0.729E-01 -.142E+02 0.176E+02   0.449E-01 -.114E+00 -.337E+00   -.716E-05 -.900E-04 -.143E-03
   0.733E+00 -.322E+02 0.341E+02   -.640E+00 0.326E+02 -.348E+02   -.244E-01 -.190E+00 0.214E+00   0.441E-05 0.429E-04 0.977E-04
   -.924E-02 -.944E+01 -.692E+01   -.211E-01 0.980E+01 0.704E+01   0.726E-02 -.332E+00 0.502E-01   -.572E-06 -.867E-04 0.107E-03
   -.194E+00 -.156E+02 -.120E+02   0.879E-01 0.154E+02 0.123E+02   0.448E-01 0.650E-01 0.133E+00   -.391E-06 -.104E-03 -.780E-05
   -.474E+01 0.142E+02 -.118E+02   0.535E+01 -.158E+02 0.119E+02   0.100E+01 -.460E+00 0.202E+01   -.164E-06 -.145E-03 0.878E-04
   -.237E-01 0.338E+01 0.348E+00   -.751E-02 -.391E+01 -.244E+00   0.356E-01 0.287E+00 -.582E-01   -.134E-05 -.830E-05 0.547E-04
   0.540E+00 -.321E+01 0.211E+02   -.705E+00 0.290E+01 -.219E+02   0.245E-01 0.231E+00 -.541E+00   -.492E-05 0.185E-03 -.104E-03
   0.541E+00 0.335E+01 -.210E+02   -.702E+00 -.305E+01 0.218E+02   0.500E-01 -.232E+00 0.558E+00   -.335E-05 -.146E-03 0.128E-03
   -.170E-01 -.335E+01 -.286E+00   -.777E-02 0.388E+01 0.178E+00   0.469E-01 -.261E+00 0.654E-01   0.152E-05 0.304E-04 -.841E-05
   -.477E+01 -.141E+02 0.119E+02   0.539E+01 0.157E+02 -.120E+02   0.105E+01 0.482E+00 -.204E+01   -.473E-06 0.189E-03 -.931E-04
   -.198E+00 0.156E+02 0.120E+02   0.874E-01 -.154E+02 -.123E+02   0.813E-01 -.668E-01 -.106E+00   -.322E-05 0.811E-04 0.281E-04
   -.115E-01 0.944E+01 0.686E+01   -.207E-01 -.981E+01 -.698E+01   0.222E-01 0.357E+00 -.482E-01   -.298E-06 0.983E-04 -.122E-03
   0.722E+00 0.318E+02 -.343E+02   -.626E+00 -.322E+02 0.350E+02   -.297E-03 0.216E+00 -.185E+00   0.387E-05 -.489E-04 -.916E-04
   -.159E+00 -.143E+02 0.169E+02   0.737E-01 0.143E+02 -.175E+02   0.684E-01 0.113E+00 0.355E+00   0.131E-05 0.668E-04 0.107E-03
   0.284E-01 -.541E+01 -.137E+02   0.451E-02 0.557E+01 0.135E+02   0.172E-01 -.132E+00 0.210E+00   0.728E-06 -.114E-03 -.880E-05
   0.107E+01 -.330E+02 -.415E+01   -.100E+01 0.340E+02 0.404E+01   -.106E-01 -.427E+00 -.882E-01   -.952E-06 -.104E-03 -.113E-03
   0.466E+01 0.335E+02 -.316E+02   -.508E+01 -.340E+02 0.331E+02   -.100E+01 -.608E+00 0.880E+00   0.654E-05 0.184E-03 -.270E-04
   -.593E+00 -.400E+01 0.129E+02   0.621E+00 0.372E+01 -.131E+02   -.120E+00 -.368E+00 -.178E+00   -.103E-05 -.299E-05 -.102E-03
   -.141E+01 -.558E+02 0.508E+02   0.127E+01 0.563E+02 -.527E+02   0.315E-01 0.116E+01 0.995E+00   -.241E-05 -.781E-04 -.291E-04
   0.466E+01 0.335E+02 -.316E+02   -.508E+01 -.340E+02 0.331E+02   -.100E+01 -.608E+00 0.880E+00   0.667E-06 0.182E-03 -.252E-04
   -.593E+00 -.400E+01 0.129E+02   0.621E+00 0.372E+01 -.131E+02   -.120E+00 -.368E+00 -.178E+00   -.553E-06 -.332E-05 -.101E-03
   -.141E+01 -.558E+02 0.508E+02   0.127E+01 0.563E+02 -.527E+02   0.315E-01 0.116E+01 0.995E+00   0.129E-05 -.750E-04 -.300E-04
   -.142E+01 0.562E+02 -.508E+02   0.127E+01 -.567E+02 0.527E+02   0.438E-01 -.119E+01 -.100E+01   -.988E-06 0.976E-04 0.542E-04
   -.614E+00 0.412E+01 -.130E+02   0.614E+00 -.386E+01 0.132E+02   -.856E-01 0.373E+00 0.221E+00   -.253E-05 0.152E-04 0.373E-04
   0.463E+01 -.337E+02 0.315E+02   -.504E+01 0.342E+02 -.330E+02   -.101E+01 0.601E+00 -.863E+00   0.471E-05 -.152E-03 0.638E-05
   -.142E+01 0.562E+02 -.508E+02   0.127E+01 -.567E+02 0.527E+02   0.438E-01 -.119E+01 -.100E+01   0.167E-05 0.104E-03 0.573E-04
   -.614E+00 0.412E+01 -.130E+02   0.614E+00 -.386E+01 0.132E+02   -.856E-01 0.373E+00 0.221E+00   0.178E-05 0.160E-04 0.350E-04
   0.463E+01 -.337E+02 0.315E+02   -.504E+01 0.342E+02 -.330E+02   -.101E+01 0.601E+00 -.863E+00   0.353E-05 -.151E-03 0.870E-05
   -.610E+00 -.118E+00 -.523E-01   0.799E-14 -.142E-13 0.639E-13   0.567E+00 0.215E+00 0.257E+00   -.371E-05 0.166E-03 -.874E-04

 POSITION                                       TOTAL-FORCE (eV/Angst)
     11.93366     11.93366      0.00000         0.028442     -0.611504      0.169143
      9.93333      9.93333      2.82890         0.035783     -0.009703      0.008203
      7.93299      7.93299      5.65780        -0.039911     -0.101387      0.234138
      3.93232      3.93232      0.00000         1.619910     -2.101267      2.083601
      1.93199      1.93199      2.82890         0.005260     -0.250927      0.041873
     11.93366     11.93366      5.65780        -0.139632     -0.075162     -1.319786
      7.93299      7.93299      0.00000         0.069622      0.190738     -0.438670
      5.93266      5.93266      2.82890        -0.022183      0.026886      0.165435
      3.93232      3.93232      5.65780        -0.060533     -0.110548      0.437962
      5.93266     11.93366      1.41445        -0.028615      0.102321     -0.417676
      3.93232      9.93333      4.24335        -0.009057     -0.010655     -0.168708
      9.93333      7.93299      7.07225         0.096698     -0.169991      0.475340
      5.93266      3.93232      1.41445        -0.110367      0.073319      1.321752
      3.93232      1.93199      4.24335         0.023011      0.269312     -0.046396
      5.93266     11.93366      7.07225         1.665961      2.106300     -2.145204
      9.93333      7.93299      1.41445        -0.016025      0.098406     -0.221369
      7.93299      5.93266      4.24335         0.050978      0.030052     -0.014367
      5.93266      3.93232      7.07225         0.056212      0.625299     -0.204457
      7.93299     11.93366      0.00000         0.028442     -0.611504      0.169143
      5.93266      9.93333      2.82890         0.035783     -0.009703      0.008203
      3.93232      7.93299      5.65780        -0.039911     -0.101387      0.234138
      3.93232      7.93299      0.00000         0.069622      0.190738     -0.438670
      9.93333      5.93266      2.82890        -0.022183      0.026886      0.165435
      7.93299      3.93232      5.65780        -0.060533     -0.110548      0.437962
      7.93299      3.93232      0.00000         1.619910     -2.101267      2.083601
      5.93266      1.93199      2.82890         0.005260     -0.250927      0.041873
      7.93299     11.93366      5.65780        -0.139632     -0.075162     -1.319786
      1.93199      3.93232      1.41445        -0.110367      0.073319      1.321752
      7.93299      1.93199      4.24335         0.023011      0.269312     -0.046396
      9.93333     11.93366      7.07225         1.665961      2.106300     -2.145204
      9.93333     11.93366      1.41445        -0.028615      0.102321     -0.417676
      7.93299      9.93333      4.24335        -0.009057     -0.010655     -0.168708
      5.93266      7.93299      7.07225         0.096698     -0.169991      0.475340
      5.93266      7.93299      1.41445        -0.016025      0.098406     -0.221369
      3.93232      5.93266      4.24335         0.050978      0.030052     -0.014367
      1.93199      3.93232      7.07225         0.056212      0.625299     -0.204457
      4.06799     11.27272      8.16329        -1.419887     -1.113087      2.377003
      6.06833      2.60461      9.10626        -0.091449     -0.646198     -0.381177
      4.06799      5.93850     10.04922        -0.107533      1.671513     -0.947221
      8.06866     11.27272      8.16329        -1.419887     -1.113087      2.377003
      2.06766      2.60461      9.10626        -0.091449     -0.646198     -0.381177
      8.06866      5.93850     10.04922        -0.107533      1.671513     -0.947221
     10.06900      9.93917      8.63477        -0.102017     -1.737643      0.940618
      4.06799      1.27105      9.57774        -0.084369      0.634215      0.410078
      2.06766      4.60494     10.52071        -1.420296      1.109712     -2.360118
      6.06833      9.93917      8.63477        -0.102017     -1.737643      0.940618
      8.06866      1.27105      9.57774        -0.084369      0.634215      0.410078
      6.06833      4.60494     10.52071        -1.420296      1.109712     -2.360118
    total drift:                               -0.042911      0.096613      0.204433

  FREE ENERGIE OF THE ION-ELECTRON SYSTEM (eV)
  free  energy   TOTEN  =      -196.61227838 eV

  energy  without entropy=     -196.61134451  energy(sigma->0) =     -196.61181144