 vasp.6.4.3 19Mar24 (build Oct 22 2024 11:23:12) complex

 executed on             LinuxIFC date 2025.04.30  10:00:56

 INCAR:
   SYSTEM = Si011 and Ge011 interface calculation
   ISTART = 0
   ICHARG = 2
   LWAVE = .FALSE.
   LREAL = AUTO
   ENCUT = 700
   ENAUG = 900
   ADDGRID = .TRUE.
   LMAXMIX = 6
   LASPH = .TRUE.
   LMIXTAU = .TRUE.
   NCORE = 16
   NELM = 100
   NBANDS = 116
   EDIFF = 1d-7
   AMIX = 0.6
   ISMEAR = 0
   SIGMA = 0.01
   NELECT = 192
   ISPIN = 2
   NUPDOWN = 1
   LVTOT = .FALSE.
   LVHAR = .TRUE.

 POTCAR:    PAW_PBE Si 05Jan2001
 POTCAR:    PAW_PBE Ge 05Jan2001
|           W    W    AA    RRRRR   N    N  II  N    N   GGGG   !!!           |
|           W    W   A  A   R    R  NN   N  II  NN   N  G    G  !!!           |
|           W    W  A    A  R    R  N N  N  II  N N  N  G       !!!           |
|           W WW W  AAAAAA  RRRRR   N  N N  II  N  N N  G  GGG   !            |
|           WW  WW  A    A  R   R   N   NN  II  N   NN  G    G                |
|           W    W  A    A  R    R  N    N  II  N    N   GGGG   !!!           |
|     You use a magnetic or noncollinear calculation, but did not specify     |
|     the initial magnetic moment with the MAGMOM tag. Note that a            |
|     default of 0.021 will be used for all atoms. This ferromagnetic         |
|     setup may break the symmetry of the crystal, in particular it may       |
|     rule out finding an antiferromagnetic solution. Thence, we              |
|     recommend setting the initial magnetic moment manually or verifying     |
|     carefully that this magnetic setup is desired.                          |

 POTCAR:    PAW_PBE Si 05Jan2001
   VRHFIN =Si: s2p2

   TITEL  = PAW_PBE Si 05Jan2001
   POMASS =   28.085; ZVAL   =    4.000    mass and valenz
   ENMAX  =  245.345; ENMIN  =  184.009 eV

 POTCAR:    PAW_PBE Ge 05Jan2001
   VRHFIN =Ge: s2p2

   TITEL  = PAW_PBE Ge 05Jan2001
   POMASS =   72.610; ZVAL   =    4.000    mass and valenz
   ENMAX  =  173.807; ENMIN  =  130.355 eV

 Optimization of the real space projectors (new method)

 maximal supplied QI-value         = 19.84
 optimisation between [QCUT,QGAM] = [ 13.49, 26.99] = [ 50.98,203.92] Ry
 Optimized for a Real-space Cutoff    1.07 Angstroem

   l    n(q)    QCUT    max X(q) W(low)/X(q) W(high)/X(q)  e(spline)
   0      9    13.493   159.560    0.22E-03    0.15E-03    0.72E-07
   0      9    13.493   115.863    0.21E-03    0.15E-03    0.71E-07
   1      8    13.493    88.339    0.15E-03    0.11E-03    0.13E-06
   1      8    13.493    48.592    0.15E-03    0.10E-03    0.13E-06
 Optimization of the real space projectors (new method)

 maximal supplied QI-value         = 16.25
 optimisation between [QCUT,QGAM] = [ 13.49, 26.98] = [ 50.95,203.80] Ry
 Optimized for a Real-space Cutoff    1.25 Angstroem

   l    n(q)    QCUT    max X(q) W(low)/X(q) W(high)/X(q)  e(spline)
   0     10    13.489    65.336    0.91E-04    0.11E-03    0.34E-06
   0     10    13.489    52.220    0.89E-04    0.11E-03    0.34E-06
   1     10    13.489    36.409    0.22E-03    0.27E-03    0.14E-06
   1     10    13.489    21.334    0.21E-03    0.27E-03    0.14E-06
   2      9    13.489     4.673    0.11E-03    0.12E-03    0.19E-06
  PAW_PBE Si 05Jan2001                  :
  PAW_PBE Ge 05Jan2001                  :

 POSCAR: fcc Si+fcc Ge
  positions in direct lattice

 exchange-correlation table for PE
   RHO(1)=    0.500       N(1)  =     2000
   RHO(2)=  100.500       N(2)  =     4000

 ion  position               nearest neighbor table
   1  0.861  0.021  0.905-  30 2.37  36 2.37  29 2.43  42 2.47  13 2.95
   2  0.250  0.750  0.080-  19 2.37  14 2.37  20 2.37  15 2.37
   3  0.500  0.500  0.160-  16 2.37  15 2.37  21 2.37  20 2.37
   4  0.750  0.250  0.239-  21 2.37  16 2.37  22 2.37  17 2.37
   5  0.000  0.000  0.319-  18 2.37  17 2.37  23 2.37  22 2.37
   6  0.111  0.771  0.493-  25 2.37  31 2.37  32 2.43  37 2.47  18 2.95
   7  0.361  0.521  0.905-  36 2.37  30 2.37  35 2.43  48 2.47  19 2.95
   8  0.750  0.250  0.080-  13 2.37  20 2.37  14 2.37  21 2.37
   9  0.000  0.000  0.160-  22 2.37  21 2.37  15 2.37  14 2.37
  10  0.250  0.750  0.239-  15 2.37  22 2.37  16 2.37  23 2.37
  11  0.500  0.500  0.319-  24 2.37  23 2.37  17 2.37  16 2.37
  12  0.611  0.271  0.493-  31 2.37  25 2.37  26 2.43  43 2.47  24 2.95
  13  0.000  0.250  0.000-   8 2.37  42 2.37  48 2.37  30 2.47   1 2.95
  14  0.250  0.000  0.080-  42 2.37   8 2.37   2 2.37   9 2.37
  15  0.500  0.750  0.160-  10 2.37   9 2.37   3 2.37   2 2.37
  16  0.750  0.500  0.239-   3 2.37   4 2.37  10 2.37  11 2.37
  17  0.000  0.250  0.319-  43 2.37  11 2.37   5 2.37   4 2.37
  18  0.250  0.000  0.399-   5 2.37  37 2.37  43 2.37  25 2.47   6 2.95
  19  0.500  0.750  0.000-   2 2.37  42 2.37  48 2.37  36 2.47   7 2.95
  20  0.750  0.500  0.080-  48 2.37   8 2.37   2 2.37   3 2.37
  21  0.000  0.250  0.160-   4 2.37   3 2.37   9 2.37   8 2.37
  22  0.250  0.000  0.239-   9 2.37   4 2.37  10 2.37   5 2.37
  23  0.500  0.750  0.319-  37 2.37  11 2.37   5 2.37  10 2.37
  24  0.750  0.500  0.399-  11 2.37  37 2.37  43 2.37  31 2.47  12 2.95
  25  0.111  0.021  0.493-   6 2.37  12 2.37  38 2.43  18 2.47
  26  0.861  0.271  0.576-  38 2.37  44 2.37  39 2.43  12 2.43
  27  0.611  0.521  0.658-  39 2.37  45 2.37  44 2.43  40 2.43
  28  0.361  0.771  0.741-  40 2.37  46 2.37  41 2.43  45 2.43
  29  0.111  0.021  0.823-  41 2.37  47 2.37  46 2.43   1 2.43
  30  0.861  0.271  0.905-   1 2.37   7 2.37  47 2.43  13 2.47
  31  0.611  0.521  0.493-   6 2.37  12 2.37  44 2.43  24 2.47
  32  0.361  0.771  0.576-  38 2.37  44 2.37   6 2.43  45 2.43
  33  0.111  0.021  0.658-  39 2.37  45 2.37  38 2.43  46 2.43
  34  0.861  0.271  0.741-  40 2.37  46 2.37  47 2.43  39 2.43
  35  0.611  0.521  0.823-  41 2.37  47 2.37   7 2.43  40 2.43
  36  0.361  0.771  0.905-   1 2.37   7 2.37  41 2.43  19 2.47
  37  0.250  0.750  0.399-  23 2.37  18 2.37  24 2.37   6 2.47
  38  0.861  0.021  0.576-  26 2.37  32 2.37  33 2.43  25 2.43
  39  0.611  0.271  0.658-  27 2.37  33 2.37  26 2.43  34 2.43
  40  0.361  0.521  0.741-  28 2.37  34 2.37  35 2.43  27 2.43
  41  0.111  0.771  0.823-  29 2.37  35 2.37  36 2.43  28 2.43
  42  0.000  0.000  0.000-  14 2.37  13 2.37  19 2.37   1 2.47
  43  0.750  0.250  0.399-  17 2.37  24 2.37  18 2.37  12 2.47
  44  0.361  0.521  0.576-  32 2.37  26 2.37  27 2.43  31 2.43
  45  0.111  0.771  0.658-  33 2.37  27 2.37  32 2.43  28 2.43
  46  0.861  0.021  0.741-  34 2.37  28 2.37  29 2.43  33 2.43
  47  0.611  0.271  0.823-  35 2.37  29 2.37  30 2.43  34 2.43
  48  0.500  0.500  0.000-  20 2.37  19 2.37  13 2.37   7 2.47

  LATTYP: Found a simple orthorhombic cell.
 ALAT       =     5.4800000000
 B/A-ratio  =     1.4142135624
 C/A-ratio  =     4.4330153022

  Lattice vectors:

 A1 = (   5.4800000000,   0.0000000000,   0.0000000000)
 A2 = (   0.0000000000,   7.7498903220,   0.0000000000)
 A3 = (   0.0000000000,   0.0000000000,  24.2929238560)

Analysis of symmetry for initial positions (statically):
 Subroutine PRICEL returns following result:

[...]

   2 primitive cells build up your supercell.

 Routine SETGRP: Setting up the symmetry group for a
 simple orthorhombic supercell.

 Subroutine GETGRP returns: Found  2 space group operations
 (whereof  1 operations were pure point group operations)
 out of a pool of  8 trial point group operations.

The static configuration has the point symmetry C_1 .
 The point group associated with its full space group is C_1h.

Analysis of symmetry for dynamics (positions and initial velocities):
 Subroutine PRICEL returns following result:

[...]

The dynamic configuration has the point symmetry C_1 .
 The point group associated with its full space group is C_1h.

Analysis of structural, dynamic, and magnetic symmetry:
 Subroutine PRICEL returns following result:

  LATTYP: Found a simple orthorhombic cell.
 ALAT       =     3.8749451610
 B/A-ratio  =     1.4142135623
 C/A-ratio  =     6.2692303624

  Lattice vectors:

 A1 = (   0.0000000000,   3.8749451610,   0.0000000000)
 A2 = (  -5.4800000000,   0.0000000000,   0.0000000000)
 A3 = (   0.0000000000,   0.0000000000,  24.2929238560)

   2 primitive cells build up your supercell.

 Routine SETGRP: Setting up the symmetry group for a
 simple orthorhombic supercell.

 Subroutine GETGRP returns: Found  2 space group operations
 (whereof  1 operations were pure point group operations)
 out of a pool of  8 trial point group operations.

The overall configuration has the point symmetry C_1 .
 The point group associated with its full space group is C_1h.

 Subroutine INISYM returns: Found  2 space group operations
 (whereof  1 operations are pure point group operations),
 and found     2 'primitive' translations

                                     Primitive cell

  volume of cell :     515.8529

  direct lattice vectors                    reciprocal lattice vectors
     0.000000000  3.874945161  0.000000000     0.000000000  0.258068168  0.000000000
    -5.480000000  0.000000000  0.000000000    -0.182481752  0.000000000  0.000000000
     0.000000000  0.000000000 24.292923856     0.000000000  0.000000000  0.041164250

  length of vectors
     3.874945161  5.480000000 24.292923856     0.258068168  0.182481752  0.041164250

  position of ions in fractional coordinates (direct lattice)
     0.042553192  0.160165485  0.905322224
     0.500000000  0.500000000  0.079754606
     0.000000000  0.000000000  0.159509213
     0.500000000  0.500000000  0.239263819
     0.000000000  0.000000000  0.319018426
     0.542553192  0.660165485  0.493450808
     0.500000000  0.250000000  0.000000000
     0.000000000  0.750000000  0.079754606
     0.500000000  0.250000000  0.159509213
     0.000000000  0.750000000  0.239263819
     0.500000000  0.250000000  0.319018426
     0.000000000  0.750000000  0.398773032
     0.042553192  0.910165485  0.493450808
     0.542553192  0.410165485  0.575825091
     0.042553192  0.910165485  0.658199374
     0.542553192  0.410165485  0.740573658
     0.042553192  0.910165485  0.822947941
     0.542553192  0.410165485  0.905322224
     0.500000000  0.500000000  0.398773032
     0.042553192  0.160165485  0.575825091
     0.542553192  0.660165485  0.658199374
     0.042553192  0.160165485  0.740573658
     0.542553192  0.660165485  0.822947941
     0.000000000  0.000000000  0.000000000

  ion indices of the primitive-cell ions
   primitive index   ion index
                 1           1
                 2           8
                 3           9
                 4           4
                 5           5
                 6           6
                 7          13
                 8          14
                 9          21
                10          22
                11          17
                12          18
                13          25
                14          26
                15          33
                16          34
                17          29
                18          30
                19          43
                20          38
                21          39
                22          46
                23          41
                24          42

[...]
     42      -1.6656      1.00000
     43      -0.9190      1.00000
     44      -0.5820      1.00000
     45      -0.0807      1.00000
     46      -0.0053      1.00000
     47       0.2942      1.00000
     48       0.3030      1.00000
     49       0.3032      1.00000
     50       0.5046      1.00000
     51       0.5219      1.00000
     52       0.7987      1.00000
     53       0.8603      1.00000
     54       1.0464      1.00000
     55       1.1063      1.00000
     56       1.1433      1.00000
     57       1.2624      1.00000
     58       1.3111      1.00000
     59       1.3193      1.00000
     60       1.4292      1.00000
[...]
    102       5.5033      0.00000
    103       6.0081      0.00000
    104       6.0355      0.00000
    105       6.0381      0.00000
    106       6.2005      0.00000
    107       6.2654      0.00000
    108       6.3629      0.00000
    109       6.5586      0.00000
    110       6.5810      0.00000
    111       6.6771      0.00000
    112       6.7151      0.00000
    113       6.8601      0.00000
    114       6.9161      0.00000
    115       6.9902      0.00000
    116       7.1683      0.00000
 Fermi energy:         4.3984582828

 spin component 2

[...]

 k-point    15 :       0.4286    0.5000    0.0000
  band No.  band energies     occupation
      1      -7.5068      1.00000
      2      -7.2934      1.00000
      3      -7.1482      1.00000
      4      -6.8894      1.00000
      5      -6.6869      1.00000
      6      -6.4894      1.00000
      7      -6.3373      1.00000
      8      -6.0391      1.00000
      9      -5.9079      1.00000
     10      -5.8923      1.00000
     11      -5.6737      1.00000
     12      -5.6026      1.00000
     13      -5.5012      1.00000
     14      -5.4644      1.00000
     15      -5.3045      1.00000
     16      -5.2349      1.00000
     17      -5.0554      1.00000
     18      -4.9157      1.00000
     19      -4.8679      1.00000
     20      -4.8637      1.00000
     21      -4.6510      1.00000
     22      -4.5982      1.00000
     23      -3.9229      1.00000
     24      -3.9199      1.00000
     25      -3.7739      1.00000
     26      -3.7540      1.00000
     27      -3.2243      1.00000
     28      -3.0916      1.00000
     29      -2.9872      1.00000
     30      -2.8963      1.00000
     31      -2.7109      1.00000
     32      -2.6499      1.00000
     33      -2.4241      1.00000
     34      -2.2930      1.00000
     35      -2.1336      1.00000
     36      -2.1043      1.00000
     37      -2.0934      1.00000
     38      -2.0641      1.00000
     39      -1.9193      1.00000
     40      -1.8672      1.00000
     41      -1.6476      1.00000
     42      -1.6463      1.00000
     43      -0.9008      1.00000
     44      -0.5625      1.00000
     45      -0.0593      1.00000
     46       0.0143      1.00000
     47       0.3145      1.00000
     48       0.3207      1.00000
     49       0.3235      1.00000
     50       0.5257      1.00000
     51       0.5449      1.00000
     52       0.8152      1.00000
     53       0.8758      1.00000
     54       1.0689      1.00000
     55       1.1309      1.00000
     56       1.1662      1.00000
     57       1.2837      1.00000
     58       1.3321      1.00000
     59       1.3383      1.00000
     60       1.4493      1.00000
[...]
    102       5.5271      0.00000
    103       6.0281      0.00000
    104       6.0612      0.00000
    105       6.0645      0.00000
    106       6.2241      0.00000
    107       6.2805      0.00000
    108       6.3776      0.00000
    109       6.5750      0.00000
    110       6.5981      0.00000
    111       6.6970      0.00000
    112       6.7308      0.00000
    113       6.8780      0.00000
    114       6.9391      0.00000
    115       7.0079      0.00000
    116       7.2046      0.00000

 soft charge-density along one line, spin component           1
         0         1         2         3         4         5         6         7         8         9
 total charge-density along one line

 soft charge-density along one line, spin component           2
         0         1         2         3         4         5         6         7         8         9
 total charge-density along one line

------------------------ aborting loop because EDIFF is reached ----------------------------------------

  FORCE on cell =-STRESS in cart. coord.  units (eV):
  Direction    XX          YY          ZZ          XY          YZ          ZX
  Alpha Z   251.00599   251.00599   251.00599
  Ewald   -1967.63053 -1551.27632 -1719.26942    -9.48017    -0.00000     0.00000
  Hartree    70.91749   252.08391   143.51804    -2.16150     0.00000     0.00000
  E(xc)    -638.68888  -639.52042  -637.13651    -0.01176     0.00000     0.00000
  Local    -415.03415 -1010.69216  -718.15707    10.87852    -0.00000    -0.00000
  n-local  1416.61353  1435.52258  1414.05078    -0.01164     0.00936     0.01449
  augment  -112.59389  -113.66574  -111.56982    -0.06906     0.00000    -0.00000
  Kinetic  1429.87387  1419.87782  1395.00825     0.75425     0.00021    -0.00045
  Fock        0.00000     0.00000     0.00000     0.00000     0.00000     0.00000
  Total      34.46344    43.33566    17.45024    -0.10137     0.00000     0.00000
  in kB      53.51965    67.29768    27.09917    -0.15743     0.00000     0.00000

 VOLUME and BASIS-vectors are now :
  energy-cutoff  :      700.00
  volume of cell :     1031.71
      direct lattice vectors                 reciprocal lattice vectors
     5.480000000  0.000000000  0.000000000     0.182481752  0.129034084  0.000000000
    -5.480000000  7.749890322  0.000000000     0.000000000  0.129034084  0.000000000
     0.000000000  0.000000000 24.292923856     0.000000000  0.000000000  0.041164250

  length of vectors
     5.480000000  9.491638426 24.292923856     0.223493590  0.129034084  0.041164250

 FORCES acting on ions
    electron-ion (+dipol)            ewald-force                    non-local-force                 convergence-correction
   -.135E+02 -.191E+00 0.110E+02   0.122E+02 -.110E+00 -.123E+02   0.243E+01 0.237E+00 0.349E+00   0.376E-05 -.407E-06 -.934E-04
   0.333E+01 0.358E-01 0.177E+02   -.269E+01 -.187E-01 -.188E+02   -.749E+00 -.915E-02 0.932E+00   -.933E-05 -.150E-06 -.781E-04
   -.316E+00 -.164E-01 0.573E+01   0.270E+00 -.397E-03 -.572E+01   -.122E+00 0.989E-02 -.147E+00   0.697E-06 -.439E-06 -.113E-04
   -.316E+00 -.164E-01 -.573E+01   0.270E+00 -.397E-03 0.572E+01   -.122E+00 0.989E-02 0.147E+00   0.697E-06 -.439E-06 0.113E-04
   0.333E+01 0.358E-01 -.177E+02   -.269E+01 -.187E-01 0.188E+02   -.749E+00 -.915E-02 -.932E+00   -.933E-05 -.150E-06 0.781E-04
   -.135E+02 -.191E+00 -.110E+02   0.122E+02 -.110E+00 0.123E+02   0.243E+01 0.237E+00 -.349E+00   0.376E-05 -.407E-06 0.934E-04
   -.135E+02 -.191E+00 0.110E+02   0.122E+02 -.110E+00 -.123E+02   0.243E+01 0.237E+00 0.349E+00   0.376E-05 -.407E-06 -.934E-04
   0.333E+01 0.358E-01 0.177E+02   -.269E+01 -.187E-01 -.188E+02   -.749E+00 -.915E-02 0.932E+00   -.933E-05 -.150E-06 -.781E-04
   -.316E+00 -.164E-01 0.573E+01   0.270E+00 -.397E-03 -.572E+01   -.122E+00 0.989E-02 -.147E+00   0.697E-06 -.439E-06 -.113E-04
   -.316E+00 -.164E-01 -.573E+01   0.270E+00 -.397E-03 0.572E+01   -.122E+00 0.989E-02 0.147E+00   0.697E-06 -.439E-06 0.113E-04
   0.333E+01 0.358E-01 -.177E+02   -.269E+01 -.187E-01 0.188E+02   -.749E+00 -.915E-02 -.932E+00   -.933E-05 -.150E-06 0.781E-04
   -.135E+02 -.191E+00 -.110E+02   0.122E+02 -.110E+00 0.123E+02   0.243E+01 0.237E+00 -.349E+00   0.376E-05 -.407E-06 0.934E-04
   0.117E+02 0.251E+00 0.106E+02   -.110E+02 0.110E+00 -.854E+01   -.205E+01 -.294E+00 -.858E+00   -.893E-05 0.751E-06 -.136E-03
   0.402E+00 0.407E-02 0.223E+02   0.112E+01 0.381E-02 -.205E+02   -.906E+00 0.610E-01 -.138E+01   0.480E-05 -.262E-08 -.780E-04
   0.342E+00 0.822E-02 0.554E+01   -.112E+00 0.908E-04 -.552E+01   -.198E+00 0.429E-02 0.161E-01   -.347E-07 0.355E-06 -.982E-05
   0.342E+00 0.822E-02 -.554E+01   -.112E+00 0.908E-04 0.552E+01   -.198E+00 0.429E-02 -.161E-01   -.347E-07 0.355E-06 0.982E-05
   0.402E+00 0.407E-02 -.223E+02   0.112E+01 0.381E-02 0.205E+02   -.906E+00 0.610E-01 0.138E+01   0.480E-05 -.262E-08 0.780E-04
   0.117E+02 0.251E+00 -.106E+02   -.110E+02 0.110E+00 0.854E+01   -.205E+01 -.294E+00 0.858E+00   -.893E-05 0.751E-06 0.136E-03
   0.117E+02 0.251E+00 0.106E+02   -.110E+02 0.110E+00 -.854E+01   -.205E+01 -.294E+00 -.858E+00   -.893E-05 0.751E-06 -.136E-03
   0.402E+00 0.407E-02 0.223E+02   0.112E+01 0.381E-02 -.205E+02   -.906E+00 0.610E-01 -.138E+01   0.480E-05 -.262E-08 -.780E-04
   0.342E+00 0.822E-02 0.554E+01   -.112E+00 0.908E-04 -.552E+01   -.198E+00 0.429E-02 0.161E-01   -.347E-07 0.355E-06 -.982E-05
   0.342E+00 0.822E-02 -.554E+01   -.112E+00 0.908E-04 0.552E+01   -.198E+00 0.429E-02 -.161E-01   -.347E-07 0.355E-06 0.982E-05
   0.402E+00 0.407E-02 -.223E+02   0.112E+01 0.381E-02 0.205E+02   -.906E+00 0.610E-01 0.138E+01   0.480E-05 -.262E-08 0.780E-04
   0.117E+02 0.251E+00 -.106E+02   -.110E+02 0.110E+00 0.854E+01   -.205E+01 -.294E+00 0.858E+00   -.893E-05 0.751E-06 0.136E-03
   0.327E+02 -.685E+00 -.244E+01   -.311E+02 0.866E+00 0.202E+01   -.130E+01 -.111E+00 -.295E+00   -.589E-05 0.748E-06 0.889E-04
   -.681E+00 -.202E-01 0.463E+01   -.224E-01 0.165E-01 -.572E+01   0.807E-02 -.266E-01 0.594E+00   -.455E-05 0.513E-06 0.358E-04
   0.271E+01 -.365E-02 0.143E+01   -.267E+01 0.309E-03 -.146E+01   -.334E+00 -.165E-01 -.769E-01   0.347E-05 0.573E-06 0.120E-04
   0.271E+01 -.365E-02 -.143E+01   -.267E+01 0.309E-03 0.146E+01   -.334E+00 -.165E-01 0.769E-01   0.347E-05 0.573E-06 -.120E-04
   -.681E+00 -.202E-01 -.463E+01   -.224E-01 0.165E-01 0.572E+01   0.807E-02 -.266E-01 -.594E+00   -.455E-05 0.513E-06 -.358E-04
   0.327E+02 -.685E+00 0.244E+01   -.311E+02 0.866E+00 -.202E+01   -.130E+01 -.111E+00 0.295E+00   -.589E-05 0.748E-06 -.889E-04
   0.327E+02 -.685E+00 -.244E+01   -.311E+02 0.866E+00 0.202E+01   -.130E+01 -.111E+00 -.295E+00   -.589E-05 0.748E-06 0.889E-04
   -.681E+00 -.202E-01 0.463E+01   -.224E-01 0.165E-01 -.572E+01   0.807E-02 -.266E-01 0.594E+00   -.455E-05 0.513E-06 0.358E-04
   0.271E+01 -.365E-02 0.143E+01   -.267E+01 0.309E-03 -.146E+01   -.334E+00 -.165E-01 -.769E-01   0.347E-05 0.573E-06 0.120E-04
   0.271E+01 -.365E-02 -.143E+01   -.267E+01 0.309E-03 0.146E+01   -.334E+00 -.165E-01 0.769E-01   0.347E-05 0.573E-06 -.120E-04
   -.681E+00 -.202E-01 -.463E+01   -.224E-01 0.165E-01 0.572E+01   0.807E-02 -.266E-01 -.594E+00   -.455E-05 0.513E-06 -.358E-04
   0.327E+02 -.685E+00 0.244E+01   -.311E+02 0.866E+00 -.202E+01   -.130E+01 -.111E+00 0.295E+00   -.589E-05 0.748E-06 -.889E-04
   -.312E+02 0.713E+00 -.189E+02   0.299E+02 -.863E+00 0.190E+02   0.117E+01 0.673E-01 0.614E+00   0.163E-04 -.995E-06 0.138E-03
   -.230E+01 0.102E-01 0.801E+01   0.147E+01 -.338E-02 -.731E+01   0.977E+00 -.776E-01 -.664E+00   0.376E-05 -.278E-06 0.368E-04
   -.267E+01 0.243E-01 0.126E+01   0.253E+01 -.704E-04 -.130E+01   0.620E+00 -.222E-01 0.611E-01   -.313E-05 -.404E-06 0.116E-04
   -.267E+01 0.243E-01 -.126E+01   0.253E+01 -.704E-04 0.130E+01   0.620E+00 -.222E-01 -.611E-01   -.313E-05 -.404E-06 -.116E-04
   -.230E+01 0.102E-01 -.801E+01   0.147E+01 -.338E-02 0.731E+01   0.977E+00 -.776E-01 0.664E+00   0.376E-05 -.278E-06 -.368E-04
   -.312E+02 0.713E+00 0.189E+02   0.299E+02 -.863E+00 -.190E+02   0.117E+01 0.673E-01 -.614E+00   0.163E-04 -.995E-06 -.138E-03
   -.312E+02 0.713E+00 -.189E+02   0.299E+02 -.863E+00 0.190E+02   0.117E+01 0.673E-01 0.614E+00   0.163E-04 -.995E-06 0.138E-03
   -.230E+01 0.102E-01 0.801E+01   0.147E+01 -.338E-02 -.731E+01   0.977E+00 -.776E-01 -.664E+00   0.376E-05 -.278E-06 0.368E-04
   -.267E+01 0.243E-01 0.126E+01   0.253E+01 -.704E-04 -.130E+01   0.620E+00 -.222E-01 0.611E-01   -.313E-05 -.404E-06 0.116E-04
   -.267E+01 0.243E-01 -.126E+01   0.253E+01 -.704E-04 0.130E+01   0.620E+00 -.222E-01 -.611E-01   -.313E-05 -.404E-06 -.116E-04
   -.230E+01 0.102E-01 -.801E+01   0.147E+01 -.338E-02 0.731E+01   0.977E+00 -.776E-01 0.664E+00   0.376E-05 -.278E-06 -.368E-04
   -.312E+02 0.713E+00 0.189E+02   0.299E+02 -.863E+00 -.190E+02   0.117E+01 0.673E-01 -.614E+00   0.163E-04 -.995E-06 -.138E-03
   0.192E+01 0.520E+00 0.258E-05   0.426E-13 0.103E-13 0.817E-13   -.186E+01 -.713E+00 0.000E+00   0.376E-05 0.106E-05 0.332E-09

 POSITION                                       TOTAL-FORCE (eV/Angst)
      4.60229      0.16489     21.99292         1.139892     -0.060275     -0.999263
     -2.74000      5.81242      1.93747        -0.105253      0.011920     -0.113993
      0.00000      3.87495      3.87495        -0.169653     -0.002934     -0.139616
      2.74000      1.93747      5.81242        -0.169653     -0.002934      0.139616
      0.00000      0.00000      7.74989        -0.105253      0.011920      0.113993
     -3.61771      5.97731     11.98736         1.139892     -0.060275      0.999263
     -0.87771      4.03984     21.99292         1.139892     -0.060275     -0.999263
      2.74000      1.93747      1.93747        -0.105253      0.011920     -0.113993
      0.00000      0.00000      3.87495        -0.169653     -0.002934     -0.139616
     -2.74000      5.81242      5.81242        -0.169653     -0.002934      0.139616
      0.00000      3.87495      7.74989        -0.105253      0.011920      0.113993
      1.86229      2.10236     11.98736         1.139892     -0.060275      0.999263
     -1.37000      1.93747      0.00000        -1.291036      0.070198      1.161684
      1.37000      0.00000      1.93747         0.613641      0.072914      0.402723
     -1.37000      5.81242      3.87495         0.031440      0.016628      0.027281
      1.37000      3.87495      5.81242         0.031440      0.016628     -0.027281
     -1.37000      1.93747      7.74989         0.613641      0.072914     -0.402723
      1.37000      0.00000      9.68736        -1.291036      0.070198     -1.161684
     -1.37000      5.81242      0.00000        -1.291036      0.070198      1.161684
      1.37000      3.87495      1.93747         0.613641      0.072914      0.402723
     -1.37000      1.93747      3.87495         0.031440      0.016628      0.027281
      1.37000      0.00000      5.81242         0.031440      0.016628     -0.027281
     -1.37000      5.81242      7.74989         0.613641      0.072914     -0.402723
      1.37000      3.87495      9.68736        -1.291036      0.070198     -1.161684
      0.49229      0.16489     11.98736         0.281003      0.073353     -0.712296
      3.23229      2.10236     13.98848        -0.696663     -0.026255     -0.502197
      0.49229      4.03984     15.98959        -0.291707     -0.015844     -0.109458
     -2.24771      5.97731     17.99070        -0.291707     -0.015844      0.109458
      0.49229      0.16489     19.99181        -0.696663     -0.026255      0.502197
      3.23229      2.10236     21.99292         0.281003      0.073353      0.712296
      0.49229      4.03984     11.98736         0.281003      0.073353     -0.712296
     -2.24771      5.97731     13.98848        -0.696663     -0.026255     -0.502197
      0.49229      0.16489     15.98959        -0.291707     -0.015844     -0.109458
      3.23229      2.10236     17.99070        -0.291707     -0.015844      0.109458
      0.49229      4.03984     19.99181        -0.696663     -0.026255      0.502197
     -2.24771      5.97731     21.99292         0.281003      0.073353      0.712296
     -2.74000      5.81242      9.68736        -0.141410     -0.078968      0.624128
      4.60229      0.16489     13.98848         0.154540     -0.066746      0.028487
      1.86229      2.10236     15.98959         0.475205      0.006009      0.025099
     -0.87771      4.03984     17.99070         0.475205      0.006009     -0.025099
     -3.61771      5.97731     19.99181         0.154540     -0.066746     -0.028487
      0.00000      0.00000      0.00000        -0.141410     -0.078968     -0.624128
      2.74000      1.93747      9.68736        -0.141410     -0.078968      0.624128
     -0.87771      4.03984     13.98848         0.154540     -0.066746      0.028487
     -3.61771      5.97731     15.98959         0.475205      0.006009      0.025099
      4.60229      0.16489     17.99070         0.475205      0.006009     -0.025099
      1.86229      2.10236     19.99181         0.154540     -0.066746     -0.028487
      0.00000      3.87495      0.00000        -0.141410     -0.078968     -0.624128
    total drift:                                0.061211     -0.193233      0.000003

  FREE ENERGIE OF THE ION-ELECTRON SYSTEM (eV)
  free  energy   TOTEN  =      -228.66254139 eV

  energy  without entropy=     -228.66138474  energy(sigma->0) =     -228.66196307