 vasp.6.4.3 19Mar24 (build Oct 22 2024 11:23:12) complex

 executed on             LinuxIFC date 2025.06.04  00:17:26

 INCAR:
   SYSTEM = Si and Ge interface calculation
   ISTART = 0
   ICHARG = 2
   LWAVE = .FALSE.
   LREAL = AUTO
   ENCUT = 700
   ENAUG = 900
   ADDGRID = .TRUE.
   LMAXMIX = 6
   LASPH = .TRUE.
   LMIXTAU = .TRUE.
   NCORE = 16
   NELM = 100
   NBANDS = 116
   EDIFF = 1d-7
   AMIX = 0.6
   ISMEAR = 0
   SIGMA = 0.01
   NELECT = 192
   ISPIN = 2
   NUPDOWN = 1
   LVTOT = .FALSE.
   LVHAR = .TRUE.

 POTCAR:    PAW_PBE Ge 05Jan2001
|           W    W    AA    RRRRR   N    N  II  N    N   GGGG   !!!           |
|           W    W   A  A   R    R  NN   N  II  NN   N  G    G  !!!           |
|           W    W  A    A  R    R  N N  N  II  N N  N  G       !!!           |
|           W WW W  AAAAAA  RRRRR   N  N N  II  N  N N  G  GGG   !            |
|           WW  WW  A    A  R   R   N   NN  II  N   NN  G    G                |
|           W    W  A    A  R    R  N    N  II  N    N   GGGG   !!!           |
|     You use a magnetic or noncollinear calculation, but did not specify     |
|     the initial magnetic moment with the MAGMOM tag. Note that a            |
|     default of 0.021 will be used for all atoms. This ferromagnetic         |
|     setup may break the symmetry of the crystal, in particular it may       |
|     rule out finding an antiferromagnetic solution. Thence, we              |
|     recommend setting the initial magnetic moment manually or verifying     |
|     carefully that this magnetic setup is desired.                          |

 POTCAR:    PAW_PBE Ge 05Jan2001
   VRHFIN =Ge: s2p2

   TITEL  = PAW_PBE Ge 05Jan2001
   POMASS =   72.610; ZVAL   =    4.000    mass and valenz
   ENMAX  =  173.807; ENMIN  =  130.355 eV

 Optimization of the real space projectors (new method)

 maximal supplied QI-value         = 16.25
 optimisation between [QCUT,QGAM] = [ 13.49, 26.98] = [ 50.95,203.80] Ry
 Optimized for a Real-space Cutoff    1.25 Angstroem

   l    n(q)    QCUT    max X(q) W(low)/X(q) W(high)/X(q)  e(spline)
   0     10    13.489    65.336    0.91E-04    0.11E-03    0.34E-06
   0     10    13.489    52.220    0.89E-04    0.11E-03    0.34E-06
   1     10    13.489    36.409    0.22E-03    0.27E-03    0.14E-06
   1     10    13.489    21.334    0.21E-03    0.27E-03    0.14E-06
   2      9    13.489     4.673    0.11E-03    0.12E-03    0.19E-06
  PAW_PBE Ge 05Jan2001                  :

 POSCAR: Ge+Ge
  positions in direct lattice

 exchange-correlation table for PE
   RHO(1)=    0.500       N(1)  =     2000
   RHO(2)=  100.500       N(2)  =     4000

 ion  position               nearest neighbor table
   1  0.944  0.912  0.000-  48 1.45  39 2.33   9 2.45  15 2.45
   2  0.694  0.523  0.100-  34 2.33  13 2.45  16 2.45  10 2.45
   3  0.444  0.134  0.200-  41 2.33  14 2.45  11 2.45  17 2.45
   4  0.194  0.745  0.300-  37 2.14  36 2.33   7 2.45  15 2.45  18 2.45  12 2.45
   5  0.944  0.357  0.400-  32 2.14   8 2.45  16 2.45
   6  0.694  0.968  0.500-  43 1.45  39 2.14   9 2.45  17 2.45
   7  0.194  0.662  0.000-  36 1.45  46 2.14   4 2.45  20 2.45
   8  0.944  0.273  0.100-  29 2.14   5 2.45  21 2.45
   9  0.694  0.884  0.200-  48 2.14  43 2.33   6 2.45   1 2.45  22 2.45  19 2.45
  10  0.444  0.495  0.300-  26 2.33  23 2.45  20 2.45   2 2.45
  11  0.194  0.107  0.400-  45 2.33   3 2.45  21 2.45  24 2.45
  12  0.944  0.718  0.500-  31 1.45  28 2.33  22 2.45   4 2.45
  13  0.694  0.662  0.000-  42 1.45  28 2.14   2 2.45  22 2.45
  14  0.444  0.273  0.100-  47 2.14   3 2.45  23 2.45
  15  0.194  0.884  0.200-  30 2.14  25 2.33  24 2.45   4 2.45   1 2.45  19 2.45
  16  0.944  0.495  0.300-  44 2.33   2 2.45   5 2.45  20 2.45
  17  0.694  0.107  0.400-  27 2.33  21 2.45   3 2.45   6 2.45
  18  0.444  0.718  0.500-  37 1.45  46 2.33   4 2.45  22 2.45
  19  0.444  0.912  0.000-  30 1.45  33 2.33  15 2.45   9 2.45
  20  0.194  0.523  0.100-  40 2.33   7 2.45  16 2.45  10 2.45
  21  0.944  0.134  0.200-  35 2.33   8 2.45  17 2.45  11 2.45
  22  0.694  0.745  0.300-  31 2.14  42 2.33  13 2.45  12 2.45   9 2.45  18 2.45
  23  0.444  0.357  0.400-  38 2.14  10 2.45  14 2.45
  24  0.194  0.968  0.500-  25 1.45  33 2.14  15 2.45  11 2.45
  25  0.056  0.912  0.500-  24 1.45  15 2.33  33 2.45  39 2.45
  26  0.306  0.523  0.600-  10 2.33  34 2.45  37 2.45  40 2.45
  27  0.556  0.134  0.700-  17 2.33  35 2.45  38 2.45  41 2.45
  28  0.806  0.745  0.800-  13 2.14  12 2.33  31 2.45  42 2.45  39 2.45  36 2.45
  29  0.056  0.357  0.900-   8 2.14  32 2.45  40 2.45
  30  0.306  0.968  1.000-  19 1.45  15 2.14  33 2.45  41 2.45
  31  0.806  0.662  0.500-  12 1.45  22 2.14  28 2.45  44 2.45
  32  0.056  0.273  0.600-   5 2.14  45 2.45  29 2.45
  33  0.306  0.884  0.700-  24 2.14  19 2.33  30 2.45  46 2.45  25 2.45  43 2.45
  34  0.556  0.495  0.800-   2 2.33  47 2.45  26 2.45  44 2.45
  35  0.806  0.107  0.900-  21 2.33  27 2.45  45 2.45  48 2.45
  36  0.056  0.718  1.000-   7 1.45   4 2.33  46 2.45  28 2.45
  37  0.306  0.662  0.500-  18 1.45   4 2.14  46 2.45  26 2.45
  38  0.556  0.273  0.600-  23 2.14  27 2.45  47 2.45
  39  0.806  0.884  0.700-   6 2.14   1 2.33  48 2.45  43 2.45  25 2.45  28 2.45
  40  0.056  0.495  0.800-  20 2.33  29 2.45  44 2.45  26 2.45
  41  0.306  0.107  0.900-   3 2.33  27 2.45  45 2.45  30 2.45
  42  0.556  0.718  1.000-  13 1.45  22 2.33  28 2.45  46 2.45
  43  0.556  0.912  0.500-   6 1.45   9 2.33  39 2.45  33 2.45
  44  0.806  0.523  0.600-  16 2.33  31 2.45  40 2.45  34 2.45
  45  0.056  0.134  0.700-  11 2.33  32 2.45  35 2.45  41 2.45
  46  0.306  0.745  0.800-   7 2.14  18 2.33  36 2.45  37 2.45  33 2.45  42 2.45
  47  0.556  0.357  0.900-  14 2.14  34 2.45  38 2.45
  48  0.806  0.968  1.000-   1 1.45   9 2.14  39 2.45  35 2.45

  LATTYP: Found a simple orthorhombic cell.
 ALAT       =     6.6677875520
 B/A-ratio  =     1.1999989416
 C/A-ratio  =     2.5455823076

  Lattice vectors:

 A1 = (   0.0000000000,   0.0000000000,   6.6677875520)
 A2 = (   8.0013380050,   0.0000000000,   0.0000000000)
 A3 = (   0.0000000000,  16.9734020230,   0.0000000000)

Analysis of symmetry for initial positions (statically):
 Subroutine PRICEL returns following result:

[...]

   2 primitive cells build up your supercell.

 Routine SETGRP: Setting up the symmetry group for a
 simple orthorhombic supercell.

 Subroutine GETGRP returns: Found  4 space group operations
 (whereof  1 operations were pure point group operations)
 out of a pool of  8 trial point group operations.

The static configuration has the point symmetry C_1 .
 The point group associated with its full space group is C_2h.

Analysis of symmetry for dynamics (positions and initial velocities):
 Subroutine PRICEL returns following result:

[...]

The dynamic configuration has the point symmetry C_1 .
 The point group associated with its full space group is C_2h.

Analysis of structural, dynamic, and magnetic symmetry:
 Subroutine PRICEL returns following result:

  LATTYP: Found a simple orthorhombic cell.
 ALAT       =     4.0006687625
 B/A-ratio  =     1.6666682367
 C/A-ratio  =     4.2426411760

  Lattice vectors:

 A1 = (  -4.0006687625,   0.0000000000,  -0.0000000333)
 A2 = (   0.0000000000,   0.0000000000,   6.6677875520)
 A3 = (   0.0000000000,  16.9734020230,   0.0000000000)

   2 primitive cells build up your supercell.

 Routine SETGRP: Setting up the symmetry group for a
 simple orthorhombic supercell.

 Subroutine GETGRP returns: Found  4 space group operations
 (whereof  1 operations were pure point group operations)
 out of a pool of  8 trial point group operations.

The overall configuration has the point symmetry C_1 .
 The point group associated with its full space group is C_2h.

 Subroutine INISYM returns: Found  4 space group operations
 (whereof  1 operations are pure point group operations),
 and found     2 'primitive' translations

                                     Primitive cell

  volume of cell :     452.7758

  direct lattice vectors                    reciprocal lattice vectors
    -4.000668762  0.000000000 -0.000000033    -0.249958209  0.000000000  0.000000000
     0.000000000  0.000000000  6.667787552    -0.000000001  0.000000000  0.149974784
     0.000000000 16.973402023  0.000000000     0.000000000  0.058915708  0.000000000

  length of vectors
     4.000668762  6.667787552 16.973402023     0.249958209  0.149974784  0.058915708

  position of ions in fractional coordinates (direct lattice)
     0.112971789  0.000000047  0.912132978
     0.612971699  0.100000017  0.523244023
     0.112971789  0.199999919  0.134355068
     0.612971999  0.299999921  0.745466113
     0.112971669  0.399999848  0.356577158
     0.612972475  0.499999968  0.967688084
     0.612971939  0.000000075  0.662132919
     0.112971789  0.100000045  0.273243964
     0.612971999  0.199999956  0.884355009
     0.112971909  0.299999914  0.495466053
     0.612971819  0.399999850  0.106577098
     0.112972147  0.499999872  0.717688084
     0.887028129  0.499999969  0.912132978
     0.387028121  0.599999897  0.523244023
     0.887028211  0.699999927  0.134355068
     0.387027881  0.799999825  0.745466113
     0.887028211  0.899999856  0.356577158
     0.387028121  0.999999873  0.967688084
     0.387028239  0.499999962  0.662132919
     0.887028211  0.599999904  0.273243934
     0.387028121  0.699999920  0.884355068
     0.887028211  0.799999951  0.495466113
     0.387028359  0.899999849  0.106577158
     0.887027733  0.999999880  0.717688084

  ion indices of the primitive-cell ions
   primitive index   ion index
                 1           1
                 2           2
                 3          21
                 4           4
                 5           5
                 6          24
                 7           7
                 8           8
                 9          15
                10          16
                11          17
                12          12
                13          25
                14          44
                15          45
                16          28
                17          29
                18          48
                19          31
                20          32
                21          39
                22          40
                23          35
                24          36

 KPOINTS: Automatic KPOINTS generated

Automatic generation of k-mesh.
 Grid dimensions read from file:
 generate k-points for:    4    2    5

 Generating k-lattice:

  Cartesian coordinates                     Fractional coordinates (reciprocal lattice)
     0.031244774  0.000000000  0.000000000     0.250000000  0.000000000  0.000000000
     0.000000000  0.029457854  0.000000000     0.000000000  0.500000000  0.000000000
     0.000000000  0.000000000  0.029994957     0.000000000  0.000000000  0.200000000

  Length of vectors
     0.031244774  0.029457854  0.029994957

  Shift w.r.t. Gamma in fractional coordinates (k-lattice)
     0.000000000  0.000000000  0.000000000

 Subroutine IBZKPT returns following result:

 Found     18 irreducible k-points:

 Following reciprocal coordinates:
            Coordinates               Weight
[...]
     42      -1.4677      1.00000
     43      -1.2199      1.00000
     44      -1.2199      1.00000
     45      -0.8284      1.00000
     46      -0.8284      1.00000
     47      -0.5941      1.00000
     48      -0.5941      1.00000
     49      -0.5079      1.00000
     50      -0.5079      1.00000
     51      -0.3221      1.00000
     52      -0.3221      1.00000
     53      -0.0242      1.00000
     54      -0.0242      1.00000
     55       0.1503      1.00000
     56       0.1503      1.00000
     57       0.8777      1.00000
     58       0.8777      1.00000
     59       1.2910      1.00000
     60       1.2910      1.00000
[...]
    102       5.8447      0.00000
    103       6.2291      0.00000
    104       6.2291      0.00000
    105       6.2777      0.00000
    106       6.2777      0.00000
    107       6.3361      0.00000
    108       6.3361      0.00000
    109       6.5779      0.00000
    110       6.5779      0.00000
    111       6.8169      0.00000
    112       6.8169      0.00000
    113       6.8421      0.00000
    114       6.8421      0.00000
    115       7.1415      0.00000
    116       7.1515      0.00000
 Fermi energy:         5.3104924388

 spin component 2

[...]

 k-point    18 :       0.5000    0.5000    0.4000
  band No.  band energies     occupation
      1     -10.4295      1.00000
      2     -10.4295      1.00000
      3      -9.9987      1.00000
      4      -9.9987      1.00000
      5      -9.9108      1.00000
      6      -9.9107      1.00000
      7      -9.5394      1.00000
      8      -9.5394      1.00000
      9      -6.7597      1.00000
     10      -6.7597      1.00000
     11      -6.5254      1.00000
     12      -6.5254      1.00000
     13      -6.1674      1.00000
     14      -6.1674      1.00000
     15      -5.9668      1.00000
     16      -5.9668      1.00000
     17      -5.3194      1.00000
     18      -5.3194      1.00000
     19      -5.2154      1.00000
     20      -5.2154      1.00000
     21      -4.7384      1.00000
     22      -4.7384      1.00000
     23      -4.5216      1.00000
     24      -4.5216      1.00000
     25      -4.4457      1.00000
     26      -4.4457      1.00000
     27      -3.6776      1.00000
     28      -3.6776      1.00000
     29      -2.8614      1.00000
     30      -2.8614      1.00000
     31      -2.6684      1.00000
     32      -2.6684      1.00000
     33      -2.3331      1.00000
     34      -2.3331      1.00000
     35      -1.9567      1.00000
     36      -1.9567      1.00000
     37      -1.6265      1.00000
     38      -1.6265      1.00000
     39      -1.4995      1.00000
     40      -1.4995      1.00000
     41      -1.4450      1.00000
     42      -1.4450      1.00000
     43      -1.1990      1.00000
     44      -1.1990      1.00000
     45      -0.8114      1.00000
     46      -0.8114      1.00000
     47      -0.5743      1.00000
     48      -0.5743      1.00000
     49      -0.4892      1.00000
     50      -0.4892      1.00000
     51      -0.3021      1.00000
     52      -0.3021      1.00000
     53      -0.0064      1.00000
     54      -0.0064      1.00000
     55       0.1704      1.00000
     56       0.1704      1.00000
     57       0.8964      1.00000
     58       0.8964      1.00000
     59       1.3087      1.00000
     60       1.3087      1.00000
[...]
    102       5.8706      0.00000
    103       6.2539      0.00000
    104       6.2539      0.00000
    105       6.3043      0.00000
    106       6.3043      0.00000
    107       6.3595      0.00000
    108       6.3595      0.00000
    109       6.6013      0.00000
    110       6.6013      0.00000
    111       6.8383      0.00000
    112       6.8383      0.00000
    113       6.8663      0.00000
    114       6.8663      0.00000
    115       7.1626      0.00000
    116       7.1857      0.00000

 soft charge-density along one line, spin component           1
         0         1         2         3         4         5         6         7         8         9
 total charge-density along one line

 soft charge-density along one line, spin component           2
         0         1         2         3         4         5         6         7         8         9
 total charge-density along one line

------------------------ aborting loop because EDIFF is reached ----------------------------------------

  FORCE on cell =-STRESS in cart. coord.  units (eV):
  Direction    XX          YY          ZZ          XY          YZ          ZX
  Alpha Z   486.29895   486.29895   486.29895
  Ewald   -1216.67112 -2434.20717 -1081.44955    -0.00022  -172.69071     0.00030
  Hartree   638.17694  -475.49478   791.86323     0.00001    -8.40189    -0.00001
  E(xc)    -701.54758  -701.55008  -695.02512     0.00000     3.23031    -0.00000
  Local   -1534.37233   705.84345 -2097.25988     0.00007   149.48969    -0.00005
  n-local  1190.78504  1187.32415  1129.27586    -0.02372   -31.31716    -0.72178
  augment   104.47932    90.13477    54.54907    -0.00000    -1.51869     0.00002
  Kinetic  1608.83518  1622.58251  1594.72441    -0.40374    29.64944     3.32028
  Fock        0.00000     0.00000     0.00000     0.00000     0.00000     0.00000
  Total     575.98440   480.93179   182.97695     0.00000   -31.55901     0.00000
  in kB    1019.07942   850.90446   323.73802     0.00000   -55.83682     0.00000

 VOLUME and BASIS-vectors are now :
  energy-cutoff  :      700.00
  volume of cell :      905.55
      direct lattice vectors                 reciprocal lattice vectors
     8.001338005  0.000000000  0.000000000     0.124979097  0.000000000  0.000000000
     0.000000000 16.973402023  0.000000000     0.000000000  0.058915708  0.000000000
     0.000000000  0.000000000  6.667787552     0.000000000  0.000000000  0.149974784

  length of vectors
     8.001338005 16.973402023  6.667787552     0.124979097  0.058915708  0.149974784

 FORCES acting on ions
    electron-ion (+dipol)            ewald-force                    non-local-force                 convergence-correction
   -.406E+02 -.227E+02 -.127E+01   0.739E+02 -.386E+01 0.174E+01   0.232E+02 -.194E+02 0.574E+00   -.111E-03 -.231E-03 0.155E-04
   -.842E+01 0.797E+02 -.568E+01   0.889E+01 -.791E+02 0.562E+01   0.467E+00 -.437E+00 0.107E+01   -.100E-04 0.226E-04 -.103E-05
   -.747E+01 -.656E+02 -.551E+01   0.771E+01 0.656E+02 0.534E+01   0.350E+00 0.679E+00 0.979E+00   0.867E-05 0.302E-04 -.561E-05
   0.224E+01 0.132E+02 0.119E+01   -.420E+01 -.109E+02 -.967E+00   0.107E+00 0.195E+01 -.124E+01   0.495E-04 0.169E-03 0.663E-05
   0.125E+02 0.115E+02 0.112E+00   -.134E+02 -.121E+02 -.125E+01   -.109E+01 0.186E+01 -.117E+01   0.231E-04 0.442E-04 0.205E-05
   -.219E+02 -.107E+03 0.296E+00   0.518E+02 0.137E+03 -.124E+01   0.219E+02 0.207E+02 -.141E+01   -.334E-04 -.476E-03 0.286E-04
   -.219E+02 0.107E+03 -.296E+00   0.518E+02 -.137E+03 0.124E+01   0.219E+02 -.207E+02 0.141E+01   -.334E-04 0.467E-03 -.286E-04
   0.125E+02 -.115E+02 -.112E+00   -.134E+02 0.121E+02 0.125E+01   -.109E+01 -.186E+01 0.117E+01   0.230E-04 -.278E-04 -.211E-05
   0.224E+01 -.132E+02 -.119E+01   -.420E+01 0.109E+02 0.967E+00   0.107E+00 -.195E+01 0.124E+01   0.495E-04 -.184E-03 -.667E-05
   -.747E+01 0.656E+02 0.551E+01   0.771E+01 -.656E+02 -.534E+01   0.350E+00 -.679E+00 -.979E+00   0.863E-05 -.233E-04 0.554E-05
   -.842E+01 -.797E+02 0.568E+01   0.889E+01 0.791E+02 -.562E+01   0.467E+00 0.437E+00 -.107E+01   -.100E-04 -.184E-04 0.957E-06
   -.406E+02 0.227E+02 0.127E+01   0.739E+02 0.386E+01 -.174E+01   0.232E+02 0.194E+02 -.574E+00   -.111E-03 0.217E-03 -.155E-04
   -.219E+02 0.107E+03 -.296E+00   0.518E+02 -.137E+03 0.124E+01   0.219E+02 -.207E+02 0.141E+01   -.334E-04 0.467E-03 -.286E-04
   0.125E+02 -.115E+02 -.112E+00   -.134E+02 0.121E+02 0.125E+01   -.109E+01 -.186E+01 0.117E+01   0.231E-04 -.278E-04 -.210E-05
   0.224E+01 -.132E+02 -.119E+01   -.420E+01 0.109E+02 0.967E+00   0.107E+00 -.195E+01 0.124E+01   0.496E-04 -.184E-03 -.665E-05
   -.747E+01 0.656E+02 0.551E+01   0.771E+01 -.656E+02 -.534E+01   0.350E+00 -.679E+00 -.979E+00   0.867E-05 -.233E-04 0.557E-05
   -.842E+01 -.797E+02 0.568E+01   0.889E+01 0.791E+02 -.562E+01   0.467E+00 0.437E+00 -.107E+01   -.100E-04 -.184E-04 0.947E-06
   -.406E+02 0.227E+02 0.127E+01   0.739E+02 0.386E+01 -.174E+01   0.232E+02 0.194E+02 -.574E+00   -.111E-03 0.217E-03 -.155E-04
   -.406E+02 -.227E+02 -.127E+01   0.739E+02 -.386E+01 0.174E+01   0.232E+02 -.194E+02 0.574E+00   -.111E-03 -.231E-03 0.155E-04
   -.842E+01 0.797E+02 -.568E+01   0.889E+01 -.791E+02 0.562E+01   0.467E+00 -.437E+00 0.107E+01   -.101E-04 0.226E-04 -.102E-05
   -.747E+01 -.656E+02 -.551E+01   0.771E+01 0.656E+02 0.534E+01   0.350E+00 0.679E+00 0.979E+00   0.869E-05 0.302E-04 -.562E-05
   0.224E+01 0.132E+02 0.119E+01   -.420E+01 -.109E+02 -.967E+00   0.107E+00 0.195E+01 -.124E+01   0.495E-04 0.169E-03 0.661E-05
   0.125E+02 0.115E+02 0.112E+00   -.134E+02 -.121E+02 -.125E+01   -.109E+01 0.186E+01 -.117E+01   0.231E-04 0.442E-04 0.202E-05
   -.219E+02 -.107E+03 0.296E+00   0.518E+02 0.137E+03 -.124E+01   0.219E+02 0.207E+02 -.141E+01   -.333E-04 -.476E-03 0.286E-04
   0.406E+02 -.227E+02 -.127E+01   -.739E+02 -.386E+01 0.174E+01   -.232E+02 -.194E+02 0.574E+00   0.111E-03 -.231E-03 0.155E-04
   0.842E+01 0.797E+02 -.568E+01   -.889E+01 -.791E+02 0.562E+01   -.467E+00 -.437E+00 0.107E+01   0.998E-05 0.226E-04 -.923E-06
   0.747E+01 -.656E+02 -.551E+01   -.771E+01 0.656E+02 0.534E+01   -.350E+00 0.679E+00 0.979E+00   -.870E-05 0.303E-04 -.554E-05
   -.224E+01 0.132E+02 0.119E+01   0.420E+01 -.109E+02 -.967E+00   -.107E+00 0.195E+01 -.124E+01   -.496E-04 0.169E-03 0.667E-05
   -.125E+02 0.115E+02 0.112E+00   0.134E+02 -.121E+02 -.125E+01   0.109E+01 0.186E+01 -.117E+01   -.231E-04 0.442E-04 0.205E-05
   0.219E+02 -.107E+03 0.296E+00   -.518E+02 0.137E+03 -.124E+01   -.219E+02 0.207E+02 -.141E+01   0.334E-04 -.476E-03 0.286E-04
   0.219E+02 0.107E+03 -.296E+00   -.518E+02 -.137E+03 0.124E+01   -.219E+02 -.207E+02 0.141E+01   0.334E-04 0.467E-03 -.285E-04
   -.125E+02 -.115E+02 -.111E+00   0.134E+02 0.121E+02 0.125E+01   0.109E+01 -.186E+01 0.117E+01   -.231E-04 -.278E-04 -.201E-05
   -.224E+01 -.132E+02 -.119E+01   0.420E+01 0.109E+02 0.967E+00   -.107E+00 -.195E+01 0.124E+01   -.495E-04 -.184E-03 -.662E-05
   0.747E+01 0.656E+02 0.551E+01   -.771E+01 -.656E+02 -.534E+01   -.350E+00 -.679E+00 -.979E+00   -.862E-05 -.233E-04 0.564E-05
   0.842E+01 -.797E+02 0.568E+01   -.889E+01 0.791E+02 -.562E+01   -.467E+00 0.437E+00 -.107E+01   0.100E-04 -.184E-04 0.974E-06
   0.406E+02 0.227E+02 0.127E+01   -.739E+02 0.386E+01 -.174E+01   -.232E+02 0.194E+02 -.574E+00   0.111E-03 0.217E-03 -.155E-04
   0.219E+02 0.107E+03 -.296E+00   -.518E+02 -.137E+03 0.124E+01   -.219E+02 -.207E+02 0.141E+01   0.334E-04 0.467E-03 -.285E-04
   -.125E+02 -.115E+02 -.111E+00   0.134E+02 0.121E+02 0.125E+01   0.109E+01 -.186E+01 0.117E+01   -.231E-04 -.278E-04 -.202E-05
   -.224E+01 -.132E+02 -.119E+01   0.420E+01 0.109E+02 0.967E+00   -.107E+00 -.195E+01 0.124E+01   -.496E-04 -.184E-03 -.659E-05
   0.747E+01 0.656E+02 0.551E+01   -.771E+01 -.656E+02 -.534E+01   -.350E+00 -.679E+00 -.979E+00   -.867E-05 -.233E-04 0.561E-05
   0.842E+01 -.797E+02 0.568E+01   -.889E+01 0.791E+02 -.562E+01   -.467E+00 0.437E+00 -.107E+01   0.999E-05 -.184E-04 0.957E-06
   0.406E+02 0.227E+02 0.127E+01   -.739E+02 0.386E+01 -.174E+01   -.232E+02 0.194E+02 -.574E+00   0.111E-03 0.217E-03 -.155E-04
   0.406E+02 -.227E+02 -.127E+01   -.739E+02 -.386E+01 0.174E+01   -.232E+02 -.194E+02 0.574E+00   0.111E-03 -.231E-03 0.155E-04
   0.842E+01 0.797E+02 -.568E+01   -.889E+01 -.791E+02 0.562E+01   -.467E+00 -.437E+00 0.107E+01   0.101E-04 0.226E-04 -.917E-06
   0.747E+01 -.656E+02 -.551E+01   -.771E+01 0.656E+02 0.534E+01   -.350E+00 0.679E+00 0.979E+00   -.866E-05 0.302E-04 -.553E-05
   -.224E+01 0.132E+02 0.119E+01   0.420E+01 -.109E+02 -.967E+00   -.107E+00 0.195E+01 -.124E+01   -.495E-04 0.169E-03 0.665E-05
   -.125E+02 0.115E+02 0.112E+00   0.134E+02 -.121E+02 -.125E+01   0.109E+01 0.186E+01 -.117E+01   -.230E-04 0.442E-04 0.208E-05
   0.219E+02 -.107E+03 0.296E+00   -.518E+02 0.137E+03 -.124E+01   -.219E+02 0.207E+02 -.141E+01   0.334E-04 -.476E-03 0.286E-04
   0.105E-02 -.161E-02 0.283E-02   0.142E-12 0.227E-12 0.246E-13   -.107E-13 -.711E-14 0.111E-14   0.334E-07 -.438E-04 0.269E-07

 POSITION                                       TOTAL-FORCE (eV/Angst)
      7.54937     15.48200      0.00000        56.416535    -45.913113      1.050581
      5.54904      8.88123      0.66678         0.940221      0.162233      1.010588
      3.54871      2.28046      1.33356         0.593788      0.684859      0.810951
      1.54837     12.65310      2.00034        -1.851956      4.237657     -1.021428
      7.54938      6.05233      2.66711        -2.032049      1.296146     -2.309185
      5.54904     16.42496      3.33389        51.848206     50.473362     -2.354220
      1.54837     11.23865      0.00000        51.848206    -50.473362      2.354220
      7.54937      4.63788      0.66678        -2.032049     -1.296146      2.309185
      5.54904     15.01051      1.33356        -1.851956     -4.237657      1.021428
      3.54871      8.40975      2.00034         0.593788     -0.684859     -0.810951
      1.54837      1.80898      2.66711         0.940221     -0.162233     -1.010588
      7.54937     12.18161      3.33389        56.416535     45.913113     -1.050581
      5.54904     11.23865      0.00000        51.848206    -50.473362      2.354220
      3.54871      4.63788      0.66678        -2.032049     -1.296146      2.309185
      1.54837     15.01051      1.33356        -1.851956     -4.237657      1.021428
      7.54937      8.40974      2.00034         0.593788     -0.684859     -0.810951
      5.54904      1.80898      2.66711         0.940221     -0.162233     -1.010588
      3.54870     12.18161      3.33389        56.416535     45.913113     -1.050581
      3.54871     15.48200      0.00000        56.416535    -45.913113      1.050581
      1.54837      8.88123      0.66678         0.940221      0.162233      1.010588
      7.54937      2.28046      1.33356         0.593788      0.684859      0.810951
      5.54904     12.65310      2.00034        -1.851956      4.237657     -1.021428
      3.54871      6.05233      2.66711        -2.032049      1.296146     -2.309185
      1.54837     16.42496      3.33389        51.848206     50.473362     -2.354220
      0.45196     15.48200      3.33389       -56.416535    -45.913113      1.050581
      2.45230      8.88123      4.00067        -0.940221      0.162233      1.010588
      4.45263      2.28046      4.66745        -0.593788      0.684859      0.810951
      6.45297     12.65310      5.33423         1.851956      4.237657     -1.021428
      0.45196      6.05233      6.00101         2.032049      1.296146     -2.309185
      2.45230     16.42496      6.66779       -51.848206     50.473362     -2.354220
      6.45297     11.23865      3.33389       -51.848206    -50.473362      2.354220
      0.45196      4.63788      4.00067         2.032049     -1.296146      2.309185
      2.45230     15.01051      4.66745         1.851956     -4.237657      1.021428
      4.45263      8.40974      5.33423        -0.593788     -0.684859     -0.810951
      6.45297      1.80898      6.00101        -0.940221     -0.162233     -1.010588
      0.45196     12.18161      6.66779       -56.416535     45.913113     -1.050581
      2.45230     11.23865      3.33389       -51.848206    -50.473362      2.354220
      4.45263      4.63788      4.00067         2.032049     -1.296146      2.309185
      6.45297     15.01051      4.66745         1.851956     -4.237657      1.021428
      0.45196      8.40975      5.33423        -0.593788     -0.684859     -0.810951
      2.45230      1.80898      6.00101        -0.940221     -0.162233     -1.010588
      4.45263     12.18161      6.66779       -56.416535     45.913113     -1.050581
      4.45263     15.48200      3.33389       -56.416535    -45.913113      1.050581
      6.45297      8.88123      4.00067        -0.940221      0.162233      1.010588
      0.45196      2.28046      4.66745        -0.593788      0.684859      0.810951
      2.45230     12.65310      5.33423         1.851956      4.237657     -1.021428
      4.45263      6.05233      6.00101         2.032049      1.296146     -2.309185
      6.45297     16.42496      6.66779       -51.848206     50.473362     -2.354220
    total drift:                                0.001054     -0.001651      0.002832

  FREE ENERGIE OF THE ION-ELECTRON SYSTEM (eV)
  free  energy   TOTEN  =       -20.28546208 eV

  energy  without entropy=      -20.28446471  energy(sigma->0) =      -20.28496339