 vasp.6.4.3 19Mar24 (build Oct 22 2024 11:23:12) complex

 executed on             LinuxIFC date 2025.06.04  07:59:57

 INCAR:
   SYSTEM = Si and Ge interface calculation
   ISTART = 0
   ICHARG = 2
   LWAVE = .FALSE.
   LREAL = AUTO
   ENCUT = 700
   ENAUG = 900
   ADDGRID = .TRUE.
   LMAXMIX = 6
   LASPH = .TRUE.
   LMIXTAU = .TRUE.
   NCORE = 16
   NELM = 100
   NBANDS = 231
   EDIFF = 1d-7
   AMIX = 0.6
   ISMEAR = 0
   SIGMA = 0.01
   NELECT = 384
   ISPIN = 2
   NUPDOWN = 1
   LVTOT = .FALSE.
   LVHAR = .TRUE.

 POTCAR:    PAW_PBE Ge 05Jan2001
|           W    W    AA    RRRRR   N    N  II  N    N   GGGG   !!!           |
|           W    W   A  A   R    R  NN   N  II  NN   N  G    G  !!!           |
|           W    W  A    A  R    R  N N  N  II  N N  N  G       !!!           |
|           W WW W  AAAAAA  RRRRR   N  N N  II  N  N N  G  GGG   !            |
|           WW  WW  A    A  R   R   N   NN  II  N   NN  G    G                |
|           W    W  A    A  R    R  N    N  II  N    N   GGGG   !!!           |
|     You use a magnetic or noncollinear calculation, but did not specify     |
|     the initial magnetic moment with the MAGMOM tag. Note that a            |
|     default of 0.01 will be used for all atoms. This ferromagnetic          |
|     setup may break the symmetry of the crystal, in particular it may       |
|     rule out finding an antiferromagnetic solution. Thence, we              |
|     recommend setting the initial magnetic moment manually or verifying     |
|     carefully that this magnetic setup is desired.                          |

 POTCAR:    PAW_PBE Ge 05Jan2001
   VRHFIN =Ge: s2p2

   TITEL  = PAW_PBE Ge 05Jan2001
   POMASS =   72.610; ZVAL   =    4.000    mass and valenz
   ENMAX  =  173.807; ENMIN  =  130.355 eV

 Optimization of the real space projectors (new method)

 maximal supplied QI-value         = 16.25
 optimisation between [QCUT,QGAM] = [ 13.49, 26.98] = [ 50.95,203.80] Ry
 Optimized for a Real-space Cutoff    1.25 Angstroem

   l    n(q)    QCUT    max X(q) W(low)/X(q) W(high)/X(q)  e(spline)
   0     10    13.489    65.336    0.91E-04    0.11E-03    0.34E-06
   0     10    13.489    52.220    0.89E-04    0.11E-03    0.34E-06
   1     10    13.489    36.409    0.22E-03    0.27E-03    0.14E-06
   1     10    13.489    21.334    0.21E-03    0.27E-03    0.14E-06
   2      9    13.489     4.673    0.11E-03    0.12E-03    0.19E-06
  PAW_PBE Ge 05Jan2001                  :

 POSCAR: Ge+Ge
  positions in direct lattice

 exchange-correlation table for PE
   RHO(1)=    0.500       N(1)  =     2000
   RHO(2)=  100.500       N(2)  =     4000

 ion  position               nearest neighbor table
   1  0.393  0.302  0.500-  31 0.00  12 2.43  87 2.45  69 2.45  80 2.58  48 2.78
   2  0.993  0.948  0.000-  49 2.14  38 2.45  21 2.45  39 2.45  79 2.75
   3  0.951  0.656  0.084-  22 2.45  39 2.45  40 2.45
   4  0.909  0.365  0.168-  20 2.45  51 2.45  68 2.45  70 2.45  40 2.45
   5  0.309  0.719  0.668-  19 2.45  95 2.45  94 2.45  65 2.45
   6  0.826  0.781  0.336-  56 2.43  22 2.45  74 2.45  62 2.45  86 2.45
   7  0.059  0.969  0.668-  42 0.00  92 2.45  71 2.45  95 2.45  23 2.45
   8  0.493  0.448  0.000-  55 2.14  45 2.45  15 2.45  44 2.45  73 2.75
   9  0.451  0.156  0.084-  45 2.45  16 2.45  46 2.45
  10  0.409  0.865  0.168-  14 2.45  47 2.45  17 2.45  46 2.45
  11  0.368  0.573  0.252-  15 2.45  47 2.45  18 2.45  48 2.45
  12  0.326  0.281  0.336-   1 2.43  31 2.43  16 2.45  80 2.45  48 2.45  13 2.45
  13  0.159  0.365  0.420-  87 2.43  25 2.45  12 2.45  37 2.78
  14  0.368  0.823  0.000-  67 2.14  10 2.45  26 2.45  79 2.53  91 2.75  84 2.83
  15  0.326  0.531  0.084-  11 2.45  27 2.45   8 2.45  26 2.45  55 2.83
  16  0.284  0.240  0.168-  12 2.45  28 2.45   9 2.45  27 2.45
  17  0.243  0.948  0.252-  28 2.45  63 2.45  82 2.45  10 2.45  29 2.45
  18  0.201  0.656  0.336-  19 2.43  11 2.45  29 2.45
  19  0.268  0.677  0.500-  18 2.43   5 2.45
  20  0.868  0.323  0.000-  61 2.14   4 2.45  32 2.45  73 2.53  85 2.75  78 2.83
  21  0.826  0.031  0.084-  58 2.45   2 2.45  32 2.45  33 2.45  49 2.83
  22  0.784  0.740  0.168-   6 2.45   3 2.45  34 2.45  33 2.45
  23  0.184  0.094  0.668-  37 2.45   7 2.45  42 2.45  54 2.45  81 2.45
  24  0.701  0.156  0.336-  30 2.43  41 2.43  36 2.45  58 2.45  35 2.45  43 2.78
  25  0.034  0.240  0.420-  37 2.43  51 2.45  68 2.45  13 2.45
  26  0.243  0.698  0.000-  79 2.14  14 2.45  39 2.45  15 2.45  55 2.75
  27  0.201  0.406  0.084-  15 2.45  40 2.45  16 2.45
  28  0.159  0.115  0.168-  17 2.45  38 2.45  16 2.45  51 2.45  68 2.45
  29  0.118  0.823  0.252-  39 2.45  74 2.45  17 2.45  18 2.45
  30  0.768  0.177  0.500-  41 0.00  24 2.43  52 2.45  43 2.45
  31  0.393  0.302  0.500-   1 0.00  12 2.43  87 2.45  69 2.45  80 2.58  48 2.78
  32  0.743  0.198  0.000-  73 2.14  21 2.45  20 2.45  45 2.45  49 2.75
  33  0.701  0.906  0.084-  46 2.45  21 2.45  22 2.45
  34  0.659  0.615  0.168-  70 2.45  44 2.45  22 2.45  47 2.45
  35  0.618  0.323  0.252-  70 2.45  45 2.45  24 2.45  48 2.45
  36  0.576  0.031  0.336-  43 2.43  46 2.45  24 2.45  62 2.45  86 2.45  80 2.45
  37  0.101  0.260  0.584-  25 2.43  88 2.45  23 2.45  87 2.45  13 2.78
  38  0.118  0.073  0.000-  85 2.14   2 2.45  28 2.45  49 2.53  67 2.75  54 2.83
  39  0.076  0.781  0.084-  29 2.45   3 2.45  26 2.45   2 2.45  79 2.83
  40  0.034  0.490  0.168-  27 2.45   4 2.45   3 2.45
  41  0.768  0.177  0.500-  30 0.00  24 2.43  52 2.45  43 2.45
  42  0.059  0.969  0.668-   7 0.00  92 2.45  71 2.45  95 2.45  23 2.45
  43  0.643  0.052  0.500-  36 2.43  69 2.45  41 2.45  30 2.45  93 2.45  86 2.58  62 2.58  24 2.78

  44  0.618  0.573  0.000-  91 2.14  34 2.45   8 2.45  55 2.53  61 2.75  60 2.83
  45  0.576  0.281  0.084-   8 2.45   9 2.45  35 2.45  32 2.45  73 2.83
  46  0.534  0.990  0.168-  36 2.45  33 2.45  10 2.45   9 2.45
  47  0.493  0.698  0.252-  11 2.45  10 2.45  34 2.45
  48  0.451  0.406  0.336-  12 2.45  11 2.45  35 2.45  31 2.78   1 2.78
  49  0.934  0.094  0.920-   2 2.14  71 2.45  85 2.45  38 2.53  32 2.75  21 2.83
  50  0.784  0.490  0.420-  75 2.43  70 2.45
  51  0.993  0.198  0.252-  68 0.00  58 2.45   4 2.45  25 2.45  28 2.45
  52  0.809  0.219  0.668-  30 2.45  41 2.45  71 2.45  88 2.45  89 2.45
  53  0.518  0.177  0.752-  72 2.45  69 2.45  89 2.45  90 2.45
  54  0.226  0.135  0.836-  67 2.45  23 2.45  90 2.45  85 2.45  38 2.83
  55  0.434  0.594  0.920-   8 2.14  65 2.45  91 2.45  44 2.53  26 2.75  15 2.83
  56  0.893  0.802  0.500-   6 2.43  93 2.45  92 2.45  74 2.78
  57  0.601  0.760  0.584-  64 2.45  94 2.45  93 2.45  62 2.78  86 2.78
  58  0.868  0.073  0.252-  21 2.45  51 2.45  68 2.45  24 2.45  74 2.45
  59  0.018  0.677  0.752-  95 2.45  96 2.45  66 2.45
  60  0.726  0.635  0.836-  96 2.45  64 2.45  61 2.45  91 2.45  44 2.83
  61  0.809  0.469  0.920-  20 2.14  73 2.45  60 2.45  78 2.45  44 2.75
  62  0.659  0.865  0.420-  86 0.00  93 2.43   6 2.45  36 2.45  43 2.58  57 2.78
  63  0.284  0.990  0.420-  82 0.00  81 2.43  17 2.45  80 2.45
  64  0.684  0.594  0.668-  57 2.45  60 2.45  76 2.45  75 2.45
  65  0.393  0.552  0.752-  55 2.45  76 2.45  77 2.45   5 2.45
  66  0.101  0.510  0.836-  78 2.45  77 2.45  59 2.45
  67  0.309  0.969  0.920-  14 2.14  54 2.45  79 2.45  84 2.45  38 2.75
  68  0.993  0.198  0.252-  51 0.00  58 2.45   4 2.45  25 2.45  28 2.45
  69  0.476  0.135  0.584-  80 2.43  81 2.45  43 2.45  53 2.45   1 2.45  31 2.45
  70  0.743  0.448  0.252-  35 2.45  34 2.45  50 2.45   4 2.45
  71  0.893  0.052  0.752-  49 2.45  42 2.45   7 2.45  52 2.45  83 2.45
  72  0.601  0.010  0.836-  53 2.45  84 2.45  83 2.45
  73  0.684  0.344  0.920-  32 2.14  61 2.45  89 2.45  20 2.53   8 2.75  45 2.83
  74  0.951  0.906  0.336-  92 2.43  29 2.45  58 2.45   6 2.45  56 2.78
  75  0.851  0.510  0.584-  50 2.43  88 2.45  64 2.45
  76  0.559  0.469  0.668-  89 2.45  65 2.45  64 2.45
  77  0.268  0.427  0.752-  90 2.45  87 2.45  65 2.45  66 2.45
  78  0.976  0.385  0.836-  88 2.45  85 2.45  61 2.45  66 2.45  20 2.83
  79  0.184  0.844  0.920-  26 2.14  67 2.45  95 2.45  14 2.53   2 2.75  39 2.83
  80  0.409  0.115  0.420-  69 2.43  12 2.45  63 2.45  82 2.45  36 2.45   1 2.58  31 2.58  81 2.78

  81  0.351  0.010  0.584-  63 2.43  82 2.43  69 2.45  23 2.45  94 2.45  80 2.78
  82  0.284  0.990  0.420-  63 0.00  81 2.43  17 2.45  80 2.45
  83  0.768  0.927  0.752-  71 2.45  72 2.45  93 2.45  96 2.45
  84  0.476  0.885  0.836-  72 2.45  94 2.45  91 2.45  67 2.45  14 2.83
  85  0.059  0.219  0.920-  38 2.14  49 2.45  78 2.45  54 2.45  20 2.75
  86  0.659  0.865  0.420-  62 0.00  93 2.43   6 2.45  36 2.45  43 2.58  57 2.78
  87  0.226  0.385  0.584-  13 2.43   1 2.45  31 2.45  77 2.45  37 2.45
  88  0.934  0.344  0.668-  37 2.45  78 2.45  75 2.45  52 2.45
  89  0.643  0.302  0.752-  76 2.45  73 2.45  52 2.45  53 2.45
  90  0.351  0.260  0.836-  77 2.45  54 2.45  53 2.45
  91  0.559  0.719  0.920-  44 2.14  60 2.45  84 2.45  55 2.45  14 2.75
  92  0.018  0.927  0.500-  74 2.43  42 2.45   7 2.45  56 2.45
  93  0.726  0.885  0.584-  62 2.43  86 2.43  57 2.45  56 2.45  43 2.45  83 2.45
  94  0.434  0.844  0.668-  57 2.45  84 2.45   5 2.45  81 2.45
  95  0.143  0.802  0.752-  79 2.45  42 2.45   7 2.45  59 2.45   5 2.45
  96  0.851  0.760  0.836-  60 2.45  59 2.45  83 2.45

  LATTYP: Found a base centered orthorhombic cell.
 ALAT       =    16.0026764918
 B/A-ratio  =     1.2247448613
 C/A-ratio  =     0.8583040932

  Lattice vectors:

 A1 = (  -2.5302453040, -12.3956203460,   0.0000000000)
 A2 = (  12.6512260440,   0.0000000000,   0.0000000000)
 A3 = (   0.0000000000,   0.0000000000,  13.7351627350)

Analysis of symmetry for initial positions (statically):
 Subroutine PRICEL returns:
 Original cell was already a primitive cell.

 Routine SETGRP: Setting up the symmetry group for a
 base centered orthorhombic supercell.

 Subroutine GETGRP returns: Found  2 space group operations
 (whereof  1 operations were pure point group operations)
 out of a pool of  8 trial point group operations.

The static configuration has the point symmetry C_1 .
 The point group associated with its full space group is S_2 .

Analysis of symmetry for dynamics (positions and initial velocities):
 Subroutine PRICEL returns:
 Original cell was already a primitive cell.

[...]

The dynamic configuration has the point symmetry C_1 .
 The point group associated with its full space group is S_2 .

Analysis of structural, dynamic, and magnetic symmetry:
 Subroutine PRICEL returns:
 Original cell was already a primitive cell.

 Routine SETGRP: Setting up the symmetry group for a
 base centered orthorhombic supercell.

 Subroutine GETGRP returns: Found  2 space group operations
 (whereof  1 operations were pure point group operations)
 out of a pool of  8 trial point group operations.

The overall configuration has the point symmetry C_1 .
 The point group associated with its full space group is S_2 .

 Subroutine INISYM returns: Found  2 space group operations
 (whereof  1 operations are pure point group operations),
 and found     1 'primitive' translations

                                     Primitive cell

  volume of cell :    2153.9454

[...]
     0.000000000  0.000000000 13.735162735     0.000000000  0.000000000  0.072805836

  length of vectors
    12.651226044 12.651227018 13.735162735     0.080673661  0.080673655  0.072805836

 FORCES acting on ions
    electron-ion (+dipol)            ewald-force                    non-local-force                 convergence-correction
   -.270E+02 -.717E+02 -.209E+02   0.295E+02 0.733E+02 0.235E+02   -.777E+00 0.131E+00 -.111E+01   -.178E-04 -.832E-04 -.143E-04
   0.272E+02 0.515E+02 -.449E+01   -.277E+02 -.528E+02 0.468E+01   0.612E+00 -.280E+01 0.163E+01   0.318E-04 0.552E-04 -.317E-04
   0.310E+01 0.144E+02 0.122E+02   -.346E+01 -.153E+02 -.132E+02   -.130E+00 0.463E+00 0.422E+00   0.174E-04 0.148E-04 -.330E-04
   -.592E+01 -.566E+02 -.610E+01   0.590E+01 0.573E+02 0.508E+01   -.164E+00 0.585E+00 0.509E+00   0.265E-04 -.109E-03 -.760E-04
   0.472E+01 0.309E+02 0.291E+02   -.441E+01 -.310E+02 -.292E+02   -.359E+00 0.214E-02 -.200E+00   0.438E-04 0.362E-04 0.206E-03
   -.284E+02 0.823E+02 0.216E+02   0.288E+02 -.834E+02 -.221E+02   0.176E+00 -.438E+00 -.620E+00   0.476E-05 0.106E-03 0.297E-04
   0.350E+01 0.217E+02 0.976E+01   -.375E+01 -.223E+02 -.955E+01   0.180E+00 0.376E+00 -.463E+00   -.279E-04 0.184E-04 0.924E-04
   0.261E+02 0.303E+02 -.438E+01   -.266E+02 -.317E+02 0.471E+01   0.640E+00 -.281E+01 0.154E+01   0.269E-04 0.470E-04 -.188E-04
   0.551E+01 -.571E+00 0.346E+02   -.599E+01 -.323E-01 -.360E+02   -.718E-01 0.187E+00 0.582E+00   0.103E-04 0.405E-06 -.304E-04
   -.815E+01 0.164E+02 -.659E+01   0.859E+01 -.170E+02 0.628E+01   -.140E+00 0.498E+00 0.713E+00   -.619E-05 0.988E-05 -.102E-03
   0.420E+01 -.501E+01 -.271E+02   -.374E+01 0.524E+01 0.269E+02   -.353E+00 0.110E+00 0.320E+00   -.383E-04 -.362E-04 -.137E-03
   0.214E+02 -.368E+02 0.576E+02   -.217E+02 0.368E+02 -.584E+02   -.108E+01 -.324E+00 -.266E+01   0.463E-05 0.766E-05 0.571E-04
   0.368E+02 -.883E+02 0.223E+02   -.380E+02 0.898E+02 -.236E+02   -.174E-01 -.255E-01 -.377E+00   0.367E-04 -.254E-04 0.791E-05
   -.260E+02 0.121E+02 -.256E+02   0.274E+02 -.135E+02 0.270E+02   0.695E+00 -.184E+01 0.217E+01   -.429E-04 -.255E-04 -.501E-04
   0.253E+02 0.927E+01 -.153E+02   -.251E+02 -.102E+02 0.161E+02   -.102E+01 0.653E+00 0.338E-01   0.207E-04 0.303E-04 -.619E-04
   -.535E+01 -.213E+02 0.201E+02   0.591E+01 0.217E+02 -.201E+02   -.621E+00 -.252E+00 -.515E+00   -.122E-04 0.876E-05 -.396E-04
   0.297E+01 0.305E+02 0.164E+02   -.318E+01 -.309E+02 -.170E+02   -.257E+00 0.115E+00 -.633E+00   -.682E-05 0.215E-04 -.752E-04
   0.301E+02 0.276E+02 -.225E+02   -.314E+02 -.290E+02 0.232E+02   0.617E+00 0.733E+00 -.488E-01   -.782E-04 -.326E-04 -.162E-03
   0.378E+01 0.262E+02 0.575E+01   -.302E+01 -.263E+02 -.686E+01   -.777E+00 0.159E+00 0.606E+00   -.480E-04 0.163E-04 -.110E-04
   -.234E+02 -.155E+02 -.181E+02   0.248E+02 0.141E+02 0.195E+02   0.642E+00 -.194E+01 0.192E+01   -.308E-04 -.216E-04 -.573E-04
   0.261E+02 0.230E+02 0.188E+01   -.260E+02 -.242E+02 -.161E+01   -.837E+00 0.844E+00 0.504E+00   0.429E-04 0.258E-04 -.650E-04
   -.862E+01 0.214E+02 0.156E+01   0.877E+01 -.213E+02 -.248E+01   -.911E-01 -.159E+00 0.469E+00   -.128E-05 0.244E-04 -.585E-04
   -.165E+02 -.217E+02 -.670E+01   0.172E+02 0.223E+02 0.734E+01   0.604E+00 0.358E+00 -.512E+00   -.563E-04 -.262E-04 0.751E-04
   0.676E+00 -.307E+02 0.393E+02   -.868E+00 0.306E+02 -.403E+02   -.887E-02 0.505E+00 -.185E+01   -.376E-04 -.418E-04 -.320E-04
   0.159E+02 -.330E+02 -.240E+02   -.168E+02 0.329E+02 0.240E+02   0.294E+00 0.895E-01 0.817E+00   0.587E-04 -.126E-04 -.890E-04
   0.271E+02 0.476E+02 -.743E+01   -.275E+02 -.492E+02 0.766E+01   0.593E+00 -.262E+01 0.154E+01   0.478E-04 0.260E-04 -.175E-04
   0.719E+01 -.130E+02 0.204E+02   -.790E+01 0.129E+02 -.210E+02   0.135E-01 -.606E-01 0.872E-01   0.101E-04 0.823E-05 -.198E-04
   -.294E+02 0.163E+01 0.147E+02   0.299E+02 -.197E+01 -.158E+02   0.745E+00 -.200E+00 0.503E+00   -.863E-04 0.497E-04 -.463E-04
   0.583E+01 0.395E+02 -.134E+02   -.600E+01 -.397E+02 0.131E+02   0.258E+00 0.220E+00 0.433E+00   -.377E-04 -.116E-05 -.876E-04
   -.262E+02 -.445E+02 -.519E+01   0.283E+02 0.467E+02 0.523E+01   -.867E+00 -.122E+01 0.236E+00   -.434E-04 -.458E-04 0.111E-04
   -.270E+02 -.717E+02 -.209E+02   0.295E+02 0.733E+02 0.235E+02   -.777E+00 0.131E+00 -.111E+01   -.178E-04 -.832E-04 -.143E-04
   0.292E+02 0.310E+02 0.658E+00   -.298E+02 -.324E+02 -.406E+00   0.788E+00 -.284E+01 0.150E+01   0.419E-04 0.330E-04 -.169E-04
   0.647E+01 0.186E+02 0.324E+02   -.684E+01 -.189E+02 -.338E+02   -.106E+00 0.134E+00 0.641E+00   0.209E-04 0.195E-04 -.265E-04
   -.936E+01 -.180E+01 -.242E+02   0.877E+01 0.230E+01 0.241E+02   0.599E+00 -.265E+00 0.533E+00   -.175E-04 -.126E-04 -.146E-03
   0.479E+00 -.310E+02 -.769E+01   -.821E+00 0.312E+02 0.733E+01   0.407E+00 -.984E-01 0.584E+00   -.327E-04 -.283E-04 -.887E-04
   0.160E+02 -.253E+01 0.569E+02   -.163E+02 0.279E+01 -.583E+02   -.418E+00 0.776E+00 -.114E+01   0.193E-04 -.576E-04 0.311E-04
   0.147E+02 -.332E+02 -.760E+01   -.147E+02 0.332E+02 0.807E+01   -.240E+00 -.545E+00 0.376E+00   0.483E-04 0.196E-04 0.318E-04
   -.286E+02 0.311E+01 -.196E+02   0.301E+02 -.458E+01 0.208E+02   0.581E+00 -.185E+01 0.216E+01   -.552E-04 -.184E-05 -.590E-04
   0.228E+02 0.332E+02 -.144E+02   -.228E+02 -.341E+02 0.150E+02   -.600E+00 0.707E+00 0.288E+00   0.360E-04 0.230E-04 -.716E-04
   -.101E+02 -.285E+02 -.333E+02   0.110E+02 0.293E+02 0.339E+02   -.362E+00 -.421E+00 -.235E+00   0.350E-04 -.189E-04 -.474E-04
   -.262E+02 -.445E+02 -.519E+01   0.283E+02 0.467E+02 0.523E+01   -.867E+00 -.122E+01 0.236E+00   -.434E-04 -.458E-04 0.111E-04
   0.350E+01 0.217E+02 0.976E+01   -.375E+01 -.223E+02 -.955E+01   0.180E+00 0.376E+00 -.463E+00   -.279E-04 0.184E-04 0.924E-04
   0.532E+00 -.775E+01 -.354E+02   -.141E+01 0.732E+01 0.363E+02   0.331E-01 0.549E+00 0.216E+01   -.474E-04 -.597E-04 -.406E-04
   -.257E+02 -.667E+00 -.258E+02   0.270E+02 -.687E+00 0.275E+02   0.739E+00 -.194E+01 0.182E+01   -.450E-05 -.236E-04 -.487E-04
   0.228E+02 0.197E+01 -.375E+01   -.227E+02 -.283E+01 0.425E+01   -.773E+00 0.751E+00 0.420E+00   0.313E-04 0.626E-05 -.617E-04
   -.403E+00 0.841E+01 0.251E+02   0.656E+00 -.824E+01 -.255E+02   -.316E+00 -.153E+00 -.283E+00   0.926E-05 0.164E-04 -.272E-04
   -.486E+01 0.142E+02 -.461E+02   0.530E+01 -.140E+02 0.475E+02   -.164E+00 -.116E+00 -.861E+00   0.360E-05 0.118E-04 -.119E-03
   -.242E+02 -.600E+02 -.774E+01   0.247E+02 0.605E+02 0.862E+01   -.358E-01 -.764E-01 -.265E+00   -.409E-04 -.788E-04 -.257E-04
   0.286E+02 -.311E+01 0.196E+02   -.301E+02 0.458E+01 -.208E+02   -.581E+00 0.185E+01 -.216E+01   0.517E-04 0.390E-05 0.640E-04
   -.378E+01 -.262E+02 -.575E+01   0.302E+01 0.263E+02 0.686E+01   0.777E+00 -.159E+00 -.606E+00   0.481E-04 -.178E-04 0.561E-05
   -.350E+01 -.217E+02 -.976E+01   0.375E+01 0.223E+02 0.955E+01   -.180E+00 -.376E+00 0.463E+00   0.238E-04 -.156E-04 -.934E-04
   -.297E+01 -.305E+02 -.164E+02   0.318E+01 0.309E+02 0.170E+02   0.257E+00 -.115E+00 0.633E+00   0.638E-05 -.198E-04 0.735E-04
   0.403E+00 -.841E+01 -.251E+02   -.656E+00 0.824E+01 0.255E+02   0.316E+00 0.153E+00 0.283E+00   -.507E-05 -.166E-04 0.283E-04
   -.261E+02 -.230E+02 -.188E+01   0.260E+02 0.242E+02 0.161E+01   0.837E+00 -.844E+00 -.504E+00   -.444E-04 -.246E-04 0.685E-04
   0.257E+02 0.667E+00 0.258E+02   -.270E+02 0.687E+00 -.275E+02   -.739E+00 0.194E+01 -.182E+01   0.906E-05 0.222E-04 0.542E-04
   -.368E+02 0.883E+02 -.223E+02   0.380E+02 -.898E+02 0.236E+02   0.174E-01 0.255E-01 0.377E+00   -.402E-04 0.252E-04 -.130E-04
   0.242E+02 0.600E+02 0.774E+01   -.247E+02 -.605E+02 -.862E+01   0.358E-01 0.764E-01 0.265E+00   0.450E-04 0.771E-04 0.221E-04
   0.165E+02 0.217E+02 0.670E+01   -.172E+02 -.223E+02 -.734E+01   -.604E+00 -.358E+00 0.512E+00   0.540E-04 0.287E-04 -.766E-04
   0.101E+02 0.285E+02 0.333E+02   -.110E+02 -.293E+02 -.339E+02   0.362E+00 0.421E+00 0.235E+00   -.403E-04 0.184E-04 0.491E-04
   -.253E+02 -.927E+01 0.153E+02   0.251E+02 0.102E+02 -.161E+02   0.102E+01 -.653E+00 -.338E-01   -.191E-04 -.317E-04 0.661E-04
[...]
   0.535E+01 0.213E+02 -.201E+02   -.591E+01 -.217E+02 0.201E+02   0.621E+00 0.252E+00 0.515E+00   0.120E-04 -.830E-05 0.416E-04
   -.228E+02 -.197E+01 0.375E+01   0.227E+02 0.283E+01 -.425E+01   0.773E+00 -.751E+00 -.420E+00   -.268E-04 -.662E-05 0.659E-04
   -.272E+02 -.515E+02 0.449E+01   0.277E+02 0.528E+02 -.468E+01   -.612E+00 0.280E+01 -.163E+01   -.362E-04 -.535E-04 0.366E-04
   0.270E+02 0.717E+02 0.209E+02   -.295E+02 -.733E+02 -.235E+02   0.777E+00 -.131E+00 0.111E+01   0.204E-04 0.826E-04 0.888E-05
   0.284E+02 -.823E+02 -.216E+02   -.288E+02 0.834E+02 0.221E+02   -.176E+00 0.438E+00 0.620E+00   -.682E-05 -.107E-03 -.341E-04
   -.583E+01 -.395E+02 0.134E+02   0.600E+01 0.397E+02 -.131E+02   -.258E+00 -.220E+00 -.433E+00   0.340E-04 0.189E-05 0.857E-04
   0.815E+01 -.164E+02 0.659E+01   -.859E+01 0.170E+02 -.628E+01   0.140E+00 -.498E+00 -.713E+00   0.100E-04 -.103E-04 0.102E-03
   -.647E+01 -.186E+02 -.324E+02   0.684E+01 0.189E+02 0.338E+02   0.106E+00 -.134E+00 -.641E+00   -.192E-04 -.201E-04 0.299E-04
   -.261E+02 -.303E+02 0.438E+01   0.266E+02 0.317E+02 -.471E+01   -.640E+00 0.281E+01 -.154E+01   -.219E-04 -.484E-04 0.244E-04
   -.159E+02 0.330E+02 0.240E+02   0.168E+02 -.329E+02 -.240E+02   -.294E+00 -.895E-01 -.817E+00   -.630E-04 0.151E-04 0.840E-04
   -.214E+02 0.368E+02 -.576E+02   0.217E+02 -.368E+02 0.584E+02   0.108E+01 0.324E+00 0.266E+01   -.371E-05 -.766E-05 -.605E-04
   -.479E+00 0.310E+02 0.769E+01   0.821E+00 -.312E+02 -.733E+01   -.407E+00 0.984E-01 -.584E+00   0.368E-04 0.281E-04 0.878E-04
   0.592E+01 0.566E+02 0.610E+01   -.590E+01 -.573E+02 -.508E+01   0.164E+00 -.585E+00 -.509E+00   -.298E-04 0.109E-03 0.780E-04
   -.719E+01 0.130E+02 -.204E+02   0.790E+01 -.129E+02 0.210E+02   -.135E-01 0.606E-01 -.872E-01   -.128E-04 -.863E-05 0.241E-04
   -.873E-02 -.437E-02 0.175E-03   0.103E-12 0.135E-12 0.160E-12   -.115E-14 0.763E-15 -.389E-14   0.302E-05 0.944E-05 0.313E-05

 POSITION                                       TOTAL-FORCE (eV/Angst)
      5.73100      3.74489      6.86758         1.709274      1.711142      1.412781
     14.95649     11.75269      0.00000         0.063112     -4.108916      1.822576
     13.69137      8.13730      1.15489        -0.489990     -0.447802     -0.566778
     12.42624      4.52191      2.30979        -0.178419      1.314748     -0.508499
      5.73100      8.90973      9.17737        -0.044369     -0.113122     -0.257582
     12.42624      9.68675      4.61958         0.588097     -1.496736     -1.201276
      3.20075     12.00864      9.17737        -0.067826     -0.136250     -0.257909
      7.36576      5.55488      0.00000         0.139698     -4.245638      1.879170
      6.10063      1.93949      1.15489        -0.550845     -0.415922     -0.787383
      7.36575     10.71972      2.30979         0.295899     -0.093525      0.402589
      6.10063      7.10433      3.46468         0.106917      0.339071      0.103650
      4.83551      3.48894      4.61958        -1.346179     -0.253648     -3.461160
      2.93782      4.52191      5.77447        -1.228392      1.492643     -1.661974
      6.73320     10.20324      0.00000         2.003854     -3.259090      3.499006
      5.46807      6.58785      1.15489        -0.740571     -0.243007      0.896664
      4.20295      2.97246      2.30979        -0.056844      0.143106     -0.545059
      5.46807     11.75269      3.46468        -0.465371     -0.228533     -1.238661
      4.20295      8.13730      4.61958        -0.656651     -0.627133      0.587694
      5.09844      8.39325      6.86758        -0.018602      0.075764     -0.500371
     11.79369      4.00543      0.00000         2.084570     -3.336004      3.336191
     10.52856      0.39004      1.15489        -0.702629     -0.370819      0.765927
     11.79368      9.17027      2.30979         0.060988     -0.095983     -0.459456
      2.56819      1.16247      9.17737         1.258491      0.905268      0.137807
      9.26344      1.93949      4.61958        -0.201339      0.445701     -2.838193
      1.04014      2.97245      5.77447        -0.614093      0.083851      0.898440
      4.83551      8.65379      0.00000         0.099708     -4.155397      1.763745
      3.57039      5.03840      1.15489        -0.690921     -0.127064     -0.538901
      2.30526      1.42300      2.30979         1.268121     -0.539885     -0.625753
      3.57039     10.20324      3.46468         0.086425      0.003432      0.138037
     10.15893      2.19544      6.86758         1.172243      1.028600      0.280514
      5.73100      3.74489      6.86758         1.709274      1.711142      1.412781
      9.89600      2.45598      0.00000         0.165147     -4.217509      1.754911
     11.16112     11.23620      1.15489        -0.479250     -0.162753     -0.746840
      9.89600      7.62081      2.30979         0.005586      0.229223      0.470662
      8.63088      4.00543      3.46468         0.064420      0.128457      0.226071
      7.36575      0.39003      4.61958        -0.744262      1.035606     -2.526877
      1.93563      3.22841      8.02248        -0.201813     -0.574326      0.848486
      1.67271      0.90652      0.00000         2.095349     -3.313792      3.450781
      2.93783      9.68675      1.15489        -0.600269     -0.255853      0.905178
      1.67270      6.07136      2.30979         0.575054      0.369436      0.395174
     10.15893      2.19544      6.86758         1.172243      1.028600      0.280514
      3.20075     12.00864      9.17737        -0.067826     -0.136250     -0.257909
      8.26125      0.64599      6.86758        -0.841517      0.123289      3.037883
      9.26344      7.10433      0.00000         2.116906     -3.292343      3.469283
      7.99832      3.48894      1.15489        -0.686209     -0.115006      0.917333
      9.26344     12.26917      2.30979        -0.062610      0.011154     -0.674771
      7.99832      8.65378      3.46468         0.280701      0.052732      0.619084
      6.73319      5.03839      4.61958         0.441386      0.454820      0.616424
     12.05661      1.16247     12.64205        -2.095349      3.313792     -3.450781
     11.16112      6.07136      5.77447         0.018602     -0.075764      0.500371
     13.05880      2.45597      3.46468         0.067826      0.136250      0.257909
     10.79149      2.71192      9.17737         0.465371      0.228533      1.238661
      6.99612      2.19544     10.33227         0.062610     -0.011154      0.674771
      3.20075      1.67895     11.48716         0.702629      0.370819     -0.765927
      6.99612      7.36028     12.64205        -2.116906      3.292343     -3.469283
     13.32174      9.94270      6.86758         1.228392     -1.492643      1.661974
      9.52637      9.42622      8.02248        -0.441386     -0.454820     -0.616424
     11.16112      0.90652      3.46468        -1.258491     -0.905268     -0.137807
      1.93563      8.39325     10.33227        -0.575054     -0.369436     -0.395174
     10.79149      7.87676     11.48716         0.740571      0.243007     -0.896664
[...]
      6.10063     12.26917      5.77447        -1.172243     -1.028600     -0.280514
     12.05661     11.49215     10.33227         0.056844     -0.143106      0.545059
      8.26124     10.97567     11.48716         0.686209      0.115006     -0.917333
      1.30307      2.71192     12.64205        -0.063112      4.108916     -1.822576
     10.52856     10.71972      5.77447        -1.709274     -1.711142     -1.412781
      3.83332      4.77786      8.02248        -0.588097      1.496736      1.201276
     12.68917      4.26137      9.17737        -0.086425     -0.003432     -0.138037
      8.89381      3.74489     10.33226        -0.295899      0.093525     -0.402589
      5.09844      3.22841     11.48716         0.479250      0.162753      0.746840
      8.89380      8.90973     12.64205        -0.139698      4.245638     -1.879170
      2.56820     11.49216      6.86758         0.614093     -0.083851     -0.898440
     11.42405     10.97567      8.02248         1.346179      0.253648      3.461160
      7.62869     10.45919      9.17737        -0.064420     -0.128457     -0.226071
      3.83332      9.94270     10.33227         0.178419     -1.314748      0.508499
     12.68917      9.42622     11.48716         0.690921      0.127064      0.538901
    total drift:                               -0.008729     -0.004364      0.000179

  FREE ENERGIE OF THE ION-ELECTRON SYSTEM (eV)
  free  energy   TOTEN  =     -1194.31489096 eV

  energy  without entropy=    -1194.31221955  energy(sigma->0) =    -1194.31355526