 vasp.6.4.3 19Mar24 (build Oct 22 2024 11:23:12) complex

 executed on             LinuxIFC date 2025.06.04  00:28:04

 INCAR:
   SYSTEM = Si and Ge interface calculation
   ISTART = 0
   ICHARG = 2
   LWAVE = .FALSE.
   LREAL = AUTO
   ENCUT = 700
   ENAUG = 900
   ADDGRID = .TRUE.
   LMAXMIX = 6
   LASPH = .TRUE.
   LMIXTAU = .TRUE.
   NCORE = 16
   NELM = 100
   NBANDS = 116
   EDIFF = 1d-7
   AMIX = 0.6
   ISMEAR = 0
   SIGMA = 0.01
   NELECT = 192
   ISPIN = 2
   NUPDOWN = 1
   LVTOT = .FALSE.
   LVHAR = .TRUE.

 POTCAR:    PAW_PBE Si 05Jan2001
|           W    W    AA    RRRRR   N    N  II  N    N   GGGG   !!!           |
|           W    W   A  A   R    R  NN   N  II  NN   N  G    G  !!!           |
|           W    W  A    A  R    R  N N  N  II  N N  N  G       !!!           |
|           W WW W  AAAAAA  RRRRR   N  N N  II  N  N N  G  GGG   !            |
|           WW  WW  A    A  R   R   N   NN  II  N   NN  G    G                |
|           W    W  A    A  R    R  N    N  II  N    N   GGGG   !!!           |
|     You use a magnetic or noncollinear calculation, but did not specify     |
|     the initial magnetic moment with the MAGMOM tag. Note that a            |
|     default of 0.021 will be used for all atoms. This ferromagnetic         |
|     setup may break the symmetry of the crystal, in particular it may       |
|     rule out finding an antiferromagnetic solution. Thence, we              |
|     recommend setting the initial magnetic moment manually or verifying     |
|     carefully that this magnetic setup is desired.                          |

 POTCAR:    PAW_PBE Si 05Jan2001
   VRHFIN =Si: s2p2

   TITEL  = PAW_PBE Si 05Jan2001
   POMASS =   28.085; ZVAL   =    4.000    mass and valenz
   ENMAX  =  245.345; ENMIN  =  184.009 eV

 Optimization of the real space projectors (new method)

 maximal supplied QI-value         = 19.84
 optimisation between [QCUT,QGAM] = [ 13.49, 26.99] = [ 50.98,203.92] Ry
 Optimized for a Real-space Cutoff    1.07 Angstroem

   l    n(q)    QCUT    max X(q) W(low)/X(q) W(high)/X(q)  e(spline)
   0      9    13.493   159.560    0.22E-03    0.15E-03    0.72E-07
   0      9    13.493   115.863    0.21E-03    0.15E-03    0.71E-07
   1      8    13.493    88.339    0.15E-03    0.11E-03    0.13E-06
   1      8    13.493    48.592    0.15E-03    0.10E-03    0.13E-06
  PAW_PBE Si 05Jan2001                  :

 POSCAR: Si+Si
  positions in direct lattice

 exchange-correlation table for PE
   RHO(1)=    0.500       N(1)  =     2000
   RHO(2)=  100.500       N(2)  =     4000

 ion  position               nearest neighbor table
   1  0.994  0.994  0.000-  37 2.28  47 2.34  10 2.35  31 2.35  46 2.76  43 2.92  15 2.97  30 2.97

   2  0.827  0.827  0.300-  11 2.35  16 2.35  31 2.35  32 2.35
   3  0.661  0.661  0.600-  17 2.35  12 2.35  33 2.35  32 2.35  38 2.92  41 3.07
   4  0.327  0.327  0.000-  42 1.14  28 2.35  13 2.35  45 2.94  18 2.97  36 2.97  48 3.09
   5  0.161  0.161  0.300-  10 2.35  28 2.35  14 2.35  29 2.35
   6  0.994  0.994  0.600-  37 1.38  29 2.35  15 2.35  11 2.35  30 2.35  46 2.76  43 2.92
   7  0.661  0.661  0.000-  44 1.91  38 2.29  16 2.35  34 2.35  48 2.36  41 2.48  45 2.54  39 2.84
                            12 2.97  33 2.97
   8  0.494  0.494  0.300-  13 2.35  17 2.35  35 2.35  34 2.35  45 2.75
   9  0.327  0.327  0.600-  14 2.35  18 2.35  35 2.35  36 2.35
  10  0.244  0.994  0.150-   5 2.35   1 2.35  20 2.35  19 2.35
  11  0.077  0.827  0.450-   2 2.35  21 2.35   6 2.35  20 2.35
  12  0.911  0.661  0.750-  38 1.00   3 2.35  21 2.35  48 2.73  47 2.82   7 2.97  22 2.97  44 2.97

  13  0.577  0.327  0.150-  26 2.35   8 2.35  25 2.35   4 2.35  45 2.69  39 2.76  42 2.92
  14  0.411  0.161  0.450-   9 2.35  27 2.35   5 2.35  26 2.35
  15  0.244  0.994  0.750-  46 1.14  40 1.82  37 2.05   6 2.35  27 2.35   1 2.97  19 2.97  44 3.12

[...]

  45  0.462  0.529  1.000-  34 2.04  42 2.35  39 2.35  41 2.35  22 2.36   7 2.54  13 2.69  33 2.73
                             8 2.75   4 2.94  25 3.09
  46  0.184  0.085  0.800-  15 1.14  37 2.35  40 2.35   1 2.76   6 2.76  36 2.84  27 2.92  19 2.92

  47  0.073  0.807  0.900-  22 1.91   1 2.34  38 2.35  41 2.35  37 2.35  12 2.82  33 2.97  30 3.12

  48  0.962  0.529  1.000-  16 2.04  39 2.35  42 2.35  38 2.35   7 2.36  22 2.54  28 2.69  12 2.73
                            23 2.75  25 2.94   4 3.09

  LATTYP: Found a base centered orthorhombic cell.
 ALAT       =     7.6805944440
 B/A-ratio  =     2.9999998761
 C/A-ratio  =     1.1785115315

  Lattice vectors:

 A1 = (   3.8402974600, -11.5208911900,   0.0000000000)
 A2 = (   3.8402969840,  11.5208911900,   0.0000000000)
 A3 = (   0.0000000000,   0.0000000000,   9.0516691210)

Analysis of symmetry for initial positions (statically):
 Subroutine PRICEL returns following result:

  LATTYP: Found a simple orthorhombic cell.
 ALAT       =     3.8402972220
 B/A-ratio  =     2.3570230630
 C/A-ratio  =     2.9999998761

[...]

   2 primitive cells build up your supercell.

 Routine SETGRP: Setting up the symmetry group for a
 base centered orthorhombic supercell.

 Subroutine GETGRP returns: Found  1 space group operations
 (whereof  1 operations were pure point group operations)
 out of a pool of  8 trial point group operations.

The static configuration has the point symmetry C_1 .

Analysis of symmetry for dynamics (positions and initial velocities):
 Subroutine PRICEL returns following result:

[...]

The dynamic configuration has the point symmetry C_1 .

Analysis of structural, dynamic, and magnetic symmetry:
 Subroutine PRICEL returns following result:

  LATTYP: Found a simple orthorhombic cell.
 ALAT       =     3.8402972220
 B/A-ratio  =     2.3570230630
 C/A-ratio  =     2.9999998761

  Lattice vectors:

 A1 = (  -3.8402972220,   0.0000000000,   0.0000000000)
 A2 = (   0.0000000000,   0.0000000000,   9.0516691210)
 A3 = (  -0.0000002380,  11.5208911900,   0.0000000000)

   2 primitive cells build up your supercell.

 Routine SETGRP: Setting up the symmetry group for a
 base centered orthorhombic supercell.

 Subroutine GETGRP returns: Found  1 space group operations
 (whereof  1 operations were pure point group operations)
 out of a pool of  8 trial point group operations.

The overall configuration has the point symmetry C_1 .

 Subroutine INISYM returns: Found  1 space group operations
 (whereof  1 operations are pure point group operations),
 and found     2 'primitive' translations

                                     Primitive cell

  volume of cell :     400.4788

  direct lattice vectors                    reciprocal lattice vectors
    -3.840297222  0.000000000  0.000000000    -0.260396512 -0.000000005  0.000000000
     0.000000000  0.000000000  9.051669121     0.000000000  0.000000000  0.110476862
    -0.000000238 11.520891190  0.000000000     0.000000000  0.086798841  0.000000000

  length of vectors
     3.840297222  9.051669121 11.520891190     0.260396512  0.110476862  0.086798841

  position of ions in fractional coordinates (direct lattice)
     0.017796813  0.000000000  0.994067729
     0.517796874  0.299999893  0.827401042
     0.017797082  0.599999845  0.660734296
     0.017796724  0.000000000  0.327401072
     0.517796905  0.299999893  0.160734355
     0.017796993  0.599999845  0.994067669
     0.017796875  0.000000000  0.660734415
     0.517796933  0.299999893  0.494067729
     0.017797142  0.599999845  0.327401012
     0.517796843  0.149999961  0.994067729
     0.017797008  0.449999869  0.827400982
     0.517797112  0.749999881  0.660734296
     0.517796948  0.149999961  0.327401042
     0.017797067  0.449999869  0.160734341
     0.517797083  0.749999881  0.994067609
     0.517796935  0.149999961  0.660734355
     0.017796993  0.449999869  0.494067669
     0.517797217  0.749999881  0.327400923
     0.047768594  0.749999881  0.973461866
     0.547768713  0.849999845  0.695684075
     0.047768891  0.949999869  0.417906225
     0.547768778  0.799999893  0.084572934
     0.047768892  0.899999917  0.806795120
     0.547769188  0.999999821  0.529017210

  ion indices of the primitive-cell ions
   primitive index   ion index
                 1           1
                 2           2
                 3          21
                 4          25
                 5           5
                 6           6
                 7          22
                 8          23
                 9          24
                10          10
                11          11
                12          12
                13          28
                14          29
                15          15
                16          16
                17          35
                18          36
                19          37
                20          38
                21          39
                22          46
                23          47
                24          48

 KPOINTS: Automatic KPOINTS generated

Automatic generation of k-mesh.
 Grid dimensions read from file:
 generate k-points for:    4    3    3

 Generating k-lattice:

  Cartesian coordinates                     Fractional coordinates (reciprocal lattice)
     0.032549564 -0.010849854  0.000000000     0.250000000 -0.000000000  0.000000000
     0.000000000  0.028932947  0.000000000     0.000000000  0.333333333  0.000000000
     0.000000000  0.000000000  0.036825621     0.000000000  0.000000000  0.333333333

  Length of vectors
     0.034310253  0.028932947  0.036825621

  Shift w.r.t. Gamma in fractional coordinates (k-lattice)
     0.000000000  0.000000000  0.000000000

 WARNING: IBZKPT: internal override: KBLOWUP is changed to .FALSE.
      ... skipping the blow-up phase ...

 Subroutine IBZKPT returns following result:

 Found     19 irreducible k-points:

 Following reciprocal coordinates:
            Coordinates               Weight
  0.000000  0.000000  0.000000      1.000000
  0.250000  0.000000  0.000000      2.000000
  0.500000  0.000000  0.000000      1.000000
  0.000000  0.333333  0.000000      2.000000
  0.250000  0.333333  0.000000      2.000000
  0.500000  0.333333  0.000000      2.000000
 -0.250000  0.333333  0.000000      2.000000
  0.000000  0.000000  0.333333      2.000000
  0.250000  0.000000  0.333333      2.000000
  0.500000  0.000000  0.333333      2.000000
 -0.250000 -0.000000  0.333333      2.000000
  0.000000  0.333333  0.333333      2.000000
  0.250000  0.333333  0.333333      2.000000
  0.500000  0.333333  0.333333      2.000000
 -0.250000  0.333333  0.333333      2.000000
  0.000000 -0.333333  0.333333      2.000000
  0.250000 -0.333333  0.333333      2.000000
  0.500000 -0.333333  0.333333      2.000000
 -0.250000 -0.333333  0.333333      2.000000

 Following cartesian coordinates:
            Coordinates               Weight
  0.000000  0.000000  0.000000      1.000000
  0.032550 -0.010850  0.000000      2.000000
  0.065099 -0.021700  0.000000      1.000000
  0.000000  0.028933  0.000000      2.000000
  0.032550  0.018083  0.000000      2.000000
  0.065099  0.007233  0.000000      2.000000
 -0.032550  0.039783  0.000000      2.000000
  0.000000  0.000000  0.036826      2.000000
  0.032550 -0.010850  0.036826      2.000000
[...]
     42       1.5965      1.00000
     43       1.6792      1.00000
     44       1.7575      1.00000
     45       1.8496      1.00000
     46       2.0407      1.00000
     47       2.0592      1.00000
     48       2.3231      1.00000
     49       2.3833      1.00000
     50       2.5434      1.00000
     51       2.6753      1.00000
     52       2.8426      1.00000
     53       3.1338      1.00000
     54       3.1572      1.00000
     55       3.4231      1.00000
     56       3.4402      1.00000
     57       3.7868      1.00000
     58       3.8475      1.00000
     59       3.9936      1.00000
     60       4.0416      1.00000
[...]
    102       8.4931      0.00000
    103       8.6099      0.00000
    104       8.6326      0.00000
    105       8.7519      0.00000
    106       8.8342      0.00000
    107       8.9836      0.00000
    108       9.1185      0.00000
    109       9.2875      0.00000
    110       9.4232      0.00000
    111       9.4960      0.00000
    112       9.6282      0.00000
    113       9.6524      0.00000
    114       9.7407      0.00000
    115       9.7491      0.00000
    116       9.8841      0.00000
 Fermi energy:         7.8330349088

 spin component 2

[...]

 k-point    19 :      -0.2500   -0.3333    0.3333
  band No.  band energies     occupation
      1      -7.6241      1.00000
      2      -7.0696      1.00000
      3      -6.6531      1.00000
      4      -6.0264      1.00000
      5      -5.1864      1.00000
      6      -4.3615      1.00000
      7      -4.2113      1.00000
      8      -4.0857      1.00000
      9      -3.8541      1.00000
     10      -3.7904      1.00000
     11      -3.1787      1.00000
     12      -3.0175      1.00000
     13      -2.5976      1.00000
     14      -2.5626      1.00000
     15      -2.3546      1.00000
     16      -2.2313      1.00000
     17      -2.0856      1.00000
     18      -2.0273      1.00000
     19      -1.8719      1.00000
     20      -1.8431      1.00000
     21      -1.7555      1.00000
     22      -1.4352      1.00000
     23      -1.1893      1.00000
     24      -0.9874      1.00000
     25      -0.9185      1.00000
     26      -0.8625      1.00000
     27      -0.5454      1.00000
     28      -0.5046      1.00000
     29      -0.4094      1.00000
     30      -0.2144      1.00000
     31       0.0780      1.00000
     32       0.0952      1.00000
     33       0.2877      1.00000
     34       0.5489      1.00000
     35       0.7023      1.00000
     36       0.9431      1.00000
     37       0.9765      1.00000
     38       1.1207      1.00000
     39       1.2964      1.00000
     40       1.5164      1.00000
     41       1.5180      1.00000
     42       1.6184      1.00000
     43       1.7028      1.00000
     44       1.7769      1.00000
     45       1.8746      1.00000
     46       2.0636      1.00000
     47       2.0821      1.00000
     48       2.3465      1.00000
     49       2.4046      1.00000
     50       2.5692      1.00000
     51       2.6998      1.00000
     52       2.8653      1.00000
     53       3.1545      1.00000
     54       3.1796      1.00000
     55       3.4474      1.00000
     56       3.4632      1.00000
     57       3.8121      1.00000
     58       3.8665      1.00000
     59       4.0172      1.00000
     60       4.0630      1.00000
[...]
    102       8.5178      0.00000
    103       8.6408      0.00000
    104       8.6614      0.00000
    105       8.7800      0.00000
    106       8.8634      0.00000
    107       9.0127      0.00000
    108       9.1505      0.00000
    109       9.3144      0.00000
    110       9.4484      0.00000
    111       9.5263      0.00000
    112       9.6523      0.00000
    113       9.6795      0.00000
    114       9.7679      0.00000
    115       9.7727      0.00000
    116       9.9068      0.00000

 soft charge-density along one line, spin component           1
         0         1         2         3         4         5         6         7         8         9
 total charge-density along one line

 soft charge-density along one line, spin component           2
         0         1         2         3         4         5         6         7         8         9
 total charge-density along one line

------------------------ aborting loop because EDIFF is reached ----------------------------------------

  FORCE on cell =-STRESS in cart. coord.  units (eV):
  Direction    XX          YY          ZZ          XY          YZ          ZX
  Alpha Z    96.83389    96.83389    96.83389
  Ewald   -1253.72439 -1732.64663 -1867.73833   -78.36588  -101.34627   -56.01421
  Hartree   695.25517   220.66713   -22.40103    -0.42036  -133.40446    -0.21457
  E(xc)    -655.48106  -660.52705  -660.83167     0.92702    -0.42151     0.70850
  Local   -2226.40383  -828.75624  -443.82355    14.78283   347.31034     9.90703
  n-local  2185.91488  2199.77298  2203.43081    -8.17602   -25.23319    -3.89464
  augment  -332.55127  -302.72825  -307.34888    -3.57628     5.16273    -1.89249
  Kinetic  1620.76300  1605.76954  1604.73211     4.64463     1.51261     1.80131
  Fock        0.00000     0.00000     0.00000     0.00000     0.00000     0.00000
  Total     130.60638   598.38538   602.85336   -70.18406    93.58024   -49.59906
  in kB     261.25547  1196.96645  1205.90387  -140.39108   187.19109   -99.21433

 VOLUME and BASIS-vectors are now :
  energy-cutoff  :      700.00
  volume of cell :      800.96
      direct lattice vectors                 reciprocal lattice vectors
     7.680594444  0.000000000  0.000000000     0.130198256 -0.043399418  0.000000000
     3.840296984 11.520891190  0.000000000     0.000000000  0.086798841  0.000000000
     0.000000000  0.000000000  9.051669121     0.000000000  0.000000000  0.110476862

  length of vectors
     7.680594444 12.144085587  9.051669121     0.137241012  0.086798841  0.110476862

 FORCES acting on ions
    electron-ion (+dipol)            ewald-force                    non-local-force                 convergence-correction
   -.995E+00 -.489E+02 -.740E+02   0.733E+00 0.470E+02 0.740E+02   0.400E+00 0.266E+01 0.244E+01   0.160E-05 -.145E-03 0.812E-04
   0.631E-01 -.104E+02 -.135E+02   -.658E-01 0.107E+02 0.139E+02   -.219E-01 -.243E+00 -.210E+00   -.875E-05 0.394E-04 0.571E-04
   0.375E+00 0.257E+02 0.571E+02   -.756E+00 -.265E+02 -.581E+02   0.284E+00 0.324E+00 0.233E+00   0.159E-05 0.189E-03 0.110E-03
   -.757E+01 0.128E+03 -.339E+02   0.148E+02 -.188E+03 0.614E+02   0.589E+01 -.558E+02 0.223E+02   0.236E-04 -.190E-03 0.288E-04
   -.337E-01 -.445E+01 -.242E+01   -.105E-01 0.472E+01 0.218E+01   0.117E+00 -.533E+00 0.322E+00   0.318E-05 -.204E-03 0.960E-04
   -.655E+01 -.300E+02 0.150E+03   0.702E+01 0.313E+02 -.160E+03   0.479E+01 0.892E+01 -.542E+02   0.682E-05 -.791E-04 -.289E-03
   0.569E+01 0.185E+02 -.602E+02   -.512E+01 -.144E+02 0.589E+02   -.126E+01 -.111E+02 0.601E+01   0.216E-05 0.257E-03 -.106E-03
   -.299E+00 0.152E+02 -.460E+02   0.324E+00 -.158E+02 0.469E+02   -.323E-01 0.266E+00 -.790E+00   0.733E-05 0.161E-03 0.609E-04
   0.503E-01 -.250E+01 0.265E+02   -.747E-02 0.229E+01 -.260E+02   -.669E-01 0.198E+00 -.463E+00   0.340E-05 -.951E-04 -.444E-04
   0.280E+00 -.231E+02 -.376E+02   -.144E+00 0.234E+02 0.378E+02   -.162E+00 -.183E+00 -.232E+00   0.852E-05 -.164E-03 -.215E-04
   -.194E+00 0.481E+01 0.324E+02   0.175E+00 -.338E+01 -.325E+02   0.215E-01 -.158E+01 -.338E+00   -.331E-06 0.576E-05 0.679E-04
   -.964E+01 0.672E+02 0.134E+03   0.238E+02 -.114E+03 -.246E+03   0.619E+01 -.232E+02 -.443E+02   -.224E-04 0.163E-03 -.694E-04
   -.158E+00 0.442E+02 -.448E+02   -.864E+00 -.458E+02 0.461E+02   0.104E+01 0.980E+00 -.729E+00   -.725E-05 -.469E-04 0.165E-03
   0.365E-01 -.187E+02 0.257E+02   -.388E-01 0.187E+02 -.258E+02   0.538E-01 0.348E+00 -.191E+00   0.152E-05 -.196E-03 0.945E-04
   0.879E+01 0.417E+02 0.421E+02   0.242E+00 -.101E+03 -.676E+02   -.455E+01 -.514E+02 -.241E+02   0.257E-05 -.612E-04 -.119E-04
   -.181E+01 -.302E+02 -.888E+02   0.185E+01 0.286E+02 0.883E+02   0.252E+00 0.577E+01 0.457E+01   -.164E-04 0.186E-03 -.100E-03
   -.907E-01 0.149E+02 -.216E+00   -.444E-01 -.149E+02 0.109E+01   0.159E+00 -.577E-01 -.917E+00   -.207E-06 0.187E-03 0.843E-04
   0.943E+00 0.706E+01 0.257E+02   -.850E+00 -.761E+01 -.276E+02   -.134E+00 0.931E-01 0.244E+01   -.539E-05 -.131E-03 -.186E-03
   -.995E+00 -.489E+02 -.740E+02   0.733E+00 0.470E+02 0.740E+02   0.400E+00 0.266E+01 0.244E+01   0.763E-05 -.156E-03 0.681E-04
   0.631E-01 -.104E+02 -.135E+02   -.658E-01 0.107E+02 0.139E+02   -.219E-01 -.243E+00 -.210E+00   0.875E-05 0.393E-04 0.563E-04
   0.375E+00 0.257E+02 0.571E+02   -.756E+00 -.265E+02 -.581E+02   0.284E+00 0.324E+00 0.233E+00   0.198E-05 0.183E-03 0.962E-04
   0.569E+01 0.185E+02 -.602E+02   -.512E+01 -.144E+02 0.589E+02   -.126E+01 -.111E+02 0.601E+01   0.503E-05 0.253E-03 -.961E-04
   -.299E+00 0.152E+02 -.460E+02   0.324E+00 -.158E+02 0.469E+02   -.323E-01 0.266E+00 -.790E+00   -.786E-05 0.162E-03 0.599E-04
   0.502E-01 -.250E+01 0.265E+02   -.744E-02 0.229E+01 -.260E+02   -.669E-01 0.198E+00 -.463E+00   0.120E-05 -.857E-04 -.421E-04
   -.757E+01 0.128E+03 -.339E+02   0.148E+02 -.188E+03 0.614E+02   0.589E+01 -.558E+02 0.223E+02   0.247E-04 -.182E-03 0.331E-04
   -.337E-01 -.445E+01 -.242E+01   -.106E-01 0.472E+01 0.218E+01   0.117E+00 -.533E+00 0.322E+00   -.148E-05 -.204E-03 0.963E-04
   -.655E+01 -.300E+02 0.150E+03   0.702E+01 0.313E+02 -.160E+03   0.479E+01 0.892E+01 -.542E+02   0.152E-04 -.842E-04 -.280E-03
   -.158E+00 0.442E+02 -.448E+02   -.864E+00 -.458E+02 0.461E+02   0.104E+01 0.980E+00 -.729E+00   -.179E-04 -.441E-04 0.163E-03
   0.364E-01 -.187E+02 0.257E+02   -.387E-01 0.187E+02 -.258E+02   0.538E-01 0.348E+00 -.191E+00   -.235E-05 -.186E-03 0.888E-04
   0.879E+01 0.417E+02 0.421E+02   0.242E+00 -.101E+03 -.676E+02   -.455E+01 -.514E+02 -.241E+02   -.385E-04 -.612E-04 -.113E-04
   0.280E+00 -.231E+02 -.376E+02   -.144E+00 0.234E+02 0.378E+02   -.162E+00 -.183E+00 -.232E+00   -.116E-04 -.163E-03 -.238E-04
   -.194E+00 0.481E+01 0.324E+02   0.175E+00 -.338E+01 -.325E+02   0.215E-01 -.158E+01 -.338E+00   0.176E-05 0.742E-05 0.772E-04
   -.964E+01 0.672E+02 0.134E+03   0.238E+02 -.114E+03 -.246E+03   0.619E+01 -.232E+02 -.443E+02   0.207E-04 0.165E-03 -.637E-04
   -.181E+01 -.302E+02 -.888E+02   0.185E+01 0.286E+02 0.883E+02   0.252E+00 0.577E+01 0.457E+01   0.118E-04 0.186E-03 -.101E-03
   -.907E-01 0.149E+02 -.216E+00   -.444E-01 -.149E+02 0.109E+01   0.159E+00 -.577E-01 -.917E+00   -.787E-06 0.183E-03 0.830E-04
   0.943E+00 0.706E+01 0.257E+02   -.850E+00 -.761E+01 -.276E+02   -.134E+00 0.931E-01 0.244E+01   -.137E-04 -.126E-03 -.184E-03
   -.830E+01 0.617E+01 -.378E+02   0.543E+01 -.897E+01 0.472E+02   0.489E+01 -.934E+01 0.528E+02   0.931E-05 -.114E-03 0.242E-05
   0.586E+01 -.305E+02 -.294E+02   -.199E+02 0.805E+02 0.138E+03   -.526E+01 0.202E+02 0.449E+02   -.323E-04 0.115E-03 -.410E-04
   0.725E+01 -.296E+02 0.519E+02   -.132E+02 0.900E+02 -.757E+02   -.749E+01 0.534E+02 -.266E+02   0.327E-05 0.243E-03 -.762E-04
   -.830E+01 0.617E+01 -.378E+02   0.543E+01 -.897E+01 0.472E+02   0.489E+01 -.934E+01 0.528E+02   0.242E-04 -.125E-03 0.919E-05
   0.586E+01 -.305E+02 -.294E+02   -.199E+02 0.805E+02 0.138E+03   -.526E+01 0.202E+02 0.449E+02   0.186E-04 0.111E-03 -.441E-04
   0.725E+01 -.296E+02 0.519E+02   -.132E+02 0.900E+02 -.757E+02   -.749E+01 0.534E+02 -.266E+02   -.152E-05 0.225E-03 -.747E-04
   0.678E+01 -.155E+03 -.529E+02   -.132E+02 0.214E+03 0.757E+02   -.530E+01 0.556E+02 0.271E+02   -.309E-04 0.753E-04 0.451E-04
   0.189E+01 -.430E+02 -.170E+02   -.130E+01 0.408E+02 0.195E+02   -.117E+01 0.958E+01 -.546E+01   0.773E-05 -.135E-03 0.291E-04
   -.799E+00 0.514E+02 -.715E+01   0.113E+01 -.519E+02 0.737E+01   -.211E+00 -.363E+01 -.384E+01   0.155E-04 0.455E-03 -.152E-04
   0.678E+01 -.155E+03 -.529E+02   -.132E+02 0.214E+03 0.757E+02   -.530E+01 0.556E+02 0.271E+02   -.509E-06 0.778E-04 0.452E-04
   0.189E+01 -.430E+02 -.170E+02   -.130E+01 0.408E+02 0.195E+02   -.117E+01 0.958E+01 -.546E+01   0.182E-05 -.136E-03 0.400E-04
   -.799E+00 0.514E+02 -.715E+01   0.113E+01 -.519E+02 0.737E+01   -.211E+00 -.363E+01 -.384E+01   -.159E-04 0.451E-03 -.150E-04
   0.314E+01 -.259E+01 -.136E+01   -.604E-13 -.156E-12 0.266E-13   -.311E+01 0.248E+01 0.136E+01   0.552E-05 0.100E-02 -.578E-04

 POSITION                                       TOTAL-FORCE (eV/Angst)
     11.45255     11.45255      0.00000         0.137869      0.796895      2.447554
      9.53240      9.53240      2.71550        -0.025209      0.060668      0.149185
      7.61225      7.61225      5.43100        -0.097737     -0.484538     -0.814659
      3.77195      3.77195      0.00000        13.166588   -115.370271     49.794920
      1.85180      1.85180      2.71550         0.072306     -0.258523      0.084900
     11.45255     11.45255      5.43100         5.255250     10.224359    -64.318432
      7.61225      7.61225      0.00000        -0.685423     -6.951011      4.784946
      5.69210      5.69210      2.71550        -0.008356     -0.304836      0.102148
      3.77195      3.77195      5.43100        -0.024664     -0.015641     -0.042561
      5.69210     11.45255      1.35775        -0.026920      0.174895     -0.097799
      3.77195      9.53240      4.07325         0.001158     -0.154263     -0.422388
      9.53240      7.61225      6.78875        20.357121    -69.849300   -155.824244
      5.69210      3.77195      1.35775         0.019382     -0.645419      0.595009
      3.77195      1.85180      4.07325         0.050866      0.287798     -0.282682
      5.69210     11.45254      6.78875         4.486429   -110.882455    -49.651663
      9.53240      7.61225      1.35775         0.296571      4.202196      4.103231
      7.61225      5.69210      4.07325         0.023645      0.014591     -0.041933
      5.69210      3.77195      6.78875        -0.041997     -0.452476      0.539897
      7.61225     11.45255      0.00000         0.137869      0.796895      2.447554
      5.69210      9.53240      2.71550        -0.025209      0.060668      0.149185
      3.77195      7.61225      5.43100        -0.097737     -0.484538     -0.814659
      3.77195      7.61225      0.00000        -0.685423     -6.951011      4.784946
      9.53240      5.69210      2.71550        -0.008356     -0.304836      0.102148
      7.61225      3.77195      5.43100        -0.024664     -0.015641     -0.042561
      7.61225      3.77195      0.00000        13.166588   -115.370271     49.794920
      5.69210      1.85180      2.71550         0.072306     -0.258523      0.084900
      7.61225     11.45255      5.43100         5.255250     10.224359    -64.318432
      1.85180      3.77195      1.35775         0.019382     -0.645419      0.595009
      7.61225      1.85180      4.07325         0.050866      0.287798     -0.282682
      9.53240     11.45254      6.78875         4.486429   -110.882455    -49.651663
      9.53240     11.45255      1.35775        -0.026920      0.174895     -0.097799
      7.61225      9.53240      4.07325         0.001158     -0.154263     -0.422388
      5.69210      7.61225      6.78875        20.357121    -69.849300   -155.824244
      5.69210      7.61225      1.35775         0.296571      4.202196      4.103231
      3.77195      5.69210      4.07325         0.023645      0.014591     -0.041933
      1.85180      3.77195      6.78875        -0.041997     -0.452476      0.539897
     11.33745     11.21515      6.78875         2.015092    -12.128853     62.143325
      9.41730      8.01490      7.69392       -19.330870     70.206760    153.846064
      7.49715      4.81465      8.59908       -13.442458    113.779832    -50.362150
      7.49715     11.21515      6.78875         2.015092    -12.128853     62.143325
      5.57700      8.01490      7.69392       -19.330870     70.206760    153.846064
      3.65685      4.81465      8.59908       -13.442458    113.779832    -50.362150
      5.57700      0.97436      7.24133       -11.733136    114.413271     49.876686
      7.49715      9.29500      8.14650        -0.581578      7.406473     -2.992546
      5.57700      6.09475      9.05167         0.116071     -4.070152     -3.616805
      1.73670      0.97436      7.24133       -11.733136    114.413271     49.876686
      3.65685      9.29500      8.14650        -0.581578      7.406473     -2.992546
      9.41730      6.09475      9.05167         0.116071     -4.070152     -3.616805
    total drift:                                0.028218     -0.107733     -0.003917

  FREE ENERGIE OF THE ION-ELECTRON SYSTEM (eV)
  free  energy   TOTEN  =        90.56158516 eV

  energy  without entropy=       90.56228634  energy(sigma->0) =       90.56193575