 vasp.6.4.3 19Mar24 (build Oct 22 2024 11:23:12) complex

 executed on             LinuxIFC date 2025.03.27  22:05:10

 INCAR:
   SYSTEM = Si and Ge interface calculation
   ISTART = 0
   ICHARG = 2
   ENCUT = 600.00 eV
   ALGO = VeryFast
   NELM = 60
   EDIFF = 1E-06
   SIGMA = 0.05
   ISMEAR = 0
   EDIFFG = -1E-02
   NSW = 20
   IBRION = 2
   POTIM = .5
   ISIF = 3
   KPAR = 4
   NCORE = 4
   LREAL = A

 POTCAR:    PAW_PBE Si 05Jan2001
 POTCAR:    PAW_PBE Ge 05Jan2001
|           W    W    AA    RRRRR   N    N  II  N    N   GGGG   !!!           |
|           W    W   A  A   R    R  NN   N  II  NN   N  G    G  !!!           |
|           W    W  A    A  R    R  N N  N  II  N N  N  G       !!!           |
|           W WW W  AAAAAA  RRRRR   N  N N  II  N  N N  G  GGG   !            |
|           WW  WW  A    A  R   R   N   NN  II  N   NN  G    G                |
|           W    W  A    A  R    R  N    N  II  N    N   GGGG   !!!           |
|     The value NCORE = 4 specified in the INCAR file was overwritten,        |
|     because it was not compatible with the 1 processes available:           |
|     NCORE = 1                                                               |
|     was used instead, please check that this makes sense for your           |
|     machine.                                                                |

 POTCAR:    PAW_PBE Si 05Jan2001
   VRHFIN =Si: s2p2

   TITEL  = PAW_PBE Si 05Jan2001
   POMASS =   28.085; ZVAL   =    4.000    mass and valenz
   ENMAX  =  245.345; ENMIN  =  184.009 eV

 POTCAR:    PAW_PBE Ge 05Jan2001
   VRHFIN =Ge: s2p2

   TITEL  = PAW_PBE Ge 05Jan2001
   POMASS =   72.610; ZVAL   =    4.000    mass and valenz
   ENMAX  =  173.807; ENMIN  =  130.355 eV

 Optimization of the real space projectors (new method)

 maximal supplied QI-value         = 19.84
 optimisation between [QCUT,QGAM] = [ 12.50, 25.00] = [ 43.76,175.03] Ry
 Optimized for a Real-space Cutoff    1.06 Angstroem

   l    n(q)    QCUT    max X(q) W(low)/X(q) W(high)/X(q)  e(spline)
   0      8    12.501   159.560    0.25E-03    0.87E-04    0.85E-07
   0      8    12.501   115.863    0.25E-03    0.85E-04    0.84E-07
   1      7    12.501    88.339    0.32E-03    0.53E-03    0.87E-07
   1      7    12.501    48.592    0.31E-03    0.51E-03    0.85E-07
 Optimization of the real space projectors (new method)

 maximal supplied QI-value         = 16.25
 optimisation between [QCUT,QGAM] = [ 12.51, 25.03] = [ 43.85,175.40] Ry
 Optimized for a Real-space Cutoff    1.23 Angstroem

   l    n(q)    QCUT    max X(q) W(low)/X(q) W(high)/X(q)  e(spline)
   0      9    12.514    65.336    0.42E-03    0.23E-03    0.14E-06
   0      9    12.514    52.220    0.42E-03    0.23E-03    0.13E-06
   1      9    12.514    36.409    0.35E-03    0.65E-03    0.33E-06
   1      9    12.514    21.334    0.35E-03    0.63E-03    0.32E-06
   2      8    12.514     4.673    0.48E-03    0.34E-03    0.74E-07
  PAW_PBE Si 05Jan2001                  :
  PAW_PBE Ge 05Jan2001                  :

 POSCAR: Si Ge
  positions in cartesian coordinates

 exchange-correlation table for PE
   RHO(1)=    0.500       N(1)  =     2000
   RHO(2)=  100.500       N(2)  =     4000

 ion  position               nearest neighbor table
   1  0.999  0.164  1.000-  20 1.73  19 2.04  20 2.39   2 2.40   2 2.40   2 2.40  19 2.60  20 2.88

   2  0.332  0.497  0.028-  19 2.00  20 2.02   3 2.35   1 2.40   1 2.40   1 2.40  20 2.58
   3  0.332  0.497  0.113-   2 2.35   4 2.40   4 2.40   4 2.40
   4  0.666  0.830  0.141-   5 2.35   3 2.40   3 2.40   3 2.40
   5  0.666  0.830  0.226-   4 2.35   6 2.40   6 2.40   6 2.40
   6  0.999  0.164  0.254-   7 2.35   5 2.40   5 2.40   5 2.40
   7  0.999  0.164  0.339-   6 2.35   8 2.40   8 2.40   8 2.40
   8  0.332  0.497  0.367-   9 2.35   7 2.40   7 2.40   7 2.40
   9  0.332  0.497  0.451-  12 2.00  11 2.01   8 2.35  10 2.40  10 2.40  10 2.40  11 2.60
  10  0.666  0.830  0.480-  11 1.74  12 2.03  11 2.37   9 2.40   9 2.40   9 2.40  12 2.61  11 2.89

[...]

  12  0.504  0.499  0.519-   9 2.00  10 2.03  11 2.41  11 2.41  11 2.41  13 2.45  10 2.61
  13  0.504  0.499  0.607-  14 2.41  14 2.41  14 2.41  12 2.45
  14  0.838  0.833  0.637-  13 2.41  13 2.41  13 2.41  15 2.45
  15  0.838  0.833  0.725-  16 2.41  16 2.41  16 2.41  14 2.45
  16  0.171  0.166  0.754-  15 2.41  15 2.41  15 2.41  17 2.45
  17  0.171  0.166  0.843-  18 2.41  18 2.41  18 2.41  16 2.45
  18  0.504  0.499  0.872-  17 2.41  17 2.41  17 2.41  19 2.45
  19  0.504  0.499  0.960-   2 2.00   1 2.04  20 2.41  20 2.41  20 2.41  18 2.45   1 2.60
  20  0.838  0.833  0.990-   1 1.73   2 2.02   1 2.39  19 2.41  19 2.41  19 2.41   2 2.58   1 2.88

  LATTYP: Found a hexagonal cell.
 ALAT       =     3.9201999949
 C/A-ratio  =     7.0832753883

  Lattice vectors:

 A1 = (  -1.9600999974,  -3.3949927835,   0.0000000000)
 A2 = (   3.9201999949,   0.0000000000,   0.0000000000)
 A3 = (   0.0000000000,   0.0000000000,  27.7678561411)

Analysis of symmetry for initial positions (statically):
 Subroutine PRICEL returns:
 Original cell was already a primitive cell.

 Routine SETGRP: Setting up the symmetry group for a
 hexagonal supercell.

 Subroutine GETGRP returns: Found  1 space group operations
 (whereof  1 operations were pure point group operations)
 out of a pool of 24 trial point group operations.

The static configuration has the point symmetry C_1 .

Analysis of symmetry for dynamics (positions and initial velocities):
 Subroutine PRICEL returns:
 Original cell was already a primitive cell.

 Routine SETGRP: Setting up the symmetry group for a
 hexagonal supercell.

 Subroutine GETGRP returns: Found  1 space group operations
 (whereof  1 operations were pure point group operations)
 out of a pool of 24 trial point group operations.

The dynamic configuration has the point symmetry C_1 .

 Subroutine INISYM returns: Found  1 space group operations
 (whereof  1 operations are pure point group operations),
 and found     1 'primitive' translations

                                     Primitive cell

  volume of cell :     369.5638

  direct lattice vectors                    reciprocal lattice vectors
     3.920199995  0.000000000  0.000000000     0.255089026 -0.147275718  0.000000000
     1.960099997  3.394992783  0.000000000     0.000000000  0.294551436  0.000000000
     0.000000000  0.000000000 27.767856141     0.000000000  0.000000000  0.036012863

  length of vectors
     3.920199995  3.920199995 27.767856141     0.294551436  0.294551436  0.036012863

  position of ions in fractional coordinates (direct lattice)
     0.998928337  0.163758060  0.999825678
     0.332261670  0.497091393  0.028050867
     0.332261670  0.497091393  0.112726435
     0.665595004  0.830424726  0.140951624
     0.665595004  0.830424726  0.225627191
     0.998928337  0.163758060  0.253852380
     0.998928337  0.163758060  0.338527947
     0.332261670  0.497091393  0.366753137
     0.332261670  0.497091393  0.451428704
     0.665595004  0.830424726  0.479653893
     0.171104354  0.166092683  0.489742910
     0.504437687  0.499426017  0.519153245
     0.504437687  0.499426017  0.607384251
     0.837771021  0.832759350  0.636794586
     0.837771021  0.832759350  0.725025591
     0.171104354  0.166092683  0.754435926
     0.171104354  0.166092683  0.842666932
     0.504437687  0.499426017  0.872077267
     0.504437687  0.499426017  0.960308273
     0.837771021  0.832759350  0.989718608

  ion indices of the primitive-cell ions
   primitive index   ion index
                 1           1
                 2           2
                 3           3
                 4           4
                 5           5
                 6           6
                 7           7
                 8           8
                 9           9
                10          10
                11          11
                12          12
                13          13
                14          14
                15          15
                16          16
                17          17
                18          18
                19          19
                20          20

 KPOINTS: 4x4x4

Automatic generation of k-mesh.
 Grid dimensions read from file:
 generate k-points for:    4    4    4

 Generating k-lattice:

  Cartesian coordinates                     Fractional coordinates (reciprocal lattice)
     0.063772257 -0.036818930  0.000000000     0.250000000  0.000000000  0.000000000
     0.000000000  0.073637859  0.000000000     0.000000000  0.250000000  0.000000000
     0.000000000  0.000000000  0.009003216     0.000000000  0.000000000  0.250000000

  Length of vectors
     0.073637859  0.073637859  0.009003216

  Shift w.r.t. Gamma in fractional coordinates (k-lattice)
     0.000000000  0.000000000  0.000000000

 Subroutine IBZKPT returns following result:

 Found     36 irreducible k-points:

 Following reciprocal coordinates:
            Coordinates               Weight
  0.000000  0.000000  0.000000      1.000000
  0.250000  0.000000  0.000000      2.000000
  0.250000  0.250000  0.000000      2.000000
  0.000000  0.250000  0.000000      2.000000
  0.500000  0.000000  0.000000      1.000000
  0.500000  0.500000  0.000000      1.000000
  0.000000  0.500000  0.000000      1.000000
  0.500000  0.250000  0.000000      2.000000
  0.250000  0.500000  0.000000      2.000000
 -0.250000  0.250000  0.000000      2.000000
  0.000000  0.000000  0.250000      2.000000
  0.250000  0.000000  0.250000      2.000000
  0.250000  0.250000  0.250000      2.000000
  0.000000  0.250000  0.250000      2.000000
 -0.250000 -0.000000  0.250000      2.000000
 -0.250000 -0.250000  0.250000      2.000000
  0.000000 -0.250000  0.250000      2.000000
  0.500000  0.000000  0.250000      2.000000
  0.500000  0.500000  0.250000      2.000000
  0.000000  0.500000  0.250000      2.000000
  0.500000  0.250000  0.250000      2.000000
  0.250000  0.500000  0.250000      2.000000
 -0.250000  0.250000  0.250000      2.000000
  0.500000 -0.250000  0.250000      2.000000
 -0.250000  0.500000  0.250000      2.000000
  0.250000 -0.250000  0.250000      2.000000
  0.000000  0.000000  0.500000      1.000000
  0.250000  0.000000  0.500000      2.000000
  0.250000  0.250000  0.500000      2.000000
  0.000000  0.250000  0.500000      2.000000
  0.500000  0.000000  0.500000      1.000000
  0.500000  0.500000  0.500000      1.000000
  0.000000  0.500000  0.500000      1.000000
  0.500000  0.250000  0.500000      2.000000
  0.250000  0.500000  0.500000      2.000000
 -0.250000  0.250000  0.500000      2.000000

 Following cartesian coordinates:
            Coordinates               Weight
  0.000000  0.000000  0.000000      1.000000
  0.063772 -0.036819  0.000000      2.000000
  0.063772  0.036819  0.000000      2.000000
  0.000000  0.073638  0.000000      2.000000
  0.127545 -0.073638  0.000000      1.000000
  0.127545  0.073638  0.000000      1.000000
  0.000000  0.147276  0.000000      1.000000
  0.127545  0.000000  0.000000      2.000000
  0.063772  0.110457  0.000000      2.000000
 -0.063772  0.110457  0.000000      2.000000
  0.000000  0.000000  0.009003      2.000000
  0.063772 -0.036819  0.009003      2.000000
[...]
      4.23698      2.81929      6.26518        -0.020743     -0.010695      0.218557
      4.23698      0.55596      7.04894        -0.011386     -0.000672     -0.203251
      4.23698      0.55596      9.40020        -0.009529      0.028970      0.244561
      2.27688      1.68762     10.18395        -0.066339     -0.049452     -0.406698
      2.27688      1.68762     12.53521         1.319909      3.806402    -10.945215
      4.23698      2.81929     13.31896        18.872077     -9.544813     -7.015758
      0.99632      0.56388     13.59911       -19.780626      9.179103      5.287227
      2.95642      1.69555     14.41577        -0.347822     -3.491737     12.203844
      2.95642      1.69555     16.86576         0.040253      0.073620      0.103105
      4.91652      2.82721     17.68242        -0.003936     -0.041813      0.254721
      4.91652      2.82721     20.13241         0.021877      0.040053     -0.184279
      0.99632      0.56388     20.94907         0.018172     -0.023907      0.236224
      0.99632      0.56388     23.39905        -0.036721      0.058642     -0.261695
      2.95642      1.69555     24.21572         0.006405     -0.073323     -0.088263
      2.95642      1.69555     26.66570        -0.162523      3.449725    -12.138060
      4.91652      2.82721     27.48236       -20.323626     -9.858296     -5.293579
    total drift:                                0.133320     -0.138229     -0.140843

  FREE ENERGIE OF THE ION-ELECTRON SYSTEM (eV)
  free  energy   TOTEN  =       -68.79374798 eV

  energy  without entropy=      -68.77996528  energy(sigma->0) =      -68.78685663

[...]

 E-fermi :   1.4555     XC(G=0):  -7.6277     alpha+bet : -6.9403

[...]

 d Force = 0.5389513E+02[-0.473E+02, 0.155E+03]  d Energy = 0.1051875E+01 0.528E+02
 d Force = 0.2328401E+03[-0.107E+03, 0.572E+03]  d Ewald  =-0.2296155E+03 0.462E+03

 Steepest descent step on ions:
 trial-energy change:   -1.051875  1 .order  -73.570167 -183.315480   36.175147
  (g-gl).g = 0.183E+03      g.g   = 0.183E+03  gl.gl    = 0.000E+00
 g(Force)  = 0.128E+03   g(Stress)= 0.551E+02 ortho     = 0.000E+00
 gamma     =   0.00000
 trial     =   1.00000
 opt step  =   0.83519  (harmonic =   0.83519) maximal distance =0.78222946
 next E    =  -145.345001   (d E  = -76.55125)

[...]

 d Force = 0.5459049E+01[ 0.480E+01, 0.612E+01]  d Energy = 0.5275409E+01 0.184E+00
 d Force = 0.1039611E+02[ 0.804E+01, 0.128E+02]  d Ewald  = 0.6004373E+02-0.496E+02

[...]

 d Force = 0.8034680E+01[ 0.765E+01, 0.842E+01]  d Energy = 0.6687090E+01 0.135E+01
 d Force =-0.7375862E+01[-0.241E+02, 0.932E+01]  d Ewald  = 0.1123087E+03-0.120E+03

[...]

 d Force = 0.2649292E+01[ 0.133E+01, 0.397E+01]  d Energy = 0.1010174E+01 0.164E+01
 d Force =-0.2131567E+02[-0.306E+02,-0.121E+02]  d Ewald  = 0.4009786E+02-0.614E+02

[...]

 d Force =-0.8723648E+00[-0.119E+01,-0.559E+00]  d Energy = 0.1143771E+00-0.987E+00
 d Force = 0.1048547E+02[ 0.874E+01, 0.122E+02]  d Ewald  =-0.1337967E+02 0.239E+02

[...]

 d Force = 0.4728141E+01[ 0.143E+00, 0.931E+01]  d Energy = 0.3163558E+01 0.156E+01
 d Force = 0.7350268E+02[ 0.506E+02, 0.964E+02]  d Ewald  =-0.4302089E+02 0.117E+03

 Conjugate gradient step on ions:
 trial-energy change:   -3.163558  1 .order   -5.081074  -12.952062    2.789915
  (g-gl).g = 0.159E+02      g.g   = 0.154E+02  gl.gl    = 0.183E+03
 g(Force)  = 0.116E+02   g(Stress)= 0.373E+01 ortho     =-0.517E+00
 gamma     =   0.08657
 trial     =   0.84609
 opt step  =   0.55706  (harmonic =   0.69614) maximal distance =0.15775028
 next E    =   -89.624547   (d E  =  -3.71652)

[...]

 d Force =-0.2370508E+00[-0.429E+00,-0.449E-01]  d Energy = 0.4790683E+00-0.716E+00
 d Force =-0.1793582E+02[-0.198E+02,-0.160E+02]  d Ewald  = 0.1934114E+02-0.373E+02

[...]

 E-fermi :   4.3788     XC(G=0):  -9.0646     alpha+bet : -9.9697

[...]

 Conjugate gradient step on ions:
 trial-energy change:   -0.415148  1 .order   -0.415656   -0.429098   -0.402213
  (g-gl).g = 0.129E+01      g.g   = 0.157E+01  gl.gl    = 0.637E+00
 g(Force)  = 0.852E+00   g(Stress)= 0.715E+00 ortho     = 0.603E-01
 gamma     =   2.01763
 trial     =   0.25406
 opt step  =   1.01622  (harmonic =   4.05496) maximal distance =0.17665059
 next E    =   -95.519883   (d E  =  -3.42440)

[...]

 d Force = 0.7115801E+00[ 0.517E+00, 0.906E+00]  d Energy = 0.1046705E+01-0.335E+00
 d Force = 0.3997137E+02[ 0.336E+02, 0.463E+02]  d Ewald  = 0.2423240E+02 0.157E+02

[...]

 d Force = 0.3287596E+00[-0.400E+00, 0.106E+01]  d Energy = 0.5602119E+00-0.231E+00
 d Force = 0.3880795E+02[ 0.899E+01, 0.686E+02]  d Ewald  = 0.1282957E+02 0.260E+02

[...]

 d Force = 0.2855995E+00[ 0.173E+00, 0.398E+00]  d Energy = 0.4840998E+00-0.199E+00
 d Force = 0.3171085E+00[-0.267E+01, 0.331E+01]  d Ewald  = 0.1372941E+02-0.134E+02

 Conjugate gradient step on ions:
 trial-energy change:   -0.484100  1 .order   -0.471840   -0.738505   -0.205175
  (g-gl).g = 0.106E+01      g.g   = 0.118E+01  gl.gl    = 0.157E+01
 g(Force)  = 0.740E+00   g(Stress)= 0.438E+00 ortho     =-0.206E+00
 gamma     =   0.67629
 trial     =   0.71135
 opt step  =   0.94272  (harmonic =   0.98502) maximal distance =0.12206793
 next E    =   -94.635440   (d E  =  -0.51789)

[...]

--------------------------------------- Ionic step       20  -------------------------------------------

[...]

 eigenvalue-minimisations  :  3946
 total energy-change (2. order) :-0.6040276E-01  (-0.7688026E-02)
 number of electron      80.0000007 magnetization
 augmentation part       -8.8335623 magnetization

[...]

 Broyden mixing:
  rms(total) = 0.48350E-03    rms(broyden)= 0.48350E-03
  rms(prec ) = 0.91712E-03
  weight for this iteration     100.00

 eigenvalues of (default mixing * dielectric matrix)
  average eigenvalue GAMMA=   1.0970
  2.4300  1.5342  1.5342  1.4544  0.0829  1.1166  0.2886  0.7751  0.6571

[...]

--------------------------------------- Iteration     20(  11)  ---------------------------------------

 eigenvalue-minimisations  :  3458
 total energy-change (2. order) : 0.3011560E-06  (-0.8084260E-06)
 number of electron      80.0000007 magnetization
 augmentation part       -8.8310474 magnetization

 Free energy of the ion-electron system (eV)
  alpha Z        PSCENC =       103.67053888
  Ewald energy   TEWEN  =     -2190.29052304
  -Hartree energ DENC   =      -194.82115699
  -exchange      EXHF   =         0.00000000
  -V(xc)+E(xc)   XCENC  =      -164.31244719
  PAW double counting   =      5731.29129075    -5412.72292438
  entropy T*S    EENTRO =        -0.01316450
  eigenvalues    EBANDS =       -48.30823118
  atomic energy  EATOM  =      2080.62436032
  Solvation  Ediel_sol  =         0.00000000
  free energy    TOTEN  =       -94.88225734 eV

  energy without entropy =      -94.86909284  energy(sigma->0) =      -94.87567509

 average (electrostatic) potential at core
  the test charge radii are     0.9892  1.1631
  (the norm of the test charge is              1.0000)
       1 -84.8810       2 -84.7423       3 -84.6687       4 -84.6954       5 -84.6810
       6 -84.6794       7 -84.6955       8 -84.6666       9 -84.7425      10 -84.8724
      11 -32.1044      12 -32.1916      13 -32.0660      14 -32.1149      15 -32.2321
      16 -32.2315      17 -32.1120      18 -32.0635      19 -32.1841      20 -32.1087

 E-fermi :   4.5765     XC(G=0):  -9.2838     alpha+bet :-10.3105

 val. band max:        4.5725192229   @ k =   0.2500   0.5000   0.5000
 cond. band min:       4.5774208687   @ k =  -0.2500  -0.2500   0.2500
 fundamental gap:      0.0049016458
 Fermi energy:         4.5765366729

[...]

 k-point    36 :      -0.2500    0.2500    0.5000
  band No.  band energies     occupation
      1      -6.3109      2.00000
      2      -5.7074      2.00000
      3      -5.2101      2.00000
      4      -5.1751      2.00000
      5      -4.8878      2.00000
      6      -4.7934      2.00000
      7      -4.3937      2.00000
      8      -4.2582      2.00000
      9      -3.8064      2.00000
     10      -3.6371      2.00000
     11      -3.1822      2.00000
     12      -3.0369      2.00000
     13      -2.6968      2.00000
     14      -2.5154      2.00000
     15      -2.2290      2.00000
     16      -2.0574      2.00000
     17      -1.9316      2.00000
     18      -1.7498      2.00000
     19      -1.4287      2.00000
     20      -1.1093      2.00000
     21       0.4236      2.00000
     22       0.5204      2.00000
     23       0.6094      2.00000
     24       0.6642      2.00000
     25       0.7025      2.00000
     26       0.8500      2.00000
     27       0.9408      2.00000
     28       0.9719      2.00000
     29       1.0940      2.00000
     30       1.2229      2.00000
     31       1.4950      2.00000
     32       1.6340      2.00000
     33       1.8485      2.00000
     34       1.9402      2.00000
     35       2.2694      2.00000
     36       2.4698      2.00000
     37       2.7687      2.00000
     38       2.9263      2.00000
     39       3.4385      2.00000
     40       3.6632      2.00000
     41       4.5875      0.75646
     42       4.8474      0.00000
     43       5.6623      0.00000
     44       5.7330      0.00000
     45       6.5379      0.00000
     46       6.6261      0.00000
     47       6.7927      0.00000
     48       7.1223      0.00000
     49       7.4292      0.00000
     50       8.1458      0.00000
     51       8.1693      0.00000

 soft charge-density along one line, spin component           1
         0         1         2         3         4         5         6         7         8         9
 total charge-density along one line

------------------------ aborting loop because EDIFF is reached ----------------------------------------

  FORCE on cell =-STRESS in cart. coord.  units (eV):
  Direction    XX          YY          ZZ          XY          YZ          ZX
  Alpha Z   103.67054   103.67054   103.67054
  Ewald    -687.43013  -695.24210  -807.62345    -0.14716   -12.03144    -0.47603
  Hartree   104.40495   105.15625   -14.74378     0.06122    -2.31869    -0.07655
  E(xc)    -261.69478  -261.42387  -261.41709     0.01270    -0.03204     0.01840
  Local    -371.32499  -360.23655  -124.18961     0.17363    13.47963     0.63261
  n-local   579.85758   576.67242   576.07661    -0.11023    -0.79234    -0.19237
  augment   -46.76626   -46.60519   -46.27061     0.01166    -0.02408     0.01572
  Kinetic   576.65599   580.40617   574.60140    -0.16828     2.72820     0.02408
  Fock        0.00000     0.00000     0.00000     0.00000     0.00000     0.00000
  Total      -2.62711     2.39767     0.10402    -0.16646     1.00924    -0.05414
  in kB      -9.70568     8.85805     0.38429    -0.61499     3.72857    -0.20003

 VOLUME and BASIS-vectors are now :
  energy-cutoff  :      600.00
  volume of cell :      433.67
      direct lattice vectors                 reciprocal lattice vectors
     3.986393389 -0.002388850 -0.004279685     0.250764157 -0.149614789  0.000463744
     1.991565306  3.338035564  0.013567517     0.000178907  0.299472744 -0.000514098
    -0.026871185  0.055943974 32.579144984     0.000032867 -0.000144369  0.030694758

  length of vectors
     3.986396403  3.887029440 32.579204098     0.292005929  0.299473239  0.030695115

 FORCES acting on ions
    electron-ion (+dipol)            ewald-force                    non-local-force                 convergence-correction
   0.342E+01 0.433E+00 0.457E+02   -.236E+01 -.456E+00 -.435E+02   -.661E+00 0.328E+00 -.207E+01   0.390E-03 0.367E-03 -.143E-02
   -.414E+01 0.109E+01 0.276E+02   0.311E+01 -.100E+01 -.276E+02   0.696E+00 -.133E+00 -.271E+00   -.379E-03 -.609E-04 -.193E-02
   0.455E+01 -.209E+01 0.203E+02   -.374E+01 0.155E+01 -.211E+02   -.655E+00 0.579E+00 0.627E+00   0.140E-03 -.141E-03 -.527E-02
   -.174E+01 0.204E+01 0.200E+02   0.102E+01 -.153E+01 -.190E+02   0.864E+00 -.455E+00 -.111E+01   -.415E-04 0.159E-03 -.447E-02
   -.750E-01 -.259E+01 0.467E+00   0.359E-01 0.194E+01 -.156E+01   0.106E+00 0.671E+00 0.105E+01   0.352E-04 -.143E-03 -.584E-02
   -.300E+00 0.253E+01 0.176E+01   0.210E+00 -.188E+01 -.615E+00   0.174E+00 -.669E+00 -.110E+01   -.145E-05 0.199E-03 -.495E-02
   -.161E+01 -.191E+01 -.185E+02   0.904E+00 0.143E+01 0.174E+02   0.856E+00 0.426E+00 0.111E+01   0.958E-05 -.123E-03 -.634E-02
   0.434E+01 0.198E+01 -.186E+02   -.356E+01 -.146E+01 0.194E+02   -.622E+00 -.555E+00 -.730E+00   0.896E-04 0.195E-03 -.549E-02
   -.423E+01 -.109E+01 -.270E+02   0.312E+01 0.969E+00 0.270E+02   0.777E+00 0.188E+00 0.381E+00   -.380E-03 0.752E-04 -.603E-02
   0.365E+01 -.377E+00 -.451E+02   -.255E+01 0.384E+00 0.430E+02   -.647E+00 -.304E+00 0.200E+01   0.314E-03 -.257E-03 -.452E-02
   -.414E+01 0.175E+01 -.499E+02   0.385E+01 -.178E+01 0.493E+02   -.117E+00 0.323E+00 0.896E+00   -.155E-03 0.176E-03 -.126E-02
   0.425E+01 0.478E+00 -.429E+02   -.400E+01 -.558E+00 0.419E+02   -.138E+00 0.890E-01 0.533E+00   0.236E-03 0.551E-04 0.890E-03
   -.292E+01 -.119E+01 0.694E+00   0.282E+01 0.980E+00 -.107E+01   0.517E-02 0.158E+00 -.517E-01   -.889E-04 -.202E-03 0.307E-02
   0.527E+00 0.119E+01 -.169E+01   -.189E+00 -.111E+01 0.154E+01   -.407E+00 -.137E-01 -.258E+00   0.213E-04 0.112E-03 0.444E-02
   0.475E+00 -.148E+01 -.254E+00   -.441E+00 0.129E+01 -.878E-01   -.111E+00 0.138E+00 0.299E+00   -.216E-04 -.204E-03 0.578E-02
   0.538E-01 0.152E+01 -.120E+01   -.589E-01 -.133E+01 0.154E+01   -.308E-01 -.129E+00 -.253E+00   -.353E-05 0.155E-03 0.645E-02
   0.826E+00 -.115E+01 0.782E+00   -.452E+00 0.108E+01 -.618E+00   -.435E+00 -.703E-02 0.217E+00   -.598E-05 -.187E-03 0.702E-02
   -.322E+01 0.109E+01 -.162E+01   0.308E+01 -.882E+00 0.196E+01   0.782E-02 -.105E+00 0.418E-01   -.213E-04 0.201E-03 0.785E-02
   0.408E+01 -.451E+00 0.412E+02   -.386E+01 0.600E+00 -.402E+02   -.591E-01 -.133E+00 -.484E+00   0.178E-03 -.106E-03 0.539E-02
   -.333E+01 -.168E+01 0.482E+02   0.305E+01 0.177E+01 -.477E+02   -.950E-01 -.407E+00 -.860E+00   -.238E-03 -.179E-03 0.219E-02
   0.466E+00 0.108E+00 0.702E-01   -.178E-13 0.644E-14 0.995E-13   -.491E+00 -.102E-01 -.422E-01   0.773E-04 0.932E-04 -.442E-02

 POSITION                                       TOTAL-FORCE (eV/Angst)
      0.75868      0.63902      1.04051         0.399553      0.299805      0.182359
      2.73181      1.71938      1.96971        -0.329643     -0.048541     -0.321279
      2.31079      1.68406      4.32146         0.163059      0.033512     -0.123118
      4.28545      2.77192      5.09285         0.139776      0.051472     -0.095407
      4.30018      2.80296      7.45566         0.068579      0.012985     -0.049765
      4.30228      0.55591      8.18763         0.084364     -0.022883      0.033408
      4.28739      0.57880     10.54815         0.151660     -0.061383      0.054456
      2.31378      1.66734     11.32028         0.158644     -0.042189      0.091057
      2.73393      1.62956     13.66617        -0.323561      0.066358      0.331764
      4.75311      2.70882     14.59581         0.451185     -0.302504     -0.194182
      0.47534      0.66060     16.46358        -0.402483      0.282453      0.345539
      2.58337      1.71531     17.91462         0.110344      0.004735     -0.471992
      3.02535      1.72257     20.39481        -0.092153     -0.055057     -0.425836
      5.03043      2.78779     21.28833        -0.067737      0.062814     -0.401973
      4.98252      2.83801     23.69298        -0.075981     -0.053188     -0.038472
      0.99739      0.56851     24.50526        -0.034631      0.051932      0.087127
      1.02567      0.62453     26.91135        -0.059671     -0.075706      0.386802
      3.00968      1.68821     27.81023        -0.135522      0.102080      0.391311
      2.54645      1.68380     30.28372         0.161760      0.010921      0.575593
      4.45640      2.74019     31.73087        -0.367542     -0.317616     -0.357391
    total drift:                               -0.025191      0.097881      0.023566

  FREE ENERGIE OF THE ION-ELECTRON SYSTEM (eV)
  free  energy   TOTEN  =       -94.88225734 eV

  energy  without entropy=      -94.86909284  energy(sigma->0) =      -94.87567509

 d Force = 0.2151612E+00[ 0.140E+00, 0.291E+00]  d Energy = 0.2423413E+00-0.272E-01
 d Force =-0.5072896E+00[-0.793E+00,-0.222E+00]  d Ewald  = 0.7319042E+00-0.124E+01

 Conjugate gradient step on ions:
 trial-energy change:   -0.242341  1 .order   -0.239973   -0.323611   -0.156335
  (g-gl).g = 0.260E-01      g.g   = 0.426E+00  gl.gl    = 0.118E+01
 g(Force)  = 0.380E+00   g(Stress)= 0.463E-01 ortho     = 0.419E-01
 gamma     =   0.02210
 trial     =   0.75763
 opt step  =   1.37134  (harmonic =   1.46571) maximal distance =0.04444900
 next E    =   -94.946836   (d E  =  -0.30692)

 writing wavefunctions