 vasp.6.4.3 19Mar24 (build Oct 22 2024 11:23:12) complex

 executed on             LinuxIFC date 2025.06.14  13:25:55

 INCAR:
   SYSTEM = Si and Ge interface calculation
   ISTART = 0
   ICHARG = 2
   LWAVE = .FALSE.
   LREAL = AUTO
   ENCUT = 700
   ENAUG = 900
   ADDGRID = .TRUE.
   LMAXMIX = 6
   LASPH = .TRUE.
   LMIXTAU = .TRUE.
   NCORE = 16
   NELM = 100
   NBANDS = 20
   EDIFF = 1d-7
   AMIX = 0.6
   ISMEAR = 0
   SIGMA = 0.01
   NELECT = 32
   ISPIN = 2
   NUPDOWN = 1
   LVTOT = .FALSE.
   LVHAR = .TRUE.

 POTCAR:    PAW_PBE C 08Apr2002
 POTCAR:    PAW_PBE Ge 05Jan2001
 POTCAR:    PAW_PBE C 08Apr2002
 POTCAR:    PAW_PBE Ge 05Jan2001
 POTCAR:    PAW_PBE C 08Apr2002
 POTCAR:    PAW_PBE Ge 05Jan2001
 POTCAR:    PAW_PBE C 08Apr2002
 POTCAR:    PAW_PBE Ge 05Jan2001
|           W    W    AA    RRRRR   N    N  II  N    N   GGGG   !!!           |
|           W    W   A  A   R    R  NN   N  II  NN   N  G    G  !!!           |
|           W    W  A    A  R    R  N N  N  II  N N  N  G       !!!           |
|           W WW W  AAAAAA  RRRRR   N  N N  II  N  N N  G  GGG   !            |
|           WW  WW  A    A  R   R   N   NN  II  N   NN  G    G                |
|           W    W  A    A  R    R  N    N  II  N    N   GGGG   !!!           |
|     You use a magnetic or noncollinear calculation, but did not specify     |
|     the initial magnetic moment with the MAGMOM tag. Note that a            |
|     default of 0.125 will be used for all atoms. This ferromagnetic         |
|     setup may break the symmetry of the crystal, in particular it may       |
|     rule out finding an antiferromagnetic solution. Thence, we              |
|     recommend setting the initial magnetic moment manually or verifying     |
|     carefully that this magnetic setup is desired.                          |

 POTCAR:    PAW_PBE C 08Apr2002
   VRHFIN =C: s2p2

   TITEL  = PAW_PBE C 08Apr2002
   POMASS =   12.011; ZVAL   =    4.000    mass and valenz
   ENMAX  =  400.000; ENMIN  =  300.000 eV

 POTCAR:    PAW_PBE Ge 05Jan2001
   VRHFIN =Ge: s2p2

   TITEL  = PAW_PBE Ge 05Jan2001
   POMASS =   72.610; ZVAL   =    4.000    mass and valenz
   ENMAX  =  173.807; ENMIN  =  130.355 eV

[...]

 POTCAR:    PAW_PBE C 08Apr2002
   VRHFIN =C: s2p2

   TITEL  = PAW_PBE C 08Apr2002
   POMASS =   12.011; ZVAL   =    4.000    mass and valenz
   ENMAX  =  400.000; ENMIN  =  300.000 eV

 POTCAR:    PAW_PBE Ge 05Jan2001
   VRHFIN =Ge: s2p2

   TITEL  = PAW_PBE Ge 05Jan2001
   POMASS =   72.610; ZVAL   =    4.000    mass and valenz
   ENMAX  =  173.807; ENMIN  =  130.355 eV

 Optimization of the real space projectors (new method)

 maximal supplied QI-value         = 25.13
 optimisation between [QCUT,QGAM] = [ 13.32, 26.89] = [ 49.69,202.52] Ry
 Optimized for a Real-space Cutoff    1.01 Angstroem

   l    n(q)    QCUT    max X(q) W(low)/X(q) W(high)/X(q)  e(spline)
   0      8    13.321   115.676    0.29E-03    0.42E-03    0.11E-06
   0      8    13.321    87.132    0.29E-03    0.42E-03    0.11E-06
   1      8    13.321     4.429    0.39E-03    0.33E-03    0.98E-07
   1      8    13.321     2.733    0.30E-03    0.26E-03    0.97E-07
 Optimization of the real space projectors (new method)

[...]

   l    n(q)    QCUT    max X(q) W(low)/X(q) W(high)/X(q)  e(spline)
   0      8    13.321   115.676    0.29E-03    0.42E-03    0.11E-06
   0      8    13.321    87.132    0.29E-03    0.42E-03    0.11E-06
   1      8    13.321     4.429    0.39E-03    0.33E-03    0.98E-07
   1      8    13.321     2.733    0.30E-03    0.26E-03    0.97E-07
 Optimization of the real space projectors (new method)

 maximal supplied QI-value         = 16.25
 optimisation between [QCUT,QGAM] = [ 13.49, 26.98] = [ 50.95,203.80] Ry
 Optimized for a Real-space Cutoff    1.25 Angstroem

   l    n(q)    QCUT    max X(q) W(low)/X(q) W(high)/X(q)  e(spline)
   0     10    13.489    65.336    0.91E-04    0.11E-03    0.34E-06
   0     10    13.489    52.220    0.89E-04    0.11E-03    0.34E-06
   1     10    13.489    36.409    0.22E-03    0.27E-03    0.14E-06
   1     10    13.489    21.334    0.21E-03    0.27E-03    0.14E-06
   2      9    13.489     4.673    0.11E-03    0.12E-03    0.19E-06
  PAW_PBE C 08Apr2002                   :
  PAW_PBE Ge 05Jan2001                  :
  PAW_PBE C 08Apr2002                   :
  PAW_PBE Ge 05Jan2001                  :
  PAW_PBE C 08Apr2002                   :
  PAW_PBE Ge 05Jan2001                  :
  PAW_PBE C 08Apr2002                   :
  PAW_PBE Ge 05Jan2001                  :

 POSCAR: C  Ge C  Ge C  Ge C  Ge
  positions in direct lattice

 exchange-correlation table for PE
   RHO(1)=    0.500       N(1)  =     2000
   RHO(2)=  100.500       N(2)  =     4000

 ion  position               nearest neighbor table
   1  0.000  0.000  0.000-   2 2.00   4 2.00   6 2.00   8 2.00
   2  0.250  0.250  0.250-   1 2.00   3 2.00   5 2.00   7 2.00
   3  0.000  0.500  0.500-   2 2.00   4 2.00   6 2.00   8 2.00
   4  0.250  0.750  0.750-   1 2.00   3 2.00   5 2.00   7 2.00
   5  0.500  0.000  0.500-   2 2.00   4 2.00   6 2.00   8 2.00
   6  0.750  0.250  0.750-   1 2.00   3 2.00   5 2.00   7 2.00
   7  0.500  0.500  0.000-   2 2.00   4 2.00   6 2.00   8 2.00
   8  0.750  0.750  0.250-   1 2.00   3 2.00   5 2.00   7 2.00

  LATTYP: Found a simple cubic cell.
 ALAT       =     4.6150000000

  Lattice vectors:

 A1 = (   4.6150000000,   0.0000000000,   0.0000000000)
 A2 = (   0.0000000000,   4.6150000000,   0.0000000000)
 A3 = (   0.0000000000,   0.0000000000,   4.6150000000)

Analysis of symmetry for initial positions (statically):
 Subroutine PRICEL returns:
 Original cell was already a primitive cell.

 Routine SETGRP: Setting up the symmetry group for a
 simple cubic supercell.

 Subroutine GETGRP returns: Found  1 space group operations
 (whereof  1 operations were pure point group operations)
 out of a pool of 48 trial point group operations.

The static configuration has the point symmetry C_1 .

Analysis of symmetry for dynamics (positions and initial velocities):
 Subroutine PRICEL returns:
 Original cell was already a primitive cell.

[...]

The dynamic configuration has the point symmetry C_1 .

Analysis of structural, dynamic, and magnetic symmetry:
 Subroutine PRICEL returns:
 Original cell was already a primitive cell.

 Routine SETGRP: Setting up the symmetry group for a
 simple cubic supercell.

 Subroutine GETGRP returns: Found  1 space group operations
 (whereof  1 operations were pure point group operations)
 out of a pool of 48 trial point group operations.

The overall configuration has the point symmetry C_1 .

 Subroutine INISYM returns: Found  1 space group operations
 (whereof  1 operations are pure point group operations),
 and found     1 'primitive' translations

                                     Primitive cell

  volume of cell :      98.2913

  direct lattice vectors                    reciprocal lattice vectors
     4.615000000  0.000000000  0.000000000     0.216684724  0.000000000  0.000000000
     0.000000000  4.615000000  0.000000000     0.000000000  0.216684724  0.000000000
     0.000000000  0.000000000  4.615000000     0.000000000  0.000000000  0.216684724

  length of vectors
     4.615000000  4.615000000  4.615000000     0.216684724  0.216684724  0.216684724

  position of ions in fractional coordinates (direct lattice)
     0.000000000  0.000000000  0.000000000
     0.250000000  0.250000000  0.250000000
     0.000000000  0.500000000  0.500000000
     0.250000000  0.750000000  0.750000000
     0.500000000  0.000000000  0.500000000
     0.750000000  0.250000000  0.750000000
     0.500000000  0.500000000  0.000000000
     0.750000000  0.750000000  0.250000000

  ion indices of the primitive-cell ions
   primitive index   ion index
                 1           1
                 2           2
                 3           3
                 4           4
                 5           5
                 6           6
                 7           7
                 8           8

 KPOINTS: Automatic KPOINTS generated

Automatic generation of k-mesh.
 Grid dimensions read from file:
 generate k-points for:    7    7    7

 Generating k-lattice:

  Cartesian coordinates                     Fractional coordinates (reciprocal lattice)
     0.030954961  0.000000000  0.000000000     0.142857143  0.000000000  0.000000000
     0.000000000  0.030954961  0.000000000     0.000000000  0.142857143  0.000000000
     0.000000000  0.000000000  0.030954961     0.000000000  0.000000000  0.142857143

  Length of vectors
     0.030954961  0.030954961  0.030954961

  Shift w.r.t. Gamma in fractional coordinates (k-lattice)
     0.000000000  0.000000000  0.000000000

 Subroutine IBZKPT returns following result:

 Found    172 irreducible k-points:

 Following reciprocal coordinates:
            Coordinates               Weight
  0.000000  0.000000  0.000000      1.000000
  0.142857  0.000000  0.000000      2.000000
  0.000000  0.142857  0.000000      2.000000
  0.000000  0.000000  0.142857      2.000000
  0.285714  0.000000  0.000000      2.000000
  0.000000  0.285714  0.000000      2.000000
  0.000000  0.000000  0.285714      2.000000
  0.428571  0.000000  0.000000      2.000000
  0.000000  0.428571  0.000000      2.000000
  0.000000  0.000000  0.428571      2.000000
  0.142857  0.142857  0.000000      2.000000
  0.000000  0.142857  0.142857      2.000000
  0.142857  0.000000  0.142857      2.000000
 -0.142857  0.142857  0.000000      2.000000
 -0.142857  0.000000  0.142857      2.000000
  0.000000 -0.142857  0.142857      2.000000
  0.285714  0.142857  0.000000      2.000000
  0.000000  0.285714  0.142857      2.000000
  0.142857  0.000000  0.285714      2.000000
 -0.142857  0.285714  0.000000      2.000000
 -0.285714  0.000000  0.142857      2.000000
  0.000000  0.142857  0.285714      2.000000
  0.000000 -0.285714  0.142857      2.000000
 -0.142857  0.000000  0.285714      2.000000
  0.285714  0.000000  0.142857      2.000000
  0.000000 -0.142857  0.285714      2.000000
  0.285714 -0.142857  0.000000      2.000000
  0.142857  0.285714  0.000000      2.000000
  0.428571  0.142857  0.000000      2.000000
  0.000000  0.428571  0.142857      2.000000
  0.142857  0.000000  0.428571      2.000000
 -0.142857  0.428571  0.000000      2.000000
 -0.428571  0.000000  0.142857      2.000000
  0.000000  0.142857  0.428571      2.000000
  0.000000 -0.428571  0.142857      2.000000
 -0.142857  0.000000  0.428571      2.000000
  0.428571  0.000000  0.142857      2.000000
  0.000000 -0.142857  0.428571      2.000000
  0.428571 -0.142857  0.000000      2.000000
  0.142857  0.428571  0.000000      2.000000
  0.285714  0.285714  0.000000      2.000000
  0.000000  0.285714  0.285714      2.000000
  0.285714  0.000000  0.285714      2.000000
 -0.285714  0.285714  0.000000      2.000000
 -0.285714  0.000000  0.285714      2.000000
  0.000000 -0.285714  0.285714      2.000000
  0.428571  0.285714  0.000000      2.000000
  0.000000  0.428571  0.285714      2.000000
  0.285714  0.000000  0.428571      2.000000
 -0.285714  0.428571  0.000000      2.000000
 -0.428571  0.000000  0.285714      2.000000
  0.000000  0.285714  0.428571      2.000000
[...]
   0.75000000  0.25000000  0.75000000
   0.50000000  0.50000000  0.00000000
   0.75000000  0.75000000  0.25000000

 position of ions in cartesian coordinates  (Angst):
   0.00000000  0.00000000  0.00000000
   1.15375000  1.15375000  1.15375000
   0.00000000  2.30750000  2.30750000
   1.15375000  3.46125000  3.46125000
   2.30750000  0.00000000  2.30750000
   3.46125000  1.15375000  3.46125000
   2.30750000  2.30750000  0.00000000
   3.46125000  3.46125000  1.15375000

 k-point     1 :   0.0000 0.0000 0.0000  plane waves:    4139
 k-point     2 :   0.1429 0.0000 0.0000  plane waves:    4100
 k-point     3 :   0.0000 0.1429 0.0000  plane waves:    4100
 k-point     4 :   0.0000 0.0000 0.1429  plane waves:    4100
 k-point     5 :   0.2857 0.0000 0.0000  plane waves:    4112
 k-point     6 :   0.0000 0.2857 0.0000  plane waves:    4112
 k-point     7 :   0.0000 0.0000 0.2857  plane waves:    4112
 k-point     8 :   0.4286 0.0000 0.0000  plane waves:    4124
 k-point     9 :   0.0000 0.4286 0.0000  plane waves:    4124
 k-point    10 :   0.0000 0.0000 0.4286  plane waves:    4124
 k-point    11 :   0.1429 0.1429 0.0000  plane waves:    4118
 k-point    12 :   0.0000 0.1429 0.1429  plane waves:    4118
 k-point    13 :   0.1429 0.0000 0.1429  plane waves:    4118
 k-point    14 :  -0.1429 0.1429 0.0000  plane waves:    4118
 k-point    15 :  -0.1429 0.0000 0.1429  plane waves:    4118
 k-point    16 :   0.0000-0.1429 0.1429  plane waves:    4118
 k-point    17 :   0.2857 0.1429 0.0000  plane waves:    4132
 k-point    18 :   0.0000 0.2857 0.1429  plane waves:    4132
 k-point    19 :   0.1429 0.0000 0.2857  plane waves:    4132
 k-point    20 :  -0.1429 0.2857 0.0000  plane waves:    4132
 k-point    21 :  -0.2857 0.0000 0.1429  plane waves:    4132
 k-point    22 :   0.0000 0.1429 0.2857  plane waves:    4132
 k-point    23 :   0.0000-0.2857 0.1429  plane waves:    4132
 k-point    24 :  -0.1429 0.0000 0.2857  plane waves:    4132
 k-point    25 :   0.2857 0.0000 0.1429  plane waves:    4132
 k-point    26 :   0.0000-0.1429 0.2857  plane waves:    4132
 k-point    27 :   0.2857-0.1429 0.0000  plane waves:    4132
 k-point    28 :   0.1429 0.2857 0.0000  plane waves:    4132
 k-point    29 :   0.4286 0.1429 0.0000  plane waves:    4128
 k-point    30 :   0.0000 0.4286 0.1429  plane waves:    4128
 k-point    31 :   0.1429 0.0000 0.4286  plane waves:    4128
 k-point    32 :  -0.1429 0.4286 0.0000  plane waves:    4128
 k-point    33 :  -0.4286 0.0000 0.1429  plane waves:    4128
 k-point    34 :   0.0000 0.1429 0.4286  plane waves:    4128
 k-point    35 :   0.0000-0.4286 0.1429  plane waves:    4128
 k-point    36 :  -0.1429 0.0000 0.4286  plane waves:    4128
 k-point    37 :   0.4286 0.0000 0.1429  plane waves:    4128
 k-point    38 :   0.0000-0.1429 0.4286  plane waves:    4128
 k-point    39 :   0.4286-0.1429 0.0000  plane waves:    4128
 k-point    40 :   0.1429 0.4286 0.0000  plane waves:    4128
 k-point    41 :   0.2857 0.2857 0.0000  plane waves:    4120
 k-point    42 :   0.0000 0.2857 0.2857  plane waves:    4120
 k-point    43 :   0.2857 0.0000 0.2857  plane waves:    4120
 k-point    44 :  -0.2857 0.2857 0.0000  plane waves:    4120
 k-point    45 :  -0.2857 0.0000 0.2857  plane waves:    4120
 k-point    46 :   0.0000-0.2857 0.2857  plane waves:    4120
 k-point    47 :   0.4286 0.2857 0.0000  plane waves:    4148
 k-point    48 :   0.0000 0.4286 0.2857  plane waves:    4148
 k-point    49 :   0.2857 0.0000 0.4286  plane waves:    4148
 k-point    50 :  -0.2857 0.4286 0.0000  plane waves:    4148
 k-point    51 :  -0.4286 0.0000 0.2857  plane waves:    4148
 k-point    52 :   0.0000 0.2857 0.4286  plane waves:    4148
 k-point    53 :   0.0000-0.4286 0.2857  plane waves:    4148
 k-point    54 :  -0.2857 0.0000 0.4286  plane waves:    4148
 k-point    55 :   0.4286 0.0000 0.2857  plane waves:    4148
 k-point    56 :   0.0000-0.2857 0.4286  plane waves:    4148
 k-point    57 :   0.4286-0.2857 0.0000  plane waves:    4148
 k-point    58 :   0.2857 0.4286 0.0000  plane waves:    4148
 k-point    59 :   0.4286 0.4286 0.0000  plane waves:    4132
 k-point    60 :   0.0000 0.4286 0.4286  plane waves:    4132
[...]
 k-point   158 :   0.2857 0.4286 0.4286  plane waves:    4127
 k-point   159 :   0.4286 0.2857 0.4286  plane waves:    4127
 k-point   160 :  -0.4286 0.4286 0.2857  plane waves:    4127
 k-point   161 :  -0.4286 0.2857 0.4286  plane waves:    4127
 k-point   162 :  -0.2857 0.4286 0.4286  plane waves:    4127
 k-point   163 :  -0.4286-0.4286 0.2857  plane waves:    4127
 k-point   164 :  -0.2857-0.4286 0.4286  plane waves:    4127
 k-point   165 :  -0.4286-0.2857 0.4286  plane waves:    4127
 k-point   166 :   0.4286-0.4286 0.2857  plane waves:    4127
 k-point   167 :   0.4286-0.2857 0.4286  plane waves:    4127
 k-point   168 :   0.2857-0.4286 0.4286  plane waves:    4127
 k-point   169 :   0.4286 0.4286 0.4286  plane waves:    4158
 k-point   170 :  -0.4286 0.4286 0.4286  plane waves:    4158
 k-point   171 :  -0.4286-0.4286 0.4286  plane waves:    4158
 k-point   172 :   0.4286-0.4286 0.4286  plane waves:    4158

 maximum and minimum number of plane-waves per node :       289      231

 maximum number of plane-waves:      4158
 maximum index in each direction:
   IXMAX=   10   IYMAX=   10   IZMAX=   10
   IXMIN=  -10   IYMIN=  -10   IZMIN=  -10

 real space projection operators:
  max/ min on nodes  :         88.12         26.88

 parallel 3D FFT for wavefunctions:
    minimum data exchange during FFTs selected (reduces bandwidth)
 parallel 3D FFT for charge:
    minimum data exchange during FFTs selected (reduces bandwidth)

 Broyden mixing: mesh for mixing (old mesh)
   NGX = 19   NGY = 19   NGZ = 19
  (NGX  = 60   NGY  = 60   NGZ  = 60)
  gives a total of   6859 points

 initial charge density was supplied:
 charge density of overlapping atoms calculated
 number of electron      32.0000000 magnetization       1.0000000
 keeping initial charge density in first step

 Maximum index for non-local projection operator          137
 Maximum index for augmentation-charges         1041 (set IRDMAX)

 First call to EWALD:  gamma=   0.384
 Maximum number of real-space cells 3x 3x 3
 Maximum number of reciprocal cells 3x 3x 3

--------------------------------------- Ionic step        1  -------------------------------------------

--------------------------------------- Iteration      1(   1)  ---------------------------------------

 eigenvalue-minimisations  : 13760
 total energy-change (2. order) : 0.1482762E+03  (-0.1670008E+04)
 number of electron      32.0000000 magnetization       1.0000000
 augmentation part       32.0000000 magnetization       1.0000000

 Free energy of the ion-electron system (eV)
  alpha Z        PSCENC =        88.96950472
  Ewald energy   TEWEN  =     -1075.70962941
  -Hartree energ DENC   =       -95.82060656
  -exchange      EXHF   =         0.00000000
  -V(xc)+E(xc)   XCENC  =        22.82550462
  PAW double counting   =       786.65586885     -730.98155485
  entropy T*S    EENTRO =        -0.00006639
  eigenvalues    EBANDS =       143.74248149
  atomic energy  EATOM  =      1008.59467010
  Solvation  Ediel_sol  =         0.00000000
  free energy    TOTEN  =       148.27617257 eV

  energy without entropy =      148.27623895  energy(sigma->0) =      148.27620576

[...]

 eigenvalue-minimisations  : 19248
 total energy-change (2. order) :-0.1911852E+03  (-0.1846749E+03)
 number of electron      32.0000000 magnetization       1.0000000
 augmentation part       32.0000000 magnetization       1.0000000

[...]

 Broyden mixing:
  rms(total) = 0.12719E+01    rms(broyden)= 0.12719E+01
  rms(prec ) = 0.29321E+01
  weight for this iteration     100.00

[...]

 eigenvalues of (default mixing * dielectric matrix)
  average eigenvalue GAMMA=   0.7493
  0.7493

[...]

 eigenvalue-minimisations  : 17832
 total energy-change (2. order) : 0.1277981E-03  (-0.1068551E-03)
 number of electron      32.0000000 magnetization       1.0000000
 augmentation part       -2.0201084 magnetization       0.0147550

[...]

 Broyden mixing:
  rms(total) = 0.34054E-03    rms(broyden)= 0.34053E-03
  rms(prec ) = 0.51532E-03
  weight for this iteration     100.00

 eigenvalues of (default mixing * dielectric matrix)
  average eigenvalue GAMMA=   0.9658
  2.0686  1.6898  0.9402  0.9402  0.8655  0.6718  0.4954  0.4954  0.5253

[...]

--------------------------------------- Iteration      1(  15)  ---------------------------------------

 eigenvalue-minimisations  : 16116
 total energy-change (2. order) :-0.2279012E-07  (-0.5893152E-07)
 number of electron      32.0000000 magnetization       1.0000000
 augmentation part       -2.0213147 magnetization       0.0145284

 Free energy of the ion-electron system (eV)
  alpha Z        PSCENC =        88.96950472
  Ewald energy   TEWEN  =     -1075.70962941
  -Hartree energ DENC   =      -131.11869701
  -exchange      EXHF   =         0.00000000
  -V(xc)+E(xc)   XCENC  =        26.60465696
  PAW double counting   =      2310.69922048    -2256.55454781
  entropy T*S    EENTRO =        -0.00035826
  eigenvalues    EBANDS =       -21.03330900
  atomic energy  EATOM  =      1008.59467010
  Solvation  Ediel_sol  =         0.00000000
  free energy    TOTEN  =       -49.54848924 eV

  energy without entropy =      -49.54813098  energy(sigma->0) =      -49.54831011

 average (electrostatic) potential at core
  the test charge radii are     0.6991  1.1631  0.6991  1.1631  0.6991  1.1631  0.6991  1.1631
  (the norm of the test charge is              1.0000)
       1 -48.8008       2 -30.6244       3 -48.8009       4 -30.6244       5 -48.8008
       6 -30.6244       7 -48.8009       8 -30.6244

 E-fermi :   4.5991     XC(G=0): -10.8309     alpha+bet :-12.5145

 val. band max:        8.5654817912   @ k =   0.1429   0.2857   0.0000
 cond. band min:       4.5992814562   @ k =   0.1429  -0.2857   0.1429
 fundamental gap:     -3.9662003350
 Fermi energy:         8.6040202170

 spin component 1

 k-point     1 :       0.0000    0.0000    0.0000
  band No.  band energies     occupation
      1      -9.9569      1.00000
      2      -5.1339      1.00000
      3      -5.1339      1.00000
      4      -5.1339      1.00000
      5      -3.2106      1.00000
      6      -3.2106      1.00000
      7      -3.2106      1.00000
      8       1.9119      1.00000
      9       1.9120      1.00000
     10       1.9120      1.00000
     11       1.9120      1.00000
     12       1.9120      1.00000
     13       1.9120      1.00000
     14       5.3502      1.00000
     15       5.3502      1.00000
     16       5.3502      1.00000
     17       7.0097      1.00000
     18       7.0097      1.00000
     19       7.0097      1.00000
     20       8.4260      1.00000

[...]

 k-point   172 :       0.4286   -0.4286    0.4286
  band No.  band energies     occupation
      1      -7.0757      1.00000
      2      -6.6790      1.00000
      3      -6.6790      1.00000
      4      -6.6790      1.00000
      5      -3.1661      1.00000
      6      -3.1661      1.00000
      7      -3.1661      1.00000
      8      -2.7561      1.00000
      9       3.5662      1.00000
     10       3.5662      1.00000
     11       3.5662      1.00000
     12       3.8696      1.00000
     13       3.8696      1.00000
     14       3.8696      1.00000
     15       4.0652      1.00000
     16       4.0652      1.00000
     17       8.6720      0.00000
     18       9.0264      0.00000
     19       9.0264      0.00000
     20       9.0264      0.00000
 Fermi energy:         4.5990666790

 spin component 2

[...]

 k-point   172 :       0.4286   -0.4286    0.4286
  band No.  band energies     occupation
      1      -6.9179      1.00000
      2      -6.5219      1.00000
      3      -6.5219      1.00000
      4      -6.5219      1.00000
      5      -2.9974      1.00000
      6      -2.9974      1.00000
      7      -2.9974      1.00000
      8      -2.5871      1.00000
      9       3.7283      1.00000
     10       3.7283      1.00000
     11       3.7283      1.00000
     12       4.0326      1.00000
     13       4.0326      1.00000
     14       4.0326      1.00000
     15       4.2291      1.00000
     16       4.2291      1.00000
     17       8.8305      0.00000
     18       9.1876      0.00000
     19       9.1876      0.00000
     20       9.1876      0.00000

 soft charge-density along one line, spin component           1
         0         1         2         3         4         5         6         7         8         9
 total charge-density along one line

 soft charge-density along one line, spin component           2
         0         1         2         3         4         5         6         7         8         9
 total charge-density along one line

------------------------ aborting loop because EDIFF is reached ----------------------------------------

  FORCE on cell =-STRESS in cart. coord.  units (eV):
  Direction    XX          YY          ZZ          XY          YZ          ZX
  Alpha Z    88.96950    88.96950    88.96950
  Ewald    -358.57049  -358.57049  -358.57049     0.00000    -0.00000     0.00000
  Hartree    43.70422    43.70422    43.70422    -0.00000    -0.00000    -0.00000
  E(xc)    -115.94978  -115.94978  -115.94978     0.00000     0.00000     0.00000
  Local    -102.79244  -102.79244  -102.79244     0.00001     0.00001     0.00002
  n-local    78.99403    78.99403    78.99403     0.00000     0.00000    -0.00000
  augment     3.25008     3.25008     3.25008    -0.00000    -0.00000    -0.00000
  Kinetic   364.11453   364.11453   364.11453    -0.00001    -0.00000    -0.00001
  Fock        0.00000     0.00000     0.00000     0.00000     0.00000     0.00000
  Total       1.71965     1.71965     1.71966     0.00000    -0.00000     0.00001
  in kB      28.03084    28.03082    28.03091     0.00001    -0.00001     0.00016

 VOLUME and BASIS-vectors are now :
  energy-cutoff  :      700.00
  volume of cell :       98.29
      direct lattice vectors                 reciprocal lattice vectors
     4.615000000  0.000000000  0.000000000     0.216684724  0.000000000  0.000000000
     0.000000000  4.615000000  0.000000000     0.000000000  0.216684724  0.000000000
     0.000000000  0.000000000  4.615000000     0.000000000  0.000000000  0.216684724

  length of vectors
     4.615000000  4.615000000  4.615000000     0.216684724  0.216684724  0.216684724

 FORCES acting on ions
    electron-ion (+dipol)            ewald-force                    non-local-force                 convergence-correction
   -.104E-04 -.328E-05 -.110E-05   0.355E-14 0.355E-14 0.000E+00   -.225E-05 0.601E-05 0.578E-05   0.109E-04 -.339E-05 -.374E-05
   -.369E-04 0.964E-04 0.355E-04   0.348E-14 0.302E-14 0.354E-14   0.284E-05 -.105E-04 -.509E-06   0.308E-04 -.757E-04 -.306E-04
   -.775E-05 -.721E-05 -.616E-05   0.355E-14 -.355E-14 -.711E-14   -.176E-05 -.508E-06 -.292E-05   0.932E-05 0.753E-05 0.669E-05
   -.384E-04 -.926E-04 -.343E-04   0.303E-14 -.355E-14 -.349E-14   0.349E-05 0.110E-04 0.483E-06   0.314E-04 0.742E-04 0.310E-04
   0.488E-05 -.265E-05 -.333E-05   -.711E-14 0.355E-14 0.355E-14   0.413E-05 0.245E-05 -.315E-05   -.898E-05 -.151E-05 0.515E-05
   0.432E-04 0.954E-04 -.337E-04   -.708E-14 0.264E-14 0.717E-14   -.650E-05 -.107E-04 0.734E-06   -.325E-04 -.746E-04 0.305E-04
   0.731E-05 -.109E-04 0.939E-06   -.711E-14 -.355E-14 -.355E-14   0.633E-06 -.126E-05 0.847E-05   -.921E-05 0.997E-05 -.687E-05
   0.409E-04 -.930E-04 0.396E-04   -.704E-14 -.361E-14 -.103E-15   -.511E-05 0.112E-04 -.329E-05   -.315E-04 0.745E-04 -.321E-04
   0.284E-05 -.178E-04 -.253E-05   -.147E-13 -.150E-14 0.549E-17   -.454E-05 0.775E-05 0.559E-05   0.172E-06 0.111E-04 0.160E-07

 POSITION                                       TOTAL-FORCE (eV/Angst)
      0.00000      0.00000      0.00000        -0.000002     -0.000001      0.000001
      1.15375      1.15375      1.15375        -0.000003      0.000010      0.000004
      0.00000      2.30750      2.30750        -0.000000     -0.000000     -0.000003
      1.15375      3.46125      3.46125        -0.000003     -0.000007     -0.000003
      2.30750      0.00000      2.30750         0.000000     -0.000002     -0.000002
      3.46125      1.15375      3.46125         0.000004      0.000010     -0.000003
      2.30750      2.30750      0.00000        -0.000001     -0.000002      0.000002
      3.46125      3.46125      1.15375         0.000004     -0.000007      0.000004
    total drift:                               -0.000002      0.000001      0.000003

  FREE ENERGIE OF THE ION-ELECTRON SYSTEM (eV)
  free  energy   TOTEN  =       -49.54848924 eV

  energy  without entropy=      -49.54813098  energy(sigma->0) =      -49.54831011