 vasp.6.4.3 19Mar24 (build Oct 22 2024 11:23:12) complex

 executed on             LinuxIFC date 2025.04.30  06:11:59

 INCAR:
   SYSTEM = Si001 and Ge001 interface calculation
   ISTART = 0
   ICHARG = 2
   LWAVE = .FALSE.
   LREAL = AUTO
   ENCUT = 700
   ENAUG = 900
   ADDGRID = .TRUE.
   LMAXMIX = 6
   LASPH = .TRUE.
   LMIXTAU = .TRUE.
   NCORE = 16
   NELM = 100
   NBANDS = 106
   EDIFF = 1d-7
   AMIX = 0.6
   ISMEAR = 0
   SIGMA = 0.01
   NELECT = 176
   ISPIN = 2
   NUPDOWN = 1
   LVTOT = .FALSE.
   LVHAR = .TRUE.

 POTCAR:    PAW_PBE Si 05Jan2001
 POTCAR:    PAW_PBE Ge 05Jan2001
|           W    W    AA    RRRRR   N    N  II  N    N   GGGG   !!!           |
|           W    W   A  A   R    R  NN   N  II  NN   N  G    G  !!!           |
|           W    W  A    A  R    R  N N  N  II  N N  N  G       !!!           |
|           W WW W  AAAAAA  RRRRR   N  N N  II  N  N N  G  GGG   !            |
|           WW  WW  A    A  R   R   N   NN  II  N   NN  G    G                |
|           W    W  A    A  R    R  N    N  II  N    N   GGGG   !!!           |
|     You use a magnetic or noncollinear calculation, but did not specify     |
|     the initial magnetic moment with the MAGMOM tag. Note that a            |
|     default of 0.023 will be used for all atoms. This ferromagnetic         |
|     setup may break the symmetry of the crystal, in particular it may       |
|     rule out finding an antiferromagnetic solution. Thence, we              |
|     recommend setting the initial magnetic moment manually or verifying     |
|     carefully that this magnetic setup is desired.                          |

 POTCAR:    PAW_PBE Si 05Jan2001
   VRHFIN =Si: s2p2

   TITEL  = PAW_PBE Si 05Jan2001
   POMASS =   28.085; ZVAL   =    4.000    mass and valenz
   ENMAX  =  245.345; ENMIN  =  184.009 eV

 POTCAR:    PAW_PBE Ge 05Jan2001
   VRHFIN =Ge: s2p2

   TITEL  = PAW_PBE Ge 05Jan2001
   POMASS =   72.610; ZVAL   =    4.000    mass and valenz
   ENMAX  =  173.807; ENMIN  =  130.355 eV

 Optimization of the real space projectors (new method)

 maximal supplied QI-value         = 19.84
 optimisation between [QCUT,QGAM] = [ 13.49, 26.99] = [ 50.98,203.92] Ry
 Optimized for a Real-space Cutoff    1.07 Angstroem

   l    n(q)    QCUT    max X(q) W(low)/X(q) W(high)/X(q)  e(spline)
   0      9    13.493   159.560    0.22E-03    0.15E-03    0.72E-07
   0      9    13.493   115.863    0.21E-03    0.15E-03    0.71E-07
   1      8    13.493    88.339    0.15E-03    0.11E-03    0.13E-06
   1      8    13.493    48.592    0.15E-03    0.10E-03    0.13E-06
 Optimization of the real space projectors (new method)

 maximal supplied QI-value         = 16.25
 optimisation between [QCUT,QGAM] = [ 13.49, 26.98] = [ 50.95,203.80] Ry
 Optimized for a Real-space Cutoff    1.25 Angstroem

   l    n(q)    QCUT    max X(q) W(low)/X(q) W(high)/X(q)  e(spline)
   0     10    13.489    65.336    0.91E-04    0.11E-03    0.34E-06
   0     10    13.489    52.220    0.89E-04    0.11E-03    0.34E-06
   1     10    13.489    36.409    0.22E-03    0.27E-03    0.14E-06
   1     10    13.489    21.334    0.21E-03    0.27E-03    0.14E-06
   2      9    13.489     4.673    0.11E-03    0.12E-03    0.19E-06
  PAW_PBE Si 05Jan2001                  :
  PAW_PBE Ge 05Jan2001                  :

 POSCAR: fcc Si+fcc Ge
  positions in direct lattice

 exchange-correlation table for PE
   RHO(1)=    0.500       N(1)  =     2000
   RHO(2)=  100.500       N(2)  =     4000

 ion  position               nearest neighbor table
   1  0.000  0.000  0.000-  13 2.37  18 2.37  34 2.48  28 2.48  44 2.89
   2  0.500  0.000  0.089-  13 2.37  18 2.37  14 2.37  19 2.37
   3  0.000  0.000  0.179-  14 2.37  19 2.37  15 2.37  20 2.37
   4  0.500  0.000  0.268-  15 2.37  20 2.37  16 2.37  21 2.37
   5  0.000  0.000  0.358-  16 2.37  21 2.37  17 2.37  22 2.37
   6  0.500  0.000  0.447-  17 2.37  22 2.37  23 2.48  29 2.48
   7  0.500  0.500  0.000-  13 2.37  18 2.37  28 2.48  34 2.48  39 2.89
   8  0.000  0.500  0.089-  13 2.37  18 2.37  14 2.37  19 2.37
   9  0.500  0.500  0.179-  14 2.37  19 2.37  15 2.37  20 2.37
  10  0.000  0.500  0.268-  15 2.37  20 2.37  16 2.37  21 2.37
  11  0.500  0.500  0.358-  16 2.37  21 2.37  17 2.37  22 2.37
  12  0.000  0.500  0.447-  17 2.37  22 2.37  23 2.48  29 2.48
  13  0.250  0.250  0.045-   2 2.37   8 2.37   7 2.37   1 2.37
  14  0.750  0.250  0.134-   3 2.37   9 2.37   8 2.37   2 2.37
  15  0.250  0.250  0.223-   4 2.37  10 2.37   9 2.37   3 2.37
  16  0.750  0.250  0.313-   5 2.37  11 2.37  10 2.37   4 2.37
  17  0.250  0.250  0.402-   6 2.37  12 2.37  11 2.37   5 2.37  23 2.84
  18  0.750  0.750  0.045-   2 2.37   8 2.37   7 2.37   1 2.37
  19  0.250  0.750  0.134-   3 2.37   9 2.37   8 2.37   2 2.37
  20  0.750  0.750  0.223-   4 2.37  10 2.37   9 2.37   3 2.37
  21  0.250  0.750  0.313-   5 2.37  11 2.37  10 2.37   4 2.37
  22  0.750  0.750  0.402-   6 2.37  12 2.37  11 2.37   5 2.37  29 2.84
  23  0.333  0.333  0.493-  35 2.40  40 2.40   6 2.48  12 2.48  17 2.84
  24  0.833  0.333  0.585-  35 2.40  40 2.40  36 2.40  41 2.40
  25  0.333  0.333  0.677-  36 2.40  37 2.40  41 2.40  42 2.40
  26  0.833  0.333  0.770-  38 2.40  43 2.40  42 2.40  37 2.40
  27  0.333  0.333  0.862-  38 2.40  39 2.40  43 2.40  44 2.40
  28  0.833  0.333  0.954-  39 2.40  44 2.40   7 2.48   1 2.48
  29  0.833  0.833  0.493-  35 2.40  40 2.40   6 2.48  12 2.48  22 2.84
  30  0.333  0.833  0.585-  35 2.40  40 2.40  36 2.40  41 2.40
  31  0.833  0.833  0.677-  36 2.40  37 2.40  41 2.40  42 2.40
  32  0.333  0.833  0.770-  38 2.40  43 2.40  42 2.40  37 2.40
  33  0.833  0.833  0.862-  38 2.40  39 2.40  43 2.40  44 2.40
  34  0.333  0.833  0.954-  39 2.40  44 2.40   1 2.48   7 2.48
  35  0.583  0.583  0.539-  24 2.40  30 2.40  29 2.40  23 2.40
  36  0.083  0.583  0.631-  24 2.40  25 2.40  30 2.40  31 2.40
  37  0.583  0.583  0.723-  25 2.40  26 2.40  31 2.40  32 2.40
  38  0.083  0.583  0.816-  26 2.40  32 2.40  27 2.40  33 2.40
  39  0.583  0.583  0.908-  27 2.40  28 2.40  33 2.40  34 2.40   7 2.89
  40  0.083  0.083  0.539-  24 2.40  30 2.40  29 2.40  23 2.40
  41  0.583  0.083  0.631-  24 2.40  25 2.40  30 2.40  31 2.40
  42  0.083  0.083  0.723-  25 2.40  26 2.40  31 2.40  32 2.40
  43  0.583  0.083  0.816-  26 2.40  32 2.40  27 2.40  33 2.40
  44  0.083  0.083  0.908-  27 2.40  28 2.40  33 2.40  34 2.40   1 2.89

  LATTYP: Found a simple tetragonal cell.
 ALAT       =     5.4800000000
 C/A-ratio  =     5.5930656934

  Lattice vectors:

 A1 = (   5.4800000000,   0.0000000000,   0.0000000000)
 A2 = (   0.0000000000,   5.4800000000,   0.0000000000)
 A3 = (   0.0000000000,   0.0000000000,  30.6500000000)

Analysis of symmetry for initial positions (statically):
 Subroutine PRICEL returns following result:

[...]

   2 primitive cells build up your supercell.

 Routine SETGRP: Setting up the symmetry group for a
 simple tetragonal supercell.

 Subroutine GETGRP returns: Found  2 space group operations
 (whereof  2 operations were pure point group operations)
 out of a pool of 16 trial point group operations.

The static configuration has the point symmetry C_1h.

Analysis of symmetry for dynamics (positions and initial velocities):
 Subroutine PRICEL returns following result:

[...]

The dynamic configuration has the point symmetry C_1h.

Analysis of structural, dynamic, and magnetic symmetry:
 Subroutine PRICEL returns following result:

  LATTYP: Found a simple tetragonal cell.
 ALAT       =     3.8749451609
 C/A-ratio  =     7.9097893589

  Lattice vectors:

 A1 = (   2.7400000000,  -2.7400000000,   0.0000000000)
 A2 = (   2.7400000000,   2.7400000000,   0.0000000000)
 A3 = (   0.0000000000,   0.0000000000,  30.6500000000)

   2 primitive cells build up your supercell.

 Routine SETGRP: Setting up the symmetry group for a
 simple tetragonal supercell.

 Subroutine GETGRP returns: Found  2 space group operations
 (whereof  2 operations were pure point group operations)
 out of a pool of 16 trial point group operations.

The overall configuration has the point symmetry C_1h.

 Subroutine INISYM returns: Found  2 space group operations
 (whereof  2 operations are pure point group operations),
 and found     2 'primitive' translations

                                     Primitive cell

  volume of cell :     460.2159

  direct lattice vectors                    reciprocal lattice vectors
     2.740000000 -2.740000000  0.000000000     0.182481752 -0.182481752  0.000000000
     2.740000000  2.740000000  0.000000000     0.182481752  0.182481752  0.000000000
     0.000000000  0.000000000 30.650000000     0.000000000  0.000000000  0.032626427

  length of vectors
     3.874945161  3.874945161 30.650000000     0.258068168  0.258068168  0.032626427

  position of ions in fractional coordinates (direct lattice)
     0.000000000  0.000000000  0.000000000
     0.500000000  0.500000000  0.089396411
     0.000000000  0.000000000  0.178792822
     0.500000000  0.500000000  0.268189233
     0.000000000  0.000000000  0.357585644
     0.500000000  0.500000000  0.446982055
     0.000000000  0.500000000  0.044698206
     0.500000000  0.000000000  0.134094617
     0.000000000  0.500000000  0.223491028
     0.500000000  0.000000000  0.312887439
     0.000000000  0.500000000  0.402283850
     0.000000000  0.666666666  0.492659054
     0.500000000  0.166666666  0.584991843
     0.000000000  0.666666666  0.677324633
     0.500000000  0.166666666  0.769657423
     0.000000000  0.666666666  0.861990212
     0.500000000  0.166666666  0.954323002
     0.000000000  0.166666666  0.538825449
     0.500000000  0.666666666  0.631158238
     0.000000000  0.166666666  0.723491028
     0.500000000  0.666666666  0.815823817
     0.000000000  0.166666666  0.908156607

  ion indices of the primitive-cell ions
   primitive index   ion index
                 1           1
                 2           2
                 3           3
                 4           4
                 5           5
                 6           6
                 7          13
                 8          14
                 9          15
                10          16
                11          17
                12          29
                13          24
                14          31
                15          26
                16          33
                17          28
                18          40
                19          36
                20          42
                21          38
                22          44

 KPOINTS: Automatic KPOINTS generated

Automatic generation of k-mesh.
 Grid dimensions read from file:
 generate k-points for:    6    6    1

 Generating k-lattice:

  Cartesian coordinates                     Fractional coordinates (reciprocal lattice)
     0.030413625  0.000000000  0.000000000     0.166666667  0.000000000  0.000000000
     0.000000000  0.030413625  0.000000000     0.000000000  0.166666667  0.000000000
     0.000000000  0.000000000  0.032626427     0.000000000  0.000000000  1.000000000

  Length of vectors
     0.030413625  0.030413625  0.032626427

  Shift w.r.t. Gamma in fractional coordinates (k-lattice)
     0.000000000  0.000000000  0.000000000

[...]
     17      -4.8881      1.00000
     18      -4.8840      1.00000
     19      -4.8839      1.00000
     20      -4.8644      1.00000
     21      -4.4601      1.00000
     22      -3.6779      1.00000
     23      -3.6261      1.00000
     24      -3.5964      1.00000
     25      -3.0171      1.00000
     26      -2.8194      1.00000
     27      -2.6335      1.00000
     28      -2.5872      1.00000
     29      -2.5685      1.00000
     30      -2.2562      1.00000
     31      -2.1137      1.00000
     32      -2.0336      1.00000
     33      -1.9998      1.00000
     34      -1.9553      1.00000
     35      -1.8561      1.00000
     36      -1.8497      1.00000
     37      -1.6083      1.00000
     38      -1.3807      1.00000
     39      -1.2226      1.00000
     40      -1.1965      1.00000
     41      -0.8182      1.00000
     42      -0.6721      1.00000
     43      -0.3696      1.00000
     44      -0.3586      1.00000
     45       0.3979      1.00000
     46       0.7948      1.00000
     47       0.8544      1.00000
     48       0.9804      1.00000
     49       1.0246      1.00000
     50       1.3106      1.00000
     51       1.4402      1.00000
     52       1.4488      1.00000
     53       1.7845      1.00000
     54       2.0760      1.00000
     55       2.1878      1.00000
     56       2.3443      1.00000
     57       2.3529      1.00000
     58       2.4715      1.00000
     59       2.4731      1.00000
     60       2.4952      1.00000
[...]
     92       5.9415      0.00000
     93       6.1376      0.00000
     94       6.1489      0.00000
     95       6.2285      0.00000
     96       6.3066      0.00000
     97       6.3440      0.00000
     98       6.4249      0.00000
     99       6.5792      0.00000
    100       6.6919      0.00000
    101       6.7284      0.00000
    102       6.7655      0.00000
    103       6.8636      0.00000
    104       6.9836      0.00000
    105       7.0585      0.00000
    106       7.0942      0.00000
 Fermi energy:         4.9094385947

 spin component 2

[...]

 k-point    13 :       0.5000    0.5000    0.0000
  band No.  band energies     occupation
      1      -6.7163      1.00000
      2      -6.3340      1.00000
      3      -6.2142      1.00000
      4      -6.1787      1.00000
      5      -6.1105      1.00000
      6      -6.1099      1.00000
      7      -6.0828      1.00000
      8      -6.0431      1.00000
      9      -5.9998      1.00000
     10      -5.9852      1.00000
     11      -5.8839      1.00000
     12      -5.0632      1.00000
     13      -5.0169      1.00000
     14      -5.0143      1.00000
     15      -4.9947      1.00000
     16      -4.9807      1.00000
     17      -4.8785      1.00000
     18      -4.8742      1.00000
     19      -4.8664      1.00000
     20      -4.8501      1.00000
     21      -4.4268      1.00000
     22      -3.6412      1.00000
     23      -3.5647      1.00000
     24      -3.5502      1.00000
     25      -2.9872      1.00000
     26      -2.7792      1.00000
     27      -2.6186      1.00000
     28      -2.5717      1.00000
     29      -2.5576      1.00000
     30      -2.2413      1.00000
     31      -2.0951      1.00000
     32      -2.0178      1.00000
     33      -1.9880      1.00000
     34      -1.9411      1.00000
     35      -1.8433      1.00000
     36      -1.8405      1.00000
     37      -1.5977      1.00000
     38      -1.3635      1.00000
     39      -1.2066      1.00000
     40      -1.1855      1.00000
     41      -0.7883      1.00000
     42      -0.6478      1.00000
     43      -0.3407      1.00000
     44      -0.3242      1.00000
     45       0.4246      1.00000
     46       0.8257      1.00000
     47       0.8884      1.00000
     48       1.0010      1.00000
     49       1.0572      1.00000
     50       1.3281      1.00000
     51       1.4556      1.00000
     52       1.4601      1.00000
     53       1.8110      1.00000
     54       2.0904      1.00000
     55       2.2079      1.00000
     56       2.3652      1.00000
     57       2.3746      1.00000
     58       2.4905      1.00000
     59       2.5324      1.00000
     60       2.5348      1.00000
[...]
     92       5.9991      0.00000
     93       6.1820      0.00000
     94       6.2451      0.00000
     95       6.2453      0.00000
     96       6.3230      0.00000
     97       6.3981      0.00000
     98       6.4413      0.00000
     99       6.5962      0.00000
    100       6.7063      0.00000
    101       6.7535      0.00000
    102       6.7811      0.00000
    103       6.8885      0.00000
    104       7.0024      0.00000
    105       7.0739      0.00000
    106       7.1122      0.00000

 soft charge-density along one line, spin component           1
         0         1         2         3         4         5         6         7         8         9
 total charge-density along one line

 soft charge-density along one line, spin component           2
         0         1         2         3         4         5         6         7         8         9
 total charge-density along one line

------------------------ aborting loop because EDIFF is reached ----------------------------------------

  FORCE on cell =-STRESS in cart. coord.  units (eV):
  Direction    XX          YY          ZZ          XY          YZ          ZX
  Alpha Z   236.41296   236.41296   236.41296
  Ewald   -1679.35857 -1679.35857 -1574.18291  -101.21878     0.79151     0.79151
  Hartree   111.90959   111.90959   119.79522   -24.10705     0.33799     0.33799
  E(xc)    -584.50338  -584.50338  -584.44406     0.04809     0.03788     0.03788
  Local    -551.26357  -551.26357  -655.18095   115.20502    -1.18052    -1.18052
  n-local  1302.76230  1297.69562  1302.34491    -4.09256    -0.15208    -0.08330
  augment  -102.54053  -102.54053  -102.63738    -0.39899     0.01503     0.01059
  Kinetic  1278.38269  1311.29428  1296.74801    12.02540     0.30210     0.56649
  Fock        0.00000     0.00000     0.00000     0.00000     0.00000     0.00000
  Total      25.72394    25.72394    38.85579    -2.53867     0.31618     0.31618
  in kB      44.77715    44.77715    67.63550    -4.41901     0.55037     0.55037

 VOLUME and BASIS-vectors are now :
  energy-cutoff  :      700.00
  volume of cell :      920.43
      direct lattice vectors                 reciprocal lattice vectors
     5.480000000  0.000000000  0.000000000     0.182481752  0.000000000  0.000000000
     0.000000000  5.480000000  0.000000000     0.000000000  0.182481752  0.000000000
     0.000000000  0.000000000 30.650000000     0.000000000  0.000000000  0.032626427

  length of vectors
     5.480000000  5.480000000 30.650000000     0.182481752  0.182481752  0.032626427

 FORCES acting on ions
    electron-ion (+dipol)            ewald-force                    non-local-force                 convergence-correction
   0.774E+01 0.774E+01 0.129E+02   -.762E+01 -.762E+01 -.117E+02   -.336E+00 -.336E+00 -.244E+00   0.211E-04 0.211E-04 -.427E-03
   -.166E+00 -.166E+00 0.989E+01   0.168E+00 0.168E+00 -.958E+01   0.232E-01 0.232E-01 -.312E+00   -.123E-04 -.123E-04 0.170E-02
   -.730E-02 -.730E-02 0.328E+01   -.180E-02 -.180E-02 -.321E+01   0.875E-02 0.875E-02 -.597E-01   -.478E-05 -.478E-05 0.274E-02
   0.314E-01 0.314E-01 -.320E+01   -.146E-02 -.146E-02 0.321E+01   -.242E-01 -.242E-01 0.282E-02   0.184E-05 0.184E-05 0.278E-02
   0.239E+00 0.239E+00 -.973E+01   0.140E+00 0.140E+00 0.951E+01   -.398E+00 -.398E+00 -.490E-02   -.132E-05 -.132E-05 0.215E-02
   0.361E+01 0.361E+01 -.185E+02   -.516E+01 -.516E+01 0.177E+02   0.143E+01 0.143E+01 0.683E+00   -.121E-04 -.121E-04 0.143E-03
   0.774E+01 0.774E+01 0.129E+02   -.762E+01 -.762E+01 -.117E+02   -.336E+00 -.336E+00 -.244E+00   0.211E-04 0.211E-04 -.427E-03
   -.166E+00 -.166E+00 0.989E+01   0.168E+00 0.168E+00 -.958E+01   0.232E-01 0.232E-01 -.312E+00   -.123E-04 -.123E-04 0.170E-02
   -.730E-02 -.730E-02 0.328E+01   -.180E-02 -.180E-02 -.321E+01   0.875E-02 0.875E-02 -.597E-01   -.478E-05 -.478E-05 0.274E-02
   0.314E-01 0.314E-01 -.320E+01   -.146E-02 -.146E-02 0.321E+01   -.242E-01 -.242E-01 0.282E-02   0.184E-05 0.184E-05 0.278E-02
   0.239E+00 0.239E+00 -.973E+01   0.140E+00 0.140E+00 0.951E+01   -.398E+00 -.398E+00 -.490E-02   -.132E-05 -.132E-05 0.215E-02
   0.361E+01 0.361E+01 -.185E+02   -.516E+01 -.516E+01 0.177E+02   0.143E+01 0.143E+01 0.683E+00   -.121E-04 -.121E-04 0.143E-03
   -.132E+01 -.132E+01 0.122E+02   0.116E+01 0.116E+01 -.118E+02   0.120E+00 0.120E+00 -.159E+00   -.421E-05 -.421E-05 0.639E-03
   0.130E-01 0.130E-01 0.649E+01   -.175E-01 -.175E-01 -.643E+01   -.307E-02 -.307E-02 -.770E-01   0.112E-04 0.112E-04 0.241E-02
   -.114E-01 -.114E-01 0.378E-01   0.353E-04 0.353E-04 -.889E-03   0.617E-02 0.617E-02 -.472E-01   0.705E-05 0.705E-05 0.280E-02
   -.609E-01 -.609E-01 -.661E+01   0.133E-01 0.133E-01 0.651E+01   0.202E-01 0.202E-01 0.114E+00   -.235E-05 -.235E-05 0.262E-02
   0.130E+01 0.130E+01 -.636E+01   -.149E+01 -.149E+01 0.541E+01   0.930E-01 0.930E-01 -.641E-01   -.463E-05 -.463E-05 0.133E-02
   -.132E+01 -.132E+01 0.122E+02   0.116E+01 0.116E+01 -.118E+02   0.120E+00 0.120E+00 -.159E+00   -.421E-05 -.421E-05 0.639E-03
   0.130E-01 0.130E-01 0.649E+01   -.175E-01 -.175E-01 -.643E+01   -.307E-02 -.307E-02 -.770E-01   0.112E-04 0.112E-04 0.241E-02
   -.114E-01 -.114E-01 0.378E-01   0.353E-04 0.353E-04 -.889E-03   0.617E-02 0.617E-02 -.472E-01   0.705E-05 0.705E-05 0.280E-02
   -.609E-01 -.609E-01 -.661E+01   0.133E-01 0.133E-01 0.651E+01   0.202E-01 0.202E-01 0.114E+00   -.235E-05 -.235E-05 0.262E-02
   0.130E+01 0.130E+01 -.636E+01   -.149E+01 -.149E+01 0.541E+01   0.930E-01 0.930E-01 -.641E-01   -.463E-05 -.463E-05 0.133E-02
   -.766E+01 -.766E+01 -.183E+02   0.772E+01 0.772E+01 0.182E+02   0.197E+00 0.197E+00 0.164E+00   0.344E-04 0.344E-04 -.101E-02
   0.140E+00 0.140E+00 -.909E+01   -.145E+00 -.145E+00 0.910E+01   -.192E-01 -.192E-01 0.114E-01   0.508E-05 0.508E-05 -.234E-02
   0.106E-01 0.106E-01 -.306E+01   0.135E-02 0.135E-02 0.302E+01   -.154E-01 -.154E-01 0.523E-01   -.313E-06 -.313E-06 -.217E-02
   -.632E-02 -.632E-02 0.300E+01   0.108E-02 0.108E-02 -.302E+01   0.706E-03 0.706E-03 0.579E-01   -.860E-05 -.860E-05 -.187E-02
   -.500E-01 -.500E-01 0.897E+01   -.119E+00 -.119E+00 -.916E+01   0.177E+00 0.177E+00 -.161E+00   -.451E-05 -.451E-05 -.129E-02
   -.403E+01 -.403E+01 0.129E+02   0.508E+01 0.508E+01 -.118E+02   -.857E+00 -.857E+00 0.140E+00   0.189E-04 0.189E-04 -.889E-03
   -.766E+01 -.766E+01 -.183E+02   0.772E+01 0.772E+01 0.182E+02   0.197E+00 0.197E+00 0.164E+00   0.344E-04 0.344E-04 -.101E-02
   0.140E+00 0.140E+00 -.909E+01   -.145E+00 -.145E+00 0.910E+01   -.192E-01 -.192E-01 0.114E-01   0.508E-05 0.508E-05 -.234E-02
   0.106E-01 0.106E-01 -.306E+01   0.135E-02 0.135E-02 0.302E+01   -.154E-01 -.154E-01 0.523E-01   -.313E-06 -.313E-06 -.217E-02
   -.632E-02 -.632E-02 0.300E+01   0.108E-02 0.108E-02 -.302E+01   0.706E-03 0.706E-03 0.579E-01   -.860E-05 -.860E-05 -.187E-02
   -.500E-01 -.500E-01 0.897E+01   -.119E+00 -.119E+00 -.916E+01   0.177E+00 0.177E+00 -.161E+00   -.451E-05 -.451E-05 -.129E-02
   -.403E+01 -.403E+01 0.129E+02   0.508E+01 0.508E+01 -.118E+02   -.857E+00 -.857E+00 0.140E+00   0.189E-04 0.189E-04 -.889E-03
   0.117E+01 0.117E+01 -.126E+02   -.109E+01 -.109E+01 0.128E+02   -.653E-01 -.653E-01 0.179E+00   -.362E-05 -.362E-05 -.177E-02
   0.122E-01 0.122E-01 -.609E+01   0.141E-01 0.141E-01 0.603E+01   -.110E-01 -.110E-01 0.868E-01   -.306E-05 -.306E-05 -.248E-02
   0.146E-01 0.146E-01 -.330E-01   -.274E-04 -.274E-04 -.617E-03   -.112E-01 -.112E-01 0.323E-01   -.106E-05 -.106E-05 -.191E-02
   0.536E-01 0.536E-01 0.590E+01   -.106E-01 -.106E-01 -.597E+01   -.194E-01 -.194E-01 0.662E-01   0.708E-05 0.708E-05 -.172E-02
   -.128E+01 -.128E+01 0.181E+02   0.136E+01 0.136E+01 -.188E+02   -.585E-01 -.585E-01 -.358E+00   -.747E-07 -.747E-07 -.957E-03
   0.117E+01 0.117E+01 -.126E+02   -.109E+01 -.109E+01 0.128E+02   -.653E-01 -.653E-01 0.179E+00   -.362E-05 -.362E-05 -.177E-02
   0.122E-01 0.122E-01 -.609E+01   0.141E-01 0.141E-01 0.603E+01   -.110E-01 -.110E-01 0.868E-01   -.306E-05 -.306E-05 -.248E-02
   0.146E-01 0.146E-01 -.330E-01   -.274E-04 -.274E-04 -.617E-03   -.112E-01 -.112E-01 0.323E-01   -.106E-05 -.106E-05 -.191E-02
   0.536E-01 0.536E-01 0.590E+01   -.106E-01 -.106E-01 -.597E+01   -.194E-01 -.194E-01 0.662E-01   0.708E-05 0.708E-05 -.172E-02
   -.128E+01 -.128E+01 0.181E+02   0.136E+01 0.136E+01 -.188E+02   -.585E-01 -.585E-01 -.358E+00   -.747E-07 -.747E-07 -.957E-03
   -.511E+00 -.511E+00 -.320E-02   -.375E-13 -.262E-13 0.519E-12   0.513E+00 0.513E+00 0.206E+00   0.873E-04 0.873E-04 0.969E-03

 POSITION                                       TOTAL-FORCE (eV/Angst)
      0.00000      0.00000      0.00000        -0.219837     -0.219837      0.869996
      2.74000      0.00000      2.74000         0.025036      0.025036     -0.005395
      0.00000      0.00000      5.48000        -0.000376     -0.000376      0.006819
      2.74000      0.00000      8.22000         0.005765      0.005765      0.010271
      0.00000      0.00000     10.96000        -0.019441     -0.019441     -0.230151
      2.74000      0.00000     13.70000        -0.121914     -0.121914     -0.108822
      2.74000      2.74000      0.00000        -0.219837     -0.219837      0.869996
      0.00000      2.74000      2.74000         0.025036      0.025036     -0.005395
      2.74000      2.74000      5.48000        -0.000376     -0.000376      0.006819
      0.00000      2.74000      8.22000         0.005765      0.005765      0.010271
      2.74000      2.74000     10.96000        -0.019441     -0.019441     -0.230151
      0.00000      2.74000     13.70000        -0.121914     -0.121914     -0.108822
      1.37000      1.37000      1.37000        -0.040687     -0.040687      0.204688
      4.11000      1.37000      4.11000        -0.007571     -0.007571     -0.020489
      1.37000      1.37000      6.85000        -0.005215     -0.005215     -0.012131
      4.11000      1.37000      9.59000        -0.027405     -0.027405      0.013577
      1.37000      1.37000     12.33000        -0.090025     -0.090025     -1.019146
      4.11000      4.11000      1.37000        -0.040687     -0.040687      0.204688
      1.37000      4.11000      4.11000        -0.007571     -0.007571     -0.020489
      4.11000      4.11000      6.85000        -0.005215     -0.005215     -0.012131
      1.37000      4.11000      9.59000        -0.027405     -0.027405      0.013577
      4.11000      4.11000     12.33000        -0.090025     -0.090025     -1.019146
      1.82667      1.82667     15.10000         0.263403      0.263403      0.046196
      4.56667      1.82667     17.93000        -0.024693     -0.024693      0.013863
      1.82667      1.82667     20.76000        -0.003482     -0.003482      0.000282
      4.56667      1.82667     23.59000        -0.004567     -0.004567      0.030633
      1.82667      1.82667     26.42000         0.008166      0.008166     -0.357198
      4.56667      1.82667     29.25000         0.192438      0.192438      1.265562
      4.56667      4.56667     15.10000         0.263403      0.263403      0.046196
      1.82667      4.56667     17.93000        -0.024693     -0.024693      0.013863
      4.56667      4.56667     20.76000        -0.003482     -0.003482      0.000282
      1.82667      4.56667     23.59000        -0.004567     -0.004567      0.030633
      4.56667      4.56667     26.42000         0.008166      0.008166     -0.357198
      1.82667      4.56667     29.25000         0.192438      0.192438      1.265562
      3.19667      3.19667     16.51500         0.005910      0.005910      0.347595
      0.45667      3.19667     19.34500         0.015236      0.015236      0.014466
      3.19667      3.19667     22.17500         0.003335      0.003335     -0.007853
      0.45667      3.19667     25.00500         0.023551      0.023551     -0.013295
      3.19667      3.19667     27.83500         0.022375      0.022375     -1.049467
      0.45667      0.45667     16.51500         0.005910      0.005910      0.347595
      3.19667      0.45667     19.34500         0.015236      0.015236      0.014466
      0.45667      0.45667     22.17500         0.003335      0.003335     -0.007853
      3.19667      0.45667     25.00500         0.023551      0.023551     -0.013295
      0.45667      0.45667     27.83500         0.022375      0.022375     -1.049467
    total drift:                                0.001242      0.001242      0.203575

  FREE ENERGIE OF THE ION-ELECTRON SYSTEM (eV)
  free  energy   TOTEN  =      -209.02084708 eV

  energy  without entropy=     -209.01990415  energy(sigma->0) =     -209.02037561