 vasp.6.4.3 19Mar24 (build Oct 22 2024 11:23:12) complex

 executed on             LinuxIFC date 2025.06.04  00:04:57

 INCAR:
   SYSTEM = Si and Ge interface calculation
   ISTART = 0
   ICHARG = 2
   LWAVE = .FALSE.
   LREAL = AUTO
   ENCUT = 700
   ENAUG = 900
   ADDGRID = .TRUE.
   LMAXMIX = 6
   LASPH = .TRUE.
   LMIXTAU = .TRUE.
   NCORE = 16
   NELM = 100
   NBANDS = 116
   EDIFF = 1d-7
   AMIX = 0.6
   ISMEAR = 0
   SIGMA = 0.01
   NELECT = 192
   ISPIN = 2
   NUPDOWN = 1
   LVTOT = .FALSE.
   LVHAR = .TRUE.

 POTCAR:    PAW_PBE Ge 05Jan2001
|           W    W    AA    RRRRR   N    N  II  N    N   GGGG   !!!           |
|           W    W   A  A   R    R  NN   N  II  NN   N  G    G  !!!           |
|           W    W  A    A  R    R  N N  N  II  N N  N  G       !!!           |
|           W WW W  AAAAAA  RRRRR   N  N N  II  N  N N  G  GGG   !            |
|           WW  WW  A    A  R   R   N   NN  II  N   NN  G    G                |
|           W    W  A    A  R    R  N    N  II  N    N   GGGG   !!!           |
|     You use a magnetic or noncollinear calculation, but did not specify     |
|     the initial magnetic moment with the MAGMOM tag. Note that a            |
|     default of 0.021 will be used for all atoms. This ferromagnetic         |
|     setup may break the symmetry of the crystal, in particular it may       |
|     rule out finding an antiferromagnetic solution. Thence, we              |
|     recommend setting the initial magnetic moment manually or verifying     |
|     carefully that this magnetic setup is desired.                          |

 POTCAR:    PAW_PBE Ge 05Jan2001
   VRHFIN =Ge: s2p2

   TITEL  = PAW_PBE Ge 05Jan2001
   POMASS =   72.610; ZVAL   =    4.000    mass and valenz
   ENMAX  =  173.807; ENMIN  =  130.355 eV

 Optimization of the real space projectors (new method)

 maximal supplied QI-value         = 16.25
 optimisation between [QCUT,QGAM] = [ 13.49, 26.98] = [ 50.95,203.80] Ry
 Optimized for a Real-space Cutoff    1.25 Angstroem

   l    n(q)    QCUT    max X(q) W(low)/X(q) W(high)/X(q)  e(spline)
   0     10    13.489    65.336    0.91E-04    0.11E-03    0.34E-06
   0     10    13.489    52.220    0.89E-04    0.11E-03    0.34E-06
   1     10    13.489    36.409    0.22E-03    0.27E-03    0.14E-06
   1     10    13.489    21.334    0.21E-03    0.27E-03    0.14E-06
   2      9    13.489     4.673    0.11E-03    0.12E-03    0.19E-06
  PAW_PBE Ge 05Jan2001                  :

 POSCAR: Ge+Ge
  positions in direct lattice

 exchange-correlation table for PE
   RHO(1)=    0.500       N(1)  =     2000
   RHO(2)=  100.500       N(2)  =     4000

 ion  position               nearest neighbor table
   1  0.006  0.994  0.000-  34 2.45  10 2.45
   2  0.172  0.828  0.244-  11 2.45  16 2.45  34 2.45  35 2.45
   3  0.339  0.661  0.487-  17 2.45  12 2.45  36 2.45  35 2.45
   4  0.672  0.328  0.000-  13 2.45  28 2.45  41 2.57  45 2.80
   5  0.839  0.161  0.244-  28 2.45  29 2.45  14 2.45  10 2.45
   6  0.006  0.994  0.487-  29 2.45  30 2.45  11 2.45  15 2.45
   7  0.339  0.661  0.000-  48 1.79  31 2.45  16 2.45  42 2.53  39 2.55
   8  0.506  0.494  0.244-  32 2.45  13 2.45  31 2.45  17 2.45
   9  0.672  0.328  0.487-  14 2.45  32 2.45  33 2.45  18 2.45
  10  0.089  0.161  0.122-   1 2.45  22 2.45  23 2.45   5 2.45
  11  0.256  0.994  0.365-   2 2.45  24 2.45   6 2.45  23 2.45
  12  0.422  0.828  0.609-   3 2.45  24 2.45  46 2.47
  13  0.756  0.494  0.122-   8 2.45  25 2.45   4 2.45  26 2.45  45 2.57
  14  0.922  0.328  0.365-  26 2.45   9 2.45  27 2.45   5 2.45
  15  0.089  0.161  0.609-  37 2.39  40 2.41  27 2.45   6 2.45  43 2.61
  16  0.422  0.828  0.122-   2 2.45  19 2.45   7 2.45  20 2.45
  17  0.589  0.661  0.365-   3 2.45  20 2.45  21 2.45   8 2.45
  18  0.756  0.494  0.609-  21 2.45   9 2.45  41 2.48
  19  0.506  0.994  0.000-  28 2.45  16 2.45
  20  0.672  0.828  0.244-  34 2.45  29 2.45  17 2.45  16 2.45
  21  0.839  0.661  0.487-  35 2.45  17 2.45  18 2.45  30 2.45
  22  0.172  0.328  0.000-  10 2.45  31 2.45  38 2.57  48 2.80
  23  0.339  0.161  0.244-  28 2.45  10 2.45  11 2.45  32 2.45
  24  0.506  0.994  0.487-  29 2.45  11 2.45  33 2.45  12 2.45
  25  0.839  0.661  0.000-  45 1.79  13 2.45  34 2.45  39 2.53  42 2.55
  26  0.006  0.494  0.244-  31 2.45  14 2.45  35 2.45  13 2.45
  27  0.172  0.328  0.487-  14 2.45  32 2.45  15 2.45  36 2.45
  28  0.589  0.161  0.122-   5 2.45  23 2.45  19 2.45   4 2.45
  29  0.756  0.994  0.365-  20 2.45   5 2.45   6 2.45  24 2.45
  30  0.922  0.828  0.609-   6 2.45  21 2.45  43 2.47
  31  0.256  0.494  0.122-   7 2.45  26 2.45   8 2.45  22 2.45  48 2.57
  32  0.422  0.328  0.365-   8 2.45   9 2.45  23 2.45  27 2.45
  33  0.589  0.161  0.609-  40 2.39  37 2.41   9 2.45  24 2.45  46 2.61
  34  0.922  0.828  0.122-   1 2.45  20 2.45  25 2.45   2 2.45
  35  0.089  0.661  0.365-  21 2.45  26 2.45   2 2.45   3 2.45
  36  0.256  0.494  0.609-   3 2.45  27 2.45  38 2.48
  37  0.306  0.098  0.703-  15 2.39  33 2.41  46 2.45  47 2.45  43 2.45
  38  0.195  0.376  0.784-  47 2.45  48 2.45  44 2.45  36 2.48  22 2.57
  39  0.084  0.654  0.865-  48 2.45  45 2.45  25 2.53   7 2.55
  40  0.806  0.098  0.703-  33 2.39  15 2.41  44 2.45  46 2.45  43 2.45
  41  0.695  0.376  0.784-  44 2.45  47 2.45  45 2.45  18 2.48   4 2.57
  42  0.584  0.654  0.865-  45 2.45  48 2.45   7 2.53  25 2.55
  43  0.000  0.987  0.744-  40 2.45  37 2.45  30 2.47  15 2.61
  44  0.889  0.265  0.825-  41 2.45  40 2.45  38 2.45
  45  0.778  0.542  0.906-  25 1.79  42 2.45  41 2.45  39 2.45  13 2.57   4 2.80
  46  0.500  0.987  0.744-  37 2.45  40 2.45  12 2.47  33 2.61
  47  0.389  0.265  0.825-  37 2.45  38 2.45  41 2.45
  48  0.278  0.542  0.906-   7 1.79  42 2.45  38 2.45  39 2.45  31 2.57  22 2.80

  LATTYP: Found a base centered orthorhombic cell.
 ALAT       =     8.0013380050
 B/A-ratio  =     2.9999998809
 C/A-ratio  =     1.4512252725

  Lattice vectors:

 A1 = (   4.0006690030, -12.0020065310,   0.0000000000)
 A2 = (   4.0006690020,  12.0020065310,   0.0000000000)
 A3 = (   0.0000000000,   0.0000000000,  11.6117439270)

Analysis of symmetry for initial positions (statically):
 Subroutine PRICEL returns following result:

  LATTYP: Found a simple orthorhombic cell.
 ALAT       =     4.0006686824
 B/A-ratio  =     2.9024507773
 C/A-ratio  =     3.0000001209

[...]

   2 primitive cells build up your supercell.

 Routine SETGRP: Setting up the symmetry group for a
 base centered orthorhombic supercell.

 Subroutine GETGRP returns: Found  1 space group operations
 (whereof  1 operations were pure point group operations)
 out of a pool of  8 trial point group operations.

The static configuration has the point symmetry C_1 .

Analysis of symmetry for dynamics (positions and initial velocities):
 Subroutine PRICEL returns following result:

[...]

The dynamic configuration has the point symmetry C_1 .

Analysis of structural, dynamic, and magnetic symmetry:
 Subroutine PRICEL returns following result:

  LATTYP: Found a simple orthorhombic cell.
 ALAT       =     4.0006686824
 B/A-ratio  =     2.9024507773
 C/A-ratio  =     3.0000001209

  Lattice vectors:

 A1 = (  -4.0006686824,   0.0000000000,   0.0000000000)
 A2 = (   0.0000000000,   0.0000000000,  11.6117439270)
 A3 = (  -0.0000003206,  12.0020065310,   0.0000000000)

   2 primitive cells build up your supercell.

 Routine SETGRP: Setting up the symmetry group for a
 base centered orthorhombic supercell.

 Subroutine GETGRP returns: Found  1 space group operations
 (whereof  1 operations were pure point group operations)
 out of a pool of  8 trial point group operations.

The overall configuration has the point symmetry C_1 .

 Subroutine INISYM returns: Found  1 space group operations
 (whereof  1 operations are pure point group operations),
 and found     2 'primitive' translations

                                     Primitive cell

  volume of cell :     557.5501

  direct lattice vectors                    reciprocal lattice vectors
    -4.000668682  0.000000000  0.000000000    -0.249958214 -0.000000007  0.000000000
     0.000000000  0.000000000 11.611743927     0.000000000  0.000000000  0.086119708
    -0.000000321 12.002006531  0.000000000     0.000000000  0.083319401  0.000000000

  length of vectors
     4.000668682 11.611743927 12.002006531     0.249958214  0.086119708  0.083319401

  position of ions in fractional coordinates (direct lattice)
     0.982916512  0.000000000  0.994305491
     0.482916447  0.243624032  0.827638865
     0.982916220  0.487248093  0.660972118
     0.982916535  0.000000000  0.327638805
     0.482916460  0.243624032  0.160972118
     0.982916413  0.487248093  0.994305432
     0.982916460  0.000000000  0.660972118
     0.482916413  0.243624032  0.494305432
     0.982916447  0.487248093  0.327638745
     0.982916460  0.121812016  0.160972148
     0.482916234  0.365436077  0.994305491
     0.982916029  0.609060228  0.827638805
     0.982916492  0.121812016  0.494305491
     0.482916267  0.365436077  0.327638805
     0.982916311  0.609060228  0.160972089
     0.982916565  0.121812016  0.827638865
     0.482916580  0.365436077  0.660972118
     0.982916373  0.609060228  0.494305432
     0.486285818  0.703020036  0.097966693
     0.986285805  0.784228086  0.375744492
     0.486285972  0.865436137  0.653522313
     0.986285925  0.743624091  0.986855507
     0.486285932  0.824832141  0.264633328
     0.986286219  0.906040192  0.542411149

  ion indices of the primitive-cell ions
   primitive index   ion index
                 1           1
                 2           2
                 3          21
                 4          22
                 5           5
                 6           6
                 7          25
                 8          26
                 9          27
                10          10
                11          29
                12          30
                13          31
                14          14
                15          15
                16          34
                17          35
                18          36
                19          40
                20          38
                21          39
                22          43
                23          44
                24          45

 KPOINTS: Automatic KPOINTS generated

Automatic generation of k-mesh.
 Grid dimensions read from file:
 generate k-points for:    4    3    3

 Generating k-lattice:

  Cartesian coordinates                     Fractional coordinates (reciprocal lattice)
     0.031244774  0.010414925  0.000000000     0.250000000 -0.000000000  0.000000000
     0.000000000  0.027773134  0.000000000     0.000000000  0.333333333  0.000000000
     0.000000000  0.000000000  0.028706569     0.000000000  0.000000000  0.333333333

  Length of vectors
     0.032934884  0.027773134  0.028706569

  Shift w.r.t. Gamma in fractional coordinates (k-lattice)
     0.000000000  0.000000000  0.000000000

 WARNING: IBZKPT: internal override: KBLOWUP is changed to .FALSE.
      ... skipping the blow-up phase ...

 Subroutine IBZKPT returns following result:

 Found     19 irreducible k-points:

 Following reciprocal coordinates:
[...]
     42      -2.6375      1.00000
     43      -2.5981      1.00000
     44      -2.1590      1.00000
     45      -1.8988      1.00000
     46      -1.5608      1.00000
     47      -1.5494      1.00000
     48      -1.3640      1.00000
     49      -0.9540      1.00000
     50      -0.8411      1.00000
     51      -0.7522      1.00000
     52      -0.7163      1.00000
     53      -0.4875      1.00000
     54      -0.4424      1.00000
     55      -0.4153      1.00000
     56      -0.2526      1.00000
     57      -0.1688      1.00000
     58      -0.1565      1.00000
     59      -0.0850      1.00000
     60      -0.0411      1.00000
[...]
    102       4.1574      0.00000
    103       4.2739      0.00000
    104       4.3663      0.00000
    105       4.5017      0.00000
    106       4.5102      0.00000
    107       4.7116      0.00000
    108       4.7162      0.00000
    109       4.8252      0.00000
    110       4.9997      0.00000
    111       5.0159      0.00000
    112       5.1491      0.00000
    113       5.1873      0.00000
    114       5.2487      0.00000
    115       5.3339      0.00000
    116       5.4090      0.00000
 Fermi energy:         3.4718801644

 spin component 2

[...]

 k-point    19 :      -0.2500   -0.3333    0.3333
  band No.  band energies     occupation
      1     -11.0810      1.00000
      2     -10.5036      1.00000
      3      -9.6437      1.00000
      4      -8.6772      1.00000
      5      -8.6175      1.00000
      6      -8.5535      1.00000
      7      -8.1145      1.00000
      8      -7.7673      1.00000
      9      -7.6262      1.00000
     10      -7.4184      1.00000
     11      -7.2560      1.00000
     12      -7.1945      1.00000
     13      -7.1410      1.00000
     14      -7.0119      1.00000
     15      -6.9240      1.00000
     16      -6.7398      1.00000
     17      -6.5629      1.00000
     18      -6.2600      1.00000
     19      -6.1224      1.00000
     20      -6.1140      1.00000
     21      -5.9997      1.00000
     22      -5.8929      1.00000
     23      -5.6083      1.00000
     24      -5.4417      1.00000
     25      -5.3384      1.00000
     26      -5.0973      1.00000
     27      -4.9003      1.00000
     28      -4.6578      1.00000
     29      -4.4675      1.00000
     30      -4.4491      1.00000
     31      -4.0750      1.00000
     32      -4.0706      1.00000
     33      -3.8969      1.00000
     34      -3.7793      1.00000
     35      -3.7371      1.00000
     36      -3.6216      1.00000
     37      -3.5261      1.00000
     38      -3.2576      1.00000
     39      -3.2462      1.00000
     40      -3.0327      1.00000
     41      -2.8972      1.00000
     42      -2.6223      1.00000
     43      -2.5824      1.00000
     44      -2.1372      1.00000
     45      -1.8824      1.00000
     46      -1.5369      1.00000
     47      -1.5319      1.00000
     48      -1.3463      1.00000
     49      -0.9286      1.00000
     50      -0.8208      1.00000
     51      -0.7313      1.00000
     52      -0.6977      1.00000
     53      -0.4712      1.00000
     54      -0.4254      1.00000
     55      -0.3968      1.00000
     56      -0.2384      1.00000
     57      -0.1487      1.00000
     58      -0.1416      1.00000
     59      -0.0688      1.00000
     60      -0.0174      1.00000
[...]
    102       4.1755      0.00000
    103       4.3045      0.00000
    104       4.3903      0.00000
    105       4.5320      0.00000
    106       4.5398      0.00000
    107       4.7323      0.00000
    108       4.7576      0.00000
    109       4.8566      0.00000
    110       5.0157      0.00000
    111       5.0348      0.00000
    112       5.1670      0.00000
    113       5.2135      0.00000
    114       5.2653      0.00000
    115       5.3640      0.00000
    116       5.4300      0.00000

 soft charge-density along one line, spin component           1
         0         1         2         3         4         5         6         7         8         9
 total charge-density along one line

 soft charge-density along one line, spin component           2
         0         1         2         3         4         5         6         7         8         9
 total charge-density along one line

------------------------ aborting loop because EDIFF is reached ----------------------------------------

  FORCE on cell =-STRESS in cart. coord.  units (eV):
  Direction    XX          YY          ZZ          XY          YZ          ZX
  Alpha Z   394.91413   394.91413   394.91413
  Ewald   -1675.95050 -1580.66989 -1676.97077    -0.02843   247.29140     0.42556
  Hartree   289.96921   146.56803   173.09538    -0.00689   138.91610    -0.00327
  E(xc)    -662.07341  -666.43066  -662.83899    -0.00367    -1.36359    -0.00973
  Local    -784.45836  -704.59441  -644.85191     0.16733  -368.86941    -0.07671
  n-local   947.08398   988.79539   959.58811    -0.02567    14.44367     0.05648
  augment    60.16839    61.82872    61.67181     0.02085     1.78492     0.03131
  Kinetic  1472.56631  1461.42797  1476.67852     0.21398    -8.79963     0.02112
  Fock        0.00000     0.00000     0.00000     0.00000     0.00000     0.00000
  Total      42.21974   101.83928    81.28628     0.33749    23.40346     0.44476
  in kB      60.66136   146.32280   116.79222     0.48490    33.62612     0.63904

 VOLUME and BASIS-vectors are now :
  energy-cutoff  :      700.00
  volume of cell :     1115.10
      direct lattice vectors                 reciprocal lattice vectors
     8.001338005  0.000000000  0.000000000     0.124979097  0.041659701  0.000000000
    -4.000669003 12.002006531  0.000000000     0.000000000  0.083319401  0.000000000
     0.000000000  0.000000000 11.611743927     0.000000000  0.000000000  0.086119708

  length of vectors
     8.001338005 12.651225760 11.611743927     0.131739536  0.083319401  0.086119708

 FORCES acting on ions
    electron-ion (+dipol)            ewald-force                    non-local-force                 convergence-correction
   0.157E-03 0.144E+02 0.267E+02   0.176E-01 -.143E+02 -.283E+02   -.548E-02 -.228E+00 0.262E+00   -.674E-05 -.112E-03 0.154E-03
   0.121E-01 -.377E+01 0.639E+01   0.500E-03 0.366E+01 -.623E+01   0.712E-02 -.322E-01 -.901E-01   0.323E-05 -.802E-04 -.425E-04
   -.778E-02 -.571E+01 -.226E+02   0.144E-03 0.551E+01 0.226E+02   0.111E-01 0.260E-01 0.125E+00   -.215E-05 -.122E-03 0.605E-04
   0.971E-02 0.237E+02 -.115E+02   -.157E-01 -.252E+02 0.111E+02   0.250E-01 0.641E-01 0.606E+00   -.446E-05 0.596E-04 0.863E-04
   -.313E-03 0.773E+01 0.101E+02   0.126E-02 -.779E+01 -.100E+02   0.151E-01 0.455E-01 -.119E+00   0.940E-06 0.326E-04 -.106E-03
   0.483E-02 0.196E+02 0.110E+02   -.128E-01 -.202E+02 -.110E+02   0.133E-01 0.852E-01 -.704E+00   0.323E-05 -.247E-03 -.289E-03
   0.757E-01 -.664E+02 -.921E+01   0.275E-02 0.745E+02 0.147E+02   0.618E-01 0.857E+01 0.730E+01   -.112E-05 0.162E-04 0.118E-04
   0.112E-02 -.380E+01 -.840E+01   -.571E-02 0.382E+01 0.916E+01   0.200E-01 0.489E-01 -.582E+00   -.307E-05 0.372E-04 0.302E-04
   0.644E-02 -.115E+02 0.254E+01   -.277E-05 0.123E+02 -.232E+01   0.814E-02 -.239E+00 -.429E+00   -.154E-05 0.362E-03 -.129E-03
   0.642E-02 0.155E+02 0.117E+02   -.920E-02 -.155E+02 -.117E+02   -.685E-02 -.217E+00 0.202E+00   -.160E-05 0.195E-04 0.953E-05
   0.148E-02 0.101E+02 0.755E+01   0.236E-02 -.974E+01 -.746E+01   -.838E-02 -.243E+00 -.211E+00   -.759E-06 -.110E-03 -.229E-03
   -.288E-01 0.354E+02 -.325E+02   0.745E-01 -.355E+02 0.333E+02   -.368E-01 -.224E+00 -.341E+00   0.324E-05 -.363E-03 -.230E-04
   -.594E-01 0.994E+00 -.211E+02   0.728E-01 -.186E+01 0.227E+02   -.597E-02 0.165E+00 0.717E-01   -.107E-06 0.178E-04 0.726E-04
   -.127E-03 -.474E+01 -.647E+00   0.580E-03 0.415E+01 0.717E+00   -.593E-02 0.361E+00 -.162E+00   0.172E-05 0.174E-03 -.122E-03
   0.480E+00 -.153E+02 0.993E+01   -.506E+00 0.160E+02 -.103E+02   -.832E-01 0.102E+01 -.129E+01   0.755E-05 0.215E-03 -.199E-03
   -.399E-02 -.120E+02 0.185E+02   -.671E-02 0.133E+02 -.183E+02   -.691E-02 -.942E+00 -.162E+00   -.108E-06 -.288E-04 -.151E-04
   0.786E-02 -.493E+01 -.135E+02   -.386E-03 0.525E+01 0.133E+02   -.110E-01 -.212E+00 0.134E+00   0.532E-05 -.629E-04 0.299E-04
   -.943E-01 -.337E+02 -.539E+01   0.906E-01 0.335E+02 0.596E+01   -.362E-02 0.350E+00 -.705E+00   0.136E-04 0.188E-03 -.319E-04
   0.150E-03 0.144E+02 0.267E+02   0.176E-01 -.143E+02 -.283E+02   -.548E-02 -.228E+00 0.262E+00   -.704E-05 -.113E-03 0.152E-03
   0.121E-01 -.377E+01 0.639E+01   0.533E-03 0.366E+01 -.623E+01   0.712E-02 -.322E-01 -.901E-01   -.562E-06 -.817E-04 -.414E-04
   -.779E-02 -.571E+01 -.226E+02   0.161E-03 0.551E+01 0.226E+02   0.111E-01 0.260E-01 0.125E+00   -.646E-05 -.125E-03 0.587E-04
   0.976E-02 0.237E+02 -.115E+02   -.158E-01 -.252E+02 0.111E+02   0.250E-01 0.641E-01 0.606E+00   -.419E-05 0.618E-04 0.869E-04
   -.266E-03 0.773E+01 0.101E+02   0.121E-02 -.779E+01 -.100E+02   0.151E-01 0.455E-01 -.119E+00   0.230E-05 0.350E-04 -.106E-03
   0.488E-02 0.196E+02 0.110E+02   -.128E-01 -.202E+02 -.110E+02   0.133E-01 0.852E-01 -.704E+00   0.399E-05 -.249E-03 -.285E-03
   0.756E-01 -.664E+02 -.921E+01   0.283E-02 0.745E+02 0.147E+02   0.618E-01 0.857E+01 0.730E+01   -.107E-05 0.153E-04 0.117E-04
   0.113E-02 -.380E+01 -.840E+01   -.572E-02 0.382E+01 0.916E+01   0.200E-01 0.489E-01 -.582E+00   -.395E-06 0.371E-04 0.282E-04
   0.641E-02 -.115E+02 0.254E+01   0.324E-04 0.123E+02 -.232E+01   0.814E-02 -.239E+00 -.429E+00   0.254E-05 0.363E-03 -.129E-03
   0.641E-02 0.155E+02 0.117E+02   -.918E-02 -.155E+02 -.117E+02   -.685E-02 -.217E+00 0.202E+00   -.381E-05 0.171E-04 0.762E-05
   0.145E-02 0.101E+02 0.755E+01   0.239E-02 -.974E+01 -.746E+01   -.838E-02 -.243E+00 -.211E+00   -.331E-05 -.112E-03 -.230E-03
   -.288E-01 0.354E+02 -.325E+02   0.745E-01 -.355E+02 0.333E+02   -.368E-01 -.224E+00 -.341E+00   0.267E-05 -.364E-03 -.245E-04
   -.594E-01 0.994E+00 -.211E+02   0.727E-01 -.186E+01 0.227E+02   -.597E-02 0.165E+00 0.717E-01   0.335E-05 0.192E-04 0.727E-04
   -.976E-04 -.474E+01 -.647E+00   0.549E-03 0.415E+01 0.717E+00   -.593E-02 0.361E+00 -.162E+00   0.249E-05 0.175E-03 -.123E-03
   0.480E+00 -.153E+02 0.993E+01   -.506E+00 0.160E+02 -.103E+02   -.832E-01 0.102E+01 -.129E+01   0.620E-05 0.212E-03 -.197E-03
   -.399E-02 -.120E+02 0.185E+02   -.671E-02 0.133E+02 -.183E+02   -.691E-02 -.942E+00 -.162E+00   -.250E-05 -.305E-04 -.133E-04
   0.786E-02 -.493E+01 -.135E+02   -.395E-03 0.525E+01 0.133E+02   -.110E-01 -.212E+00 0.134E+00   0.937E-05 -.621E-04 0.310E-04
   -.943E-01 -.337E+02 -.539E+01   0.906E-01 0.335E+02 0.596E+01   -.362E-02 0.350E+00 -.705E+00   0.147E-04 0.190E-03 -.320E-04
   -.625E+00 0.266E+02 -.237E+02   0.652E+00 -.268E+02 0.239E+02   0.101E+00 0.236E+00 0.596E+00   0.602E-06 0.305E-04 0.213E-03
   0.242E+00 -.124E+02 0.215E+02   -.241E+00 0.118E+02 -.227E+02   -.227E-01 0.855E+00 0.140E+00   0.397E-05 0.304E-03 0.507E-04
   -.411E+00 -.530E+02 0.495E+02   0.460E+00 0.557E+02 -.528E+02   0.111E-01 -.916E+00 0.127E+01   0.378E-05 0.208E-04 -.967E-04
   -.625E+00 0.266E+02 -.237E+02   0.652E+00 -.268E+02 0.239E+02   0.101E+00 0.236E+00 0.596E+00   -.728E-05 0.307E-04 0.213E-03
   0.242E+00 -.124E+02 0.215E+02   -.241E+00 0.118E+02 -.227E+02   -.227E-01 0.855E+00 0.140E+00   0.427E-05 0.302E-03 0.507E-04
   -.411E+00 -.530E+02 0.495E+02   0.460E+00 0.557E+02 -.528E+02   0.111E-01 -.916E+00 0.127E+01   -.204E-06 0.208E-04 -.966E-04
   0.285E+00 0.537E+02 -.521E+02   -.272E+00 -.544E+02 0.530E+02   -.559E-01 -.135E+01 0.164E+01   -.213E-05 -.412E-03 0.245E-03
   -.242E+00 0.166E+02 -.203E+02   0.248E+00 -.170E+02 0.200E+02   0.403E-02 0.669E+00 0.144E+01   -.208E-05 0.268E-03 0.225E-03
   0.471E+00 0.382E+01 0.424E+02   -.553E+00 -.112E+02 -.494E+02   -.114E+00 -.891E+01 -.571E+01   -.612E-06 0.479E-04 -.478E-04
   0.285E+00 0.537E+02 -.521E+02   -.272E+00 -.544E+02 0.530E+02   -.559E-01 -.135E+01 0.164E+01   -.326E-05 -.414E-03 0.244E-03
   -.242E+00 0.166E+02 -.203E+02   0.248E+00 -.170E+02 0.200E+02   0.403E-02 0.669E+00 0.144E+01   0.960E-07 0.267E-03 0.224E-03
   0.472E+00 0.382E+01 0.424E+02   -.553E+00 -.112E+02 -.494E+02   -.114E+00 -.891E+01 -.571E+01   -.134E-05 0.490E-04 -.474E-04
   0.263E+00 0.210E+01 -.658E+01   0.333E-15 -.409E-13 0.284E-13   -.177E+00 -.203E+01 0.656E+01   0.312E-04 0.498E-03 -.286E-03

 POSITION                                       TOTAL-FORCE (eV/Angst)
     -3.93232     11.93366      0.00000         0.010492     -0.099626     -1.325536
     -1.93199      9.93333      2.82890         0.017929     -0.136963      0.074436
      0.06835      7.93299      5.65780         0.001669     -0.179251      0.129474
      4.06901      3.93232      0.00000         0.017150     -1.406421      0.176278
      6.06935      1.93199      2.82890         0.014281     -0.019941     -0.063717
     -3.93232     11.93366      5.65780         0.003541     -0.469753     -0.704417
      0.06835      7.93299      0.00000         0.138462     16.712979     12.804814
      2.06868      5.93266      2.82890         0.013602      0.075659      0.175065
      4.06902      3.93232      5.65780         0.012781      0.506851     -0.206699
      0.06835      1.93199      1.41445        -0.011424     -0.262837      0.236011
     -1.93199     11.93366      4.24335        -0.006337      0.149622     -0.122252
      0.06835      9.93333      7.07225         0.007064     -0.316321      0.394466
      4.06901      5.93266      1.41445         0.005591     -0.701550      1.604157
      6.06935      3.93232      4.24335        -0.007275     -0.234692     -0.091892
      0.06835      1.93199      7.07225        -0.111190      1.754736     -1.689063
      0.06834      9.93333      1.41445        -0.019408      0.352388      0.100104
      2.06868      7.93299      4.24335        -0.005356      0.100947     -0.011030
      4.06901      5.93266      7.07225        -0.009029      0.195352     -0.133594
      0.06835     11.93366      0.00000         0.010492     -0.099626     -1.325536
      2.06868      9.93333      2.82890         0.017929     -0.136963      0.074436
      4.06902      7.93299      5.65780         0.001669     -0.179251      0.129474
      0.06835      3.93232      0.00000         0.017150     -1.406421      0.176278
      2.06868      1.93199      2.82890         0.014281     -0.019941     -0.063717
      0.06835     11.93366      5.65780         0.003541     -0.469753     -0.704417
      4.06901      7.93299      0.00000         0.138462     16.712979     12.804814
     -1.93199      5.93266      2.82890         0.013602      0.075659      0.175065
      0.06835      3.93232      5.65780         0.012781      0.506851     -0.206699
      4.06901      1.93199      1.41445        -0.011424     -0.262837      0.236011
      2.06868     11.93366      4.24335        -0.006337      0.149622     -0.122252
      4.06902      9.93333      7.07225         0.007064     -0.316321      0.394466
      0.06835      5.93266      1.41445         0.005591     -0.701550      1.604157
      2.06868      3.93232      4.24335        -0.007275     -0.234692     -0.091892
      4.06902      1.93199      7.07225        -0.111190      1.754736     -1.689063
      4.06901      9.93333      1.41445        -0.019408      0.352388      0.100104
     -1.93199      7.93299      4.24335        -0.005356      0.100947     -0.011030
      0.06835      5.93266      7.07225        -0.009029      0.195352     -0.133594
      2.05520      1.17580      8.16329         0.126219      0.096936      0.738267
      0.05487      4.50969      9.10626        -0.023553      0.254352     -1.088812
     -1.94547      7.84358     10.04922         0.058763      1.737348     -2.048916
      6.05587      1.17580      8.16329         0.126219      0.096936      0.738267
      4.05553      4.50969      9.10626        -0.023553      0.254352     -1.088812
      2.05520      7.84358     10.04922         0.058763      1.737348     -2.048916
     -3.94580     11.84425      8.63477        -0.044586     -2.099104      2.580759
      6.05587      3.17613      9.57774         0.008014      0.260383      1.181874
      4.05553      6.51002     10.52071        -0.197399    -16.271094    -12.709777
      0.05487     11.84425      8.63477        -0.044586     -2.099104      2.580759
      2.05520      3.17613      9.57774         0.008014      0.260383      1.181874
      0.05487      6.51002     10.52071        -0.197399    -16.271094    -12.709777
    total drift:                                0.086269      0.068030     -0.025064

  FREE ENERGIE OF THE ION-ELECTRON SYSTEM (eV)
  free  energy   TOTEN  =      -186.50713499 eV

  energy  without entropy=     -186.50583191  energy(sigma->0) =     -186.50648345