 vasp.6.4.3 19Mar24 (build Oct 22 2024 11:23:12) complex

 executed on             LinuxIFC date 2025.06.09  05:03:20

 INCAR:
   SYSTEM = Si and Ge interface calculation
   ISTART = 0
   ICHARG = 2
   LWAVE = .FALSE.
   LREAL = AUTO
   ENCUT = 700
   ENAUG = 900
   ADDGRID = .TRUE.
   LMAXMIX = 6
   LASPH = .TRUE.
   LMIXTAU = .TRUE.
   NCORE = 16
   NELM = 100
   NBANDS = 404
   EDIFF = 1d-7
   AMIX = 0.6
   ISMEAR = 0
   SIGMA = 0.01
   NELECT = 672
   ISPIN = 2
   NUPDOWN = 1
   LVTOT = .FALSE.
   LVHAR = .TRUE.

 POTCAR:    PAW_PBE Sn 08Apr2002
 POTCAR:    PAW_PBE Ge 05Jan2001
|           W    W    AA    RRRRR   N    N  II  N    N   GGGG   !!!           |
|           W    W   A  A   R    R  NN   N  II  NN   N  G    G  !!!           |
|           W    W  A    A  R    R  N N  N  II  N N  N  G       !!!           |
|           W WW W  AAAAAA  RRRRR   N  N N  II  N  N N  G  GGG   !            |
|           WW  WW  A    A  R   R   N   NN  II  N   NN  G    G                |
|           W    W  A    A  R    R  N    N  II  N    N   GGGG   !!!           |
|     You use a magnetic or noncollinear calculation, but did not specify     |
|     the initial magnetic moment with the MAGMOM tag. Note that a            |
|     default of 5.952e-3 will be used for all atoms. This ferromagnetic      |
|     setup may break the symmetry of the crystal, in particular it may       |
|     rule out finding an antiferromagnetic solution. Thence, we              |
|     recommend setting the initial magnetic moment manually or verifying     |
|     carefully that this magnetic setup is desired.                          |

 POTCAR:    PAW_PBE Sn 08Apr2002
   VRHFIN =Sn: s2p2

   TITEL  = PAW_PBE Sn 08Apr2002
   POMASS =  118.710; ZVAL   =    4.000    mass and valenz
   ENMAX  =  103.236; ENMIN  =   77.427 eV

 POTCAR:    PAW_PBE Ge 05Jan2001
   VRHFIN =Ge: s2p2

   TITEL  = PAW_PBE Ge 05Jan2001
   POMASS =   72.610; ZVAL   =    4.000    mass and valenz
   ENMAX  =  173.807; ENMIN  =  130.355 eV

 Optimization of the real space projectors (new method)

 maximal supplied QI-value         = 12.47
 optimisation between [QCUT,QGAM] = [ 12.47, 27.06] = [ 43.56,205.12] Ry
 Optimized for a Real-space Cutoff    1.58 Angstroem

   l    n(q)    QCUT    max X(q) W(low)/X(q) W(high)/X(q)  e(spline)
   0     13    12.472    14.688    0.45E-04    0.45E-04    0.25E-05
   0     13    12.472     7.308    0.94E-04    0.11E-03    0.61E-05
   1     12    12.472    45.102    0.34E-03    0.14E-03    0.21E-05
   1     12    12.472    30.691    0.31E-03    0.13E-03    0.20E-05
   2     12    12.472     7.156    0.86E-04    0.11E-03    0.17E-05
 WARNING: PSMAXN for non-local potential too small
          PSMAXN should be >   13.5545592237991       NTYP=           1
 Optimization of the real space projectors (new method)

 maximal supplied QI-value         = 16.25
 optimisation between [QCUT,QGAM] = [ 13.49, 26.98] = [ 50.95,203.80] Ry
 Optimized for a Real-space Cutoff    1.25 Angstroem

   l    n(q)    QCUT    max X(q) W(low)/X(q) W(high)/X(q)  e(spline)
   0     10    13.489    65.336    0.91E-04    0.11E-03    0.34E-06
   0     10    13.489    52.220    0.89E-04    0.11E-03    0.34E-06
   1     10    13.489    36.409    0.22E-03    0.27E-03    0.14E-06
   1     10    13.489    21.334    0.21E-03    0.27E-03    0.14E-06
   2      9    13.489     4.673    0.11E-03    0.12E-03    0.19E-06
  PAW_PBE Sn 08Apr2002                  :
  PAW_PBE Ge 05Jan2001                  :

 POSCAR: Sn+Ge
  positions in direct lattice

 exchange-correlation table for PE
   RHO(1)=    0.500       N(1)  =     2000
   RHO(2)=  100.500       N(2)  =     4000

 ion  position               nearest neighbor table
   1  0.000  0.012  0.000- 162 2.59  34 2.81  46 2.81  64 2.81
   2  0.000  0.346  0.185-  35 2.81  47 2.81  65 2.81  10 2.81
   3  0.000  0.679  0.369-  48 2.81  36 2.81  66 2.81  11 2.81  79 3.20
   4  0.333  0.679  0.000- 135 2.65  67 2.81  28 2.81  49 2.81 153 3.32
   5  0.333  0.012  0.185-  68 2.81  29 2.81  13 2.81  50 2.81
   6  0.333  0.346  0.369-  69 2.81  14 2.81  51 2.81  30 2.81
   7  0.667  0.346  0.000- 117 2.63  70 2.81  31 2.81  52 2.81
   8  0.667  0.679  0.185-  71 2.81  16 2.81  32 2.81  53 2.81
   9  0.667  0.012  0.369-  17 2.81  72 2.81  33 2.81  54 2.81
  10  0.000  0.346  0.046-  61 2.81  37 2.81  19 2.81   2 2.81
  11  0.000  0.679  0.231-  62 2.81  20 2.81   3 2.81  38 2.81
  12  0.000  0.012  0.415- 151 2.59  63 2.81  21 2.81  39 2.81
  13  0.333  0.012  0.046-  22 2.81  55 2.81  40 2.81   5 2.81
  14  0.333  0.346  0.231-  23 2.81   6 2.81  41 2.81  56 2.81
  15  0.333  0.679  0.415- 127 2.65  42 2.81  24 2.81  57 2.81
  16  0.667  0.679  0.046-  43 2.81   8 2.81  25 2.81  58 2.81
  17  0.667  0.012  0.231-   9 2.81  44 2.81  26 2.81  59 2.81
  18  0.667  0.346  0.415- 100 2.63  27 2.81  60 2.81  45 2.81 160 3.32
  19  0.167  0.346  0.000- 111 2.63  49 2.81  10 2.81  64 2.81
  20  0.167  0.679  0.185-  50 2.81  11 2.81  28 2.81  65 2.81
  21  0.167  0.012  0.369-  12 2.81  51 2.81  29 2.81  66 2.81
  22  0.500  0.012  0.000- 168 2.59  13 2.81  52 2.81  67 2.81
  23  0.500  0.346  0.185-  14 2.81  68 2.81  53 2.81  31 2.81
  24  0.500  0.679  0.369-  15 2.81  54 2.81  32 2.81  69 2.81  73 3.20
  25  0.833  0.679  0.000- 141 2.65  46 2.81  70 2.81  16 2.81 147 3.32
  26  0.833  0.012  0.185-  47 2.81  17 2.81  34 2.81  71 2.81
  27  0.833  0.346  0.369-  18 2.81  48 2.81  72 2.81  35 2.81
  28  0.167  0.679  0.046-  55 2.81   4 2.81  37 2.81  20 2.81
  29  0.167  0.012  0.231-  56 2.81   5 2.81  38 2.81  21 2.81
  30  0.167  0.346  0.415- 106 2.63  57 2.81   6 2.81  39 2.81 166 3.32
  31  0.500  0.346  0.046-  58 2.81   7 2.81  40 2.81  23 2.81
  32  0.500  0.679  0.231-  41 2.81   8 2.81  59 2.81  24 2.81
  33  0.500  0.012  0.415- 145 2.59  60 2.81  42 2.81   9 2.81
  34  0.833  0.012  0.046-   1 2.81  43 2.81  61 2.81  26 2.81
  35  0.833  0.346  0.231-   2 2.81  44 2.81  62 2.81  27 2.81
  36  0.833  0.679  0.415- 121 2.65   3 2.81  45 2.81  63 2.81
  37  0.000  0.512  0.000- 159 2.59  70 2.81  10 2.81  28 2.81
  38  0.000  0.846  0.185-  71 2.81  46 2.81  29 2.81  11 2.81
  39  0.000  0.179  0.369-  72 2.81  12 2.81  30 2.81  47 2.81  82 3.20
  40  0.333  0.179  0.000- 138 2.65  64 2.81  13 2.81  31 2.81 156 3.32
  41  0.333  0.512  0.185-  65 2.81  32 2.81  14 2.81  49 2.81
  42  0.333  0.846  0.369-  15 2.81  66 2.81  33 2.81  50 2.81
  43  0.667  0.846  0.000- 120 2.63  34 2.81  16 2.81  67 2.81
  44  0.667  0.179  0.185-  35 2.81  17 2.81  52 2.81  68 2.81
  45  0.667  0.512  0.369-  36 2.81  69 2.81  53 2.81  18 2.81
  46  0.000  0.846  0.046-   1 2.81  25 2.81  55 2.81  38 2.81
  47  0.000  0.179  0.231-   2 2.81  26 2.81  56 2.81  39 2.81
  48  0.000  0.512  0.415- 154 2.59   3 2.81  27 2.81  57 2.81
  49  0.333  0.512  0.046-  58 2.81  19 2.81   4 2.81  41 2.81
  50  0.333  0.846  0.231-  59 2.81  20 2.81   5 2.81  42 2.81
  51  0.333  0.179  0.415- 130 2.65   6 2.81  21 2.81  60 2.81
  52  0.667  0.179  0.046-  61 2.81  22 2.81  44 2.81   7 2.81
  53  0.667  0.512  0.231-  62 2.81  23 2.81   8 2.81  45 2.81
  54  0.667  0.846  0.415-  97 2.63  63 2.81  24 2.81   9 2.81 157 3.32
  55  0.167  0.846  0.000- 114 2.63  28 2.81  13 2.81  46 2.81
  56  0.167  0.179  0.185-  29 2.81  64 2.81  14 2.81  47 2.81
  57  0.167  0.512  0.369-  30 2.81  65 2.81  15 2.81  48 2.81
  58  0.500  0.512  0.000- 165 2.59  49 2.81  31 2.81  16 2.81
  59  0.500  0.846  0.185-  50 2.81  67 2.81  32 2.81  17 2.81
  60  0.500  0.179  0.369-  68 2.81  33 2.81  18 2.81  51 2.81  76 3.20
[...]
 154  0.998  0.433  0.527- 112 2.44  94 2.44 136 2.44  48 2.59
 155  0.665  0.266  0.687-  95 2.44 113 2.44 137 2.44 160 2.45
 156  0.332  0.099  0.848- 138 2.44 114 2.44  96 2.44 161 2.45  40 3.32
 157  0.665  0.766  0.567- 121 2.44  97 2.44  73 2.44 152 2.45  54 3.32
 158  0.332  0.599  0.728- 122 2.44  98 2.44  74 2.44 153 2.45
 159  0.998  0.433  0.889-  99 2.44 123 2.44  75 2.44  37 2.59
 160  0.665  0.266  0.567- 124 2.44 100 2.44  76 2.44 155 2.45  18 3.32
 161  0.332  0.099  0.728- 101 2.44 125 2.44  77 2.44 156 2.45
 162  0.998  0.933  0.889- 126 2.44 102 2.44  78 2.44   1 2.59
 163  0.165  0.766  0.567- 127 2.44 103 2.44  79 2.44 146 2.45  66 3.32
 164  0.832  0.599  0.728- 128 2.44 104 2.44  80 2.44 147 2.45
 165  0.498  0.433  0.889- 129 2.44 105 2.44  81 2.44  58 2.59
 166  0.165  0.266  0.567- 130 2.44 106 2.44  82 2.44 149 2.45  30 3.32
 167  0.832  0.099  0.728- 107 2.44 131 2.44  83 2.44 150 2.45
 168  0.498  0.933  0.889- 132 2.44 108 2.44  84 2.44  22 2.59

  LATTYP: Found a hexagonal cell.
 ALAT       =    15.8952283860
 C/A-ratio  =     1.2773651248

  Lattice vectors:

 A1 = (  15.8952283860,   0.0000000000,   0.0000000000)
 A2 = (  -7.9476151470,  13.7656726840,   0.0000000000)
 A3 = (   0.0000000000,   0.0000000000,  20.3040103910)

Analysis of symmetry for initial positions (statically):
 Subroutine PRICEL returns following result:

[...]

   4 primitive cells build up your supercell.

 Routine SETGRP: Setting up the symmetry group for a
 hexagonal supercell.

 Subroutine GETGRP returns: Found  1 space group operations
 (whereof  1 operations were pure point group operations)
 out of a pool of 24 trial point group operations.

The static configuration has the point symmetry C_1 .

Analysis of symmetry for dynamics (positions and initial velocities):
 Subroutine PRICEL returns following result:

[...]

The dynamic configuration has the point symmetry C_1 .

Analysis of structural, dynamic, and magnetic symmetry:
 Subroutine PRICEL returns following result:

  LATTYP: Found a hexagonal cell.
 ALAT       =     7.9476141056
 C/A-ratio  =     2.5547302777

  Lattice vectors:

 A1 = (   7.9476141056,   0.0000001514,   0.0000000609)
 A2 = (  -3.9738078676,   6.8828368513,   0.0000000000)
 A3 = (   0.0000000000,   0.0000000000,  20.3040103910)

   4 primitive cells build up your supercell.

 Routine SETGRP: Setting up the symmetry group for a
 hexagonal supercell.

 Subroutine GETGRP returns: Found  1 space group operations
 (whereof  1 operations were pure point group operations)
 out of a pool of 24 trial point group operations.

The overall configuration has the point symmetry C_1 .

 Subroutine INISYM returns: Found  1 space group operations
 (whereof  1 operations are pure point group operations),
 and found     4 'primitive' translations

                                     Primitive cell

  volume of cell :    1110.6727

  direct lattice vectors                    reciprocal lattice vectors
     7.947614106  0.000000151  0.000000061     0.125823923  0.072644479  0.000000000
    -3.973807868  6.882836851  0.000000000    -0.000000003  0.145288928  0.000000000
     0.000000000  0.000000000 20.304010391    -0.000000000 -0.000000000  0.049251354

  length of vectors
     7.947614106  7.947615497 20.304010391     0.145288954  0.145288928  0.049251354

  position of ions in fractional coordinates (direct lattice)
     0.000000000  0.024818344  0.000000020
     0.000000000  0.691485041  0.184522256
     0.000000000  0.358151885  0.369044572
     0.666666746  0.358151671  0.000000025
     0.666666866  0.024818619  0.184522251
[...]
     0.000000000  0.000000000 20.304010391     0.000000000  0.000000000  0.049251354

  length of vectors
    15.895228386 15.895229818 20.304010391     0.072644477  0.072644470  0.049251354

 FORCES acting on ions
    electron-ion (+dipol)            ewald-force                    non-local-force                 convergence-correction
   0.307E+01 -.377E+01 -.990E+02   -.309E+01 0.367E+01 0.993E+02   -.159E+00 0.198E+00 0.391E+00   0.911E-05 -.232E-04 0.993E-04
   0.246E-01 0.757E-01 -.120E+02   0.197E-02 -.495E-02 0.116E+02   0.513E-01 -.173E+00 0.528E+00   0.129E-05 -.153E-05 -.182E-04
   -.119E+00 0.106E+00 0.826E+02   0.846E-01 -.782E-01 -.835E+02   0.499E-01 -.381E-01 0.156E+01   -.282E-05 0.658E-05 0.177E-03
   -.409E+01 -.786E+00 -.979E+02   0.412E+01 0.865E+00 0.983E+02   0.793E-01 0.442E-01 -.438E-01   -.263E-04 0.375E-05 0.930E-04
   -.422E-01 -.137E-01 -.120E+02   0.401E-02 0.441E-02 0.116E+02   0.878E-01 0.128E+00 0.523E+00   0.957E-05 0.108E-04 -.120E-04
   0.954E-01 -.481E-01 0.807E+02   -.512E-01 0.501E-01 -.807E+02   -.341E-01 0.178E-01 -.642E+00   0.912E-05 0.611E-05 0.111E-03
   0.112E+01 0.443E+01 -.981E+02   -.110E+01 -.446E+01 0.984E+02   -.377E-01 -.115E+00 0.108E+00   0.141E-04 0.167E-04 0.837E-04
   0.209E-01 -.627E-01 -.120E+02   -.595E-02 0.527E-03 0.116E+02   -.141E+00 0.464E-01 0.526E+00   -.136E-04 -.370E-05 -.122E-04
   0.669E-01 -.664E-01 0.813E+02   -.264E-01 0.215E-01 -.813E+02   -.482E-01 0.291E-01 -.699E+00   -.641E-05 -.924E-05 0.100E-03
   -.686E+00 0.154E+01 -.814E+02   0.222E+00 -.740E+00 0.817E+02   0.388E+00 -.656E+00 -.438E-01   -.111E-04 0.123E-04 0.375E-04
   0.345E-01 -.324E-01 0.112E+02   0.591E-03 -.488E-03 -.116E+02   -.363E-01 0.333E-01 -.540E-01   0.139E-05 -.414E-06 0.148E-04
   0.196E+01 -.517E+01 0.989E+02   -.150E+01 0.464E+01 -.992E+02   -.209E+00 0.260E+00 -.423E+00   -.160E-04 0.223E-04 0.103E-03
   -.112E+01 -.151E+01 -.814E+02   0.619E+00 0.610E+00 0.818E+02   0.443E+00 0.748E+00 -.110E+00   0.295E-05 -.386E-05 0.378E-04
   0.894E-02 0.103E-01 0.122E+02   -.374E-03 0.334E-03 -.116E+02   -.164E-01 -.103E-01 -.642E+00   0.573E-05 0.294E-05 0.126E-04
   -.494E+01 0.108E+01 0.977E+02   0.421E+01 -.123E+01 -.981E+02   0.221E+00 0.551E-01 0.101E-01   0.578E-04 0.510E-05 0.111E-03
   0.188E+01 -.130E+00 -.815E+02   -.845E+00 0.133E+00 0.819E+02   -.894E+00 -.140E-01 -.155E+00   0.821E-05 -.496E-05 0.381E-04
   -.128E-01 -.126E-01 0.123E+02   -.232E-03 0.144E-03 -.116E+02   0.877E-02 0.212E-01 -.713E+00   -.741E-05 -.295E-05 0.905E-05
   0.304E+01 0.405E+01 0.982E+02   -.278E+01 -.334E+01 -.987E+02   -.918E-01 -.249E+00 -.697E-01   -.389E-04 -.476E-04 0.110E-03
   0.112E+01 0.443E+01 -.981E+02   -.110E+01 -.446E+01 0.984E+02   -.377E-01 -.115E+00 0.108E+00   0.181E-04 0.254E-04 0.966E-04
   0.208E-01 -.627E-01 -.120E+02   -.590E-02 0.520E-03 0.116E+02   -.141E+00 0.464E-01 0.526E+00   -.975E-05 0.160E-05 -.114E-04
   0.668E-01 -.664E-01 0.813E+02   -.263E-01 0.215E-01 -.813E+02   -.482E-01 0.291E-01 -.699E+00   0.115E-04 -.714E-05 0.108E-03
   0.307E+01 -.377E+01 -.990E+02   -.309E+01 0.367E+01 0.993E+02   -.159E+00 0.198E+00 0.391E+00   0.832E-05 -.156E-04 0.912E-04
   0.246E-01 0.757E-01 -.120E+02   0.194E-02 -.497E-02 0.116E+02   0.513E-01 -.173E+00 0.528E+00   0.555E-05 -.947E-05 -.134E-04
   -.119E+00 0.106E+00 0.826E+02   0.846E-01 -.783E-01 -.835E+02   0.499E-01 -.381E-01 0.156E+01   -.413E-06 0.231E-06 0.178E-03
   -.409E+01 -.786E+00 -.979E+02   0.412E+01 0.865E+00 0.983E+02   0.793E-01 0.442E-01 -.438E-01   -.293E-04 -.501E-05 0.905E-04
   -.422E-01 -.136E-01 -.120E+02   0.397E-02 0.437E-02 0.116E+02   0.878E-01 0.128E+00 0.523E+00   0.153E-05 0.229E-05 -.170E-04
   0.954E-01 -.481E-01 0.807E+02   -.511E-01 0.501E-01 -.807E+02   -.341E-01 0.178E-01 -.642E+00   -.100E-04 0.592E-05 0.101E-03
   0.188E+01 -.130E+00 -.815E+02   -.845E+00 0.133E+00 0.819E+02   -.894E+00 -.140E-01 -.155E+00   0.117E-04 0.133E-06 0.390E-04
   -.128E-01 -.126E-01 0.123E+02   -.195E-03 0.132E-03 -.116E+02   0.877E-02 0.212E-01 -.713E+00   0.575E-05 -.380E-06 0.119E-04
   0.304E+01 0.405E+01 0.982E+02   -.278E+01 -.334E+01 -.987E+02   -.918E-01 -.249E+00 -.697E-01   -.826E-05 -.259E-04 0.106E-03
   -.686E+00 0.154E+01 -.814E+02   0.222E+00 -.740E+00 0.817E+02   0.388E+00 -.656E+00 -.438E-01   -.329E-05 0.883E-05 0.361E-04
   0.345E-01 -.323E-01 0.112E+02   0.584E-03 -.521E-03 -.116E+02   -.363E-01 0.333E-01 -.540E-01   0.123E-05 -.249E-05 0.132E-04
   0.196E+01 -.517E+01 0.989E+02   -.150E+01 0.464E+01 -.992E+02   -.209E+00 0.260E+00 -.423E+00   -.414E-04 0.447E-04 0.107E-03
   -.112E+01 -.151E+01 -.814E+02   0.619E+00 0.610E+00 0.818E+02   0.443E+00 0.748E+00 -.110E+00   -.764E-05 -.101E-04 0.361E-04
   0.896E-02 0.103E-01 0.122E+02   -.386E-03 0.339E-03 -.116E+02   -.164E-01 -.103E-01 -.642E+00   -.637E-05 0.246E-05 0.975E-05
   -.494E+01 0.108E+01 0.977E+02   0.421E+01 -.123E+01 -.981E+02   0.221E+00 0.551E-01 0.101E-01   0.525E-04 0.373E-05 0.116E-03
   0.307E+01 -.377E+01 -.990E+02   -.309E+01 0.367E+01 0.993E+02   -.159E+00 0.198E+00 0.391E+00   0.530E-05 -.243E-04 0.930E-04
   0.246E-01 0.758E-01 -.120E+02   0.199E-02 -.501E-02 0.116E+02   0.513E-01 -.173E+00 0.528E+00   0.703E-05 -.120E-04 -.116E-04
   -.120E+00 0.106E+00 0.826E+02   0.847E-01 -.783E-01 -.835E+02   0.499E-01 -.381E-01 0.156E+01   0.280E-05 0.388E-05 0.159E-03
   -.409E+01 -.786E+00 -.979E+02   0.412E+01 0.865E+00 0.983E+02   0.793E-01 0.442E-01 -.438E-01   -.171E-04 0.627E-05 0.928E-04
   -.423E-01 -.137E-01 -.120E+02   0.402E-02 0.446E-02 0.116E+02   0.878E-01 0.128E+00 0.523E+00   0.100E-04 0.109E-04 -.120E-04
   0.954E-01 -.482E-01 0.807E+02   -.512E-01 0.502E-01 -.807E+02   -.341E-01 0.178E-01 -.642E+00   -.362E-05 0.135E-05 0.110E-03
   0.112E+01 0.443E+01 -.981E+02   -.110E+01 -.446E+01 0.984E+02   -.377E-01 -.115E+00 0.108E+00   0.125E-04 0.183E-04 0.935E-04
   0.209E-01 -.627E-01 -.120E+02   -.600E-02 0.553E-03 0.116E+02   -.141E+00 0.464E-01 0.526E+00   -.179E-04 0.969E-06 -.152E-04
   0.669E-01 -.664E-01 0.813E+02   -.264E-01 0.215E-01 -.813E+02   -.482E-01 0.291E-01 -.699E+00   -.218E-05 -.285E-05 0.110E-03
   -.686E+00 0.154E+01 -.814E+02   0.222E+00 -.740E+00 0.817E+02   0.388E+00 -.656E+00 -.438E-01   -.601E-05 0.681E-05 0.419E-04
   0.344E-01 -.323E-01 0.112E+02   0.642E-03 -.527E-03 -.116E+02   -.363E-01 0.333E-01 -.540E-01   0.289E-05 0.145E-05 0.370E-05
   0.196E+01 -.517E+01 0.989E+02   -.150E+01 0.464E+01 -.992E+02   -.209E+00 0.260E+00 -.423E+00   -.321E-04 0.527E-04 0.102E-03
   -.112E+01 -.151E+01 -.814E+02   0.619E+00 0.610E+00 0.818E+02   0.443E+00 0.748E+00 -.110E+00   0.568E-06 -.695E-05 0.387E-04
   0.894E-02 0.103E-01 0.122E+02   -.372E-03 0.345E-03 -.116E+02   -.164E-01 -.103E-01 -.642E+00   0.199E-06 0.332E-06 0.142E-04
   -.494E+01 0.108E+01 0.977E+02   0.421E+01 -.123E+01 -.981E+02   0.221E+00 0.551E-01 0.101E-01   0.682E-04 0.752E-05 0.115E-03
   0.188E+01 -.130E+00 -.815E+02   -.845E+00 0.133E+00 0.819E+02   -.894E+00 -.140E-01 -.155E+00   0.517E-05 0.175E-05 0.306E-04
   -.127E-01 -.126E-01 0.123E+02   -.290E-03 0.192E-03 -.116E+02   0.877E-02 0.212E-01 -.713E+00   -.294E-05 -.183E-05 0.123E-04
   0.304E+01 0.405E+01 0.982E+02   -.278E+01 -.334E+01 -.987E+02   -.918E-01 -.249E+00 -.697E-01   -.268E-04 -.587E-04 0.110E-03
   0.112E+01 0.443E+01 -.981E+02   -.110E+01 -.446E+01 0.984E+02   -.377E-01 -.115E+00 0.108E+00   0.203E-04 0.191E-04 0.964E-04
   0.209E-01 -.628E-01 -.120E+02   -.596E-02 0.628E-03 0.116E+02   -.141E+00 0.464E-01 0.526E+00   -.159E-05 0.329E-05 -.152E-04
   0.669E-01 -.665E-01 0.813E+02   -.264E-01 0.216E-01 -.813E+02   -.482E-01 0.291E-01 -.699E+00   0.597E-05 0.591E-05 0.105E-03
   0.307E+01 -.377E+01 -.990E+02   -.309E+01 0.367E+01 0.993E+02   -.159E+00 0.198E+00 0.391E+00   0.130E-04 -.239E-04 0.947E-04
   0.246E-01 0.757E-01 -.120E+02   0.198E-02 -.500E-02 0.116E+02   0.513E-01 -.173E+00 0.528E+00   0.288E-05 -.104E-04 -.133E-04
   -.119E+00 0.106E+00 0.826E+02   0.846E-01 -.783E-01 -.835E+02   0.499E-01 -.381E-01 0.156E+01   -.664E-05 0.425E-05 0.180E-03
[...]
   0.786E-01 -.325E+00 0.873E+01   0.262E-01 -.468E-01 -.877E+01   -.188E-01 0.103E+00 0.173E+00   -.104E-04 -.204E-06 -.177E-03
   -.792E+00 0.243E+01 -.556E+02   0.801E+00 -.147E+01 0.551E+02   0.217E-01 -.763E+00 -.931E-01   -.330E-04 -.284E-04 0.217E-04
   -.150E+01 0.250E+01 0.560E+02   0.105E+01 -.186E+01 -.555E+02   0.487E+00 -.457E+00 -.124E-01   -.490E-04 -.479E-04 -.105E-03
   0.441E-01 -.340E+00 -.849E+01   0.225E-01 -.409E-01 0.876E+01   -.296E-01 0.882E-01 -.357E+00   -.793E-05 -.251E-05 -.166E-03
   -.329E+01 0.559E+01 -.789E+02   0.294E+01 -.539E+01 0.785E+02   0.203E+00 -.143E+00 -.157E+00   -.715E-05 -.161E-04 0.899E-04
   -.150E+01 0.250E+01 0.560E+02   0.105E+01 -.186E+01 -.555E+02   0.487E+00 -.457E+00 -.124E-01   -.775E-04 -.370E-04 -.988E-04
   0.441E-01 -.340E+00 -.848E+01   0.225E-01 -.411E-01 0.876E+01   -.296E-01 0.882E-01 -.357E+00   0.101E-05 -.258E-05 -.168E-03
   -.329E+01 0.559E+01 -.789E+02   0.294E+01 -.539E+01 0.785E+02   0.203E+00 -.143E+00 -.157E+00   0.127E-05 -.176E-04 0.884E-04
   -.150E+01 0.250E+01 0.560E+02   0.105E+01 -.186E+01 -.555E+02   0.487E+00 -.457E+00 -.124E-01   -.546E-04 -.259E-04 -.106E-03
   0.441E-01 -.340E+00 -.848E+01   0.225E-01 -.409E-01 0.876E+01   -.296E-01 0.882E-01 -.357E+00   -.173E-04 -.766E-05 -.161E-03
   -.329E+01 0.559E+01 -.789E+02   0.294E+01 -.539E+01 0.785E+02   0.203E+00 -.143E+00 -.157E+00   0.113E-04 -.161E-04 0.883E-04
   -.150E+01 0.250E+01 0.560E+02   0.105E+01 -.186E+01 -.555E+02   0.487E+00 -.457E+00 -.124E-01   -.256E-04 -.171E-04 -.100E-03
   0.441E-01 -.340E+00 -.849E+01   0.225E-01 -.410E-01 0.876E+01   -.296E-01 0.882E-01 -.357E+00   -.210E-04 -.830E-05 -.152E-03
   -.329E+01 0.559E+01 -.789E+02   0.294E+01 -.539E+01 0.785E+02   0.203E+00 -.143E+00 -.157E+00   0.173E-05 -.637E-05 0.862E-04
   0.765E+00 -.767E+00 0.606E+01   -.204E-13 0.100E-12 -.156E-11   -.434E+00 0.274E+00 -.581E+01   -.813E-05 0.632E-05 -.169E-02

 POSITION                                       TOTAL-FORCE (eV/Angst)
     -0.09862      0.17082      0.00000        -0.178411      0.106548      0.705184
     -2.74783      4.75938      3.74654         0.075885     -0.099707      0.123227
     -5.39703      9.34794      7.49308         0.013151     -0.007215      0.675976
     -0.09862      9.34794      0.00000         0.114075      0.125597      0.381634
      5.19979      0.17082      3.74654         0.047625      0.121362      0.141012
      2.55058      4.75938      7.49308         0.008209      0.022671     -0.603409
      7.84899      4.75938      0.00000        -0.018576     -0.145292      0.436096
      5.19979      9.34794      3.74654        -0.127971     -0.012776      0.144201
     10.49820      0.17082      7.49308        -0.009715     -0.012888     -0.752994
     -2.74783      4.75938      0.93664        -0.077917      0.142544      0.304256
     -5.39703      9.34794      4.68318        -0.003243      0.003414     -0.402467
     -0.09862      0.17082      8.42972         0.248691     -0.264766     -0.750915
      5.19979      0.17082      0.93664        -0.057139     -0.144597      0.264460
      2.55058      4.75938      4.68318        -0.009804      0.003312     -0.066321
     -0.09862      9.34794      8.42972        -0.513205     -0.093549     -0.410637
      5.19979      9.34794      0.93664         0.144538     -0.008477      0.251972
     10.49820      0.17082      4.68318        -0.006188      0.011645     -0.028508
      7.84899      4.75938      8.42972         0.162547      0.463536     -0.539630
     -0.09862      4.75938      0.00000        -0.018576     -0.145292      0.436096
     -2.74783      9.34794      3.74654        -0.127971     -0.012776      0.144201
      2.55058      0.17082      7.49308        -0.009715     -0.012888     -0.752994
      7.84899      0.17082      0.00000        -0.178411      0.106548      0.705184
      5.19979      4.75938      3.74654         0.075885     -0.099707      0.123227
      2.55058      9.34794      7.49308         0.013151     -0.007215      0.675976
      7.84899      9.34794      0.00000         0.114075      0.125597      0.381634
     13.14740      0.17082      3.74654         0.047625      0.121362      0.141012
     10.49820      4.75938      7.49308         0.008209      0.022671     -0.603409
     -2.74783      9.34794      0.93664         0.144538     -0.008477      0.251972
      2.55058      0.17082      4.68318        -0.006188      0.011645     -0.028508
     -0.09863      4.75938      8.42972         0.162547      0.463536     -0.539630
      5.19979      4.75938      0.93664        -0.077917      0.142544      0.304256
      2.55058      9.34794      4.68318        -0.003243      0.003414     -0.402467
      7.84899      0.17082      8.42972         0.248691     -0.264766     -0.750915
     13.14740      0.17082      0.93663        -0.057139     -0.144597      0.264460
     10.49820      4.75938      4.68318        -0.009804      0.003312     -0.066321
      7.84899      9.34794      8.42972        -0.513205     -0.093549     -0.410637
     -4.07243      7.05366      0.00000        -0.178411      0.106548      0.705184
     -6.72164     11.64222      3.74654         0.075885     -0.099707      0.123227
     -1.42323      2.46510      7.49308         0.013151     -0.007215      0.675976
      3.87518      2.46510      0.00000         0.114075      0.125597      0.381634
      1.22598      7.05366      3.74654         0.047625      0.121362      0.141012
     -1.42323     11.64222      7.49308         0.008209      0.022671     -0.603409
      3.87518     11.64222      0.00000        -0.018576     -0.145292      0.436096
      9.17359      2.46510      3.74654        -0.127971     -0.012776      0.144201
      6.52439      7.05366      7.49308        -0.009715     -0.012888     -0.752994
     -6.72164     11.64222      0.93664        -0.077917      0.142544      0.304256
     -1.42323      2.46510      4.68318        -0.003243      0.003414     -0.402467
     -4.07243      7.05366      8.42972         0.248691     -0.264766     -0.750915
      1.22598      7.05366      0.93664        -0.057139     -0.144597      0.264460
     -1.42323     11.64222      4.68318        -0.009804      0.003312     -0.066321
      3.87518      2.46510      8.42972        -0.513205     -0.093549     -0.410637
      9.17359      2.46510      0.93664         0.144538     -0.008477      0.251972
      6.52439      7.05366      4.68318        -0.006188      0.011645     -0.028508
      3.87518     11.64222      8.42972         0.162547      0.463536     -0.539630
     -4.07243     11.64222      0.00000        -0.018576     -0.145292      0.436096
      1.22598      2.46510      3.74654        -0.127971     -0.012776      0.144201
     -1.42323      7.05366      7.49308        -0.009715     -0.012888     -0.752994
      3.87518      7.05366      0.00000        -0.178411      0.106548      0.705184
      1.22598     11.64222      3.74654         0.075885     -0.099707      0.123227
      6.52439      2.46510      7.49308         0.013151     -0.007215      0.675976
[...]
     12.43081      5.95719     10.69202         0.114536      0.175289      0.378306
      8.45701      3.66291     13.95855         0.084040     -0.266259      0.128568
      4.48320      1.36863     17.22508         0.029471      0.194005     -0.552130
      4.48320     10.54575     11.50865         0.033075      0.186020      0.486786
      0.50939      8.25147     14.77518         0.035050     -0.289818     -0.078301
     12.43082      5.95719     18.04172        -0.151037      0.057667     -0.502166
      8.45701      3.66291     11.50865         0.033075      0.186020      0.486786
      4.48320      1.36864     14.77518         0.035050     -0.289818     -0.078301
      8.45701     12.84003     18.04172        -0.151037      0.057667     -0.502166
     -3.46441     10.54575     11.50865         0.033075      0.186020      0.486786
      8.45701      8.25147     14.77518         0.035050     -0.289818     -0.078301
      4.48320      5.95719     18.04172        -0.151037      0.057667     -0.502166
      0.50939      3.66291     11.50865         0.033075      0.186020      0.486786
     12.43082      1.36864     14.77518         0.035050     -0.289818     -0.078301
      0.50939     12.84003     18.04172        -0.151037      0.057667     -0.502166
    total drift:                                0.331243     -0.492890      0.246517

  FREE ENERGIE OF THE ION-ELECTRON SYSTEM (eV)
  free  energy   TOTEN  =      -681.65759753 eV

  energy  without entropy=     -681.65312979  energy(sigma->0) =     -681.65536366