 vasp.6.4.3 19Mar24 (build Oct 22 2024 11:23:12) complex

 executed on             LinuxIFC date 2025.06.04  06:44:46

 INCAR:
   SYSTEM = Si and Ge interface calculation
   ISTART = 0
   ICHARG = 2
   LWAVE = .FALSE.
   LREAL = AUTO
   ENCUT = 700
   ENAUG = 900
   ADDGRID = .TRUE.
   LMAXMIX = 6
   LASPH = .TRUE.
   LMIXTAU = .TRUE.
   NCORE = 16
   NELM = 100
   NBANDS = 231
   EDIFF = 1d-7
   AMIX = 0.6
   ISMEAR = 0
   SIGMA = 0.01
   NELECT = 384
   ISPIN = 2
   NUPDOWN = 1
   LVTOT = .FALSE.
   LVHAR = .TRUE.

 POTCAR:    PAW_PBE Ge 05Jan2001
|           W    W    AA    RRRRR   N    N  II  N    N   GGGG   !!!           |
|           W    W   A  A   R    R  NN   N  II  NN   N  G    G  !!!           |
|           W    W  A    A  R    R  N N  N  II  N N  N  G       !!!           |
|           W WW W  AAAAAA  RRRRR   N  N N  II  N  N N  G  GGG   !            |
|           WW  WW  A    A  R   R   N   NN  II  N   NN  G    G                |
|           W    W  A    A  R    R  N    N  II  N    N   GGGG   !!!           |
|     You use a magnetic or noncollinear calculation, but did not specify     |
|     the initial magnetic moment with the MAGMOM tag. Note that a            |
|     default of 0.01 will be used for all atoms. This ferromagnetic          |
|     setup may break the symmetry of the crystal, in particular it may       |
|     rule out finding an antiferromagnetic solution. Thence, we              |
|     recommend setting the initial magnetic moment manually or verifying     |
|     carefully that this magnetic setup is desired.                          |

 POTCAR:    PAW_PBE Ge 05Jan2001
   VRHFIN =Ge: s2p2

   TITEL  = PAW_PBE Ge 05Jan2001
   POMASS =   72.610; ZVAL   =    4.000    mass and valenz
   ENMAX  =  173.807; ENMIN  =  130.355 eV

 Optimization of the real space projectors (new method)

 maximal supplied QI-value         = 16.25
 optimisation between [QCUT,QGAM] = [ 13.49, 26.98] = [ 50.95,203.80] Ry
 Optimized for a Real-space Cutoff    1.25 Angstroem

   l    n(q)    QCUT    max X(q) W(low)/X(q) W(high)/X(q)  e(spline)
   0     10    13.489    65.336    0.91E-04    0.11E-03    0.34E-06
   0     10    13.489    52.220    0.89E-04    0.11E-03    0.34E-06
   1     10    13.489    36.409    0.22E-03    0.27E-03    0.14E-06
   1     10    13.489    21.334    0.21E-03    0.27E-03    0.14E-06
   2      9    13.489     4.673    0.11E-03    0.12E-03    0.19E-06
  PAW_PBE Ge 05Jan2001                  :

 POSCAR: Ge+Ge
  positions in direct lattice

 exchange-correlation table for PE
   RHO(1)=    0.500       N(1)  =     2000
   RHO(2)=  100.500       N(2)  =     4000

 ion  position               nearest neighbor table
   1  0.744  0.169  0.500-   6 2.45  35 2.45  52 2.45
   2  0.993  0.948  0.000-  49 2.19  38 2.45  21 2.45  39 2.45  79 2.60
   3  0.951  0.656  0.083-  22 2.45  39 2.45  40 2.45
   4  0.909  0.365  0.166-  20 2.45  41 2.45  57 2.45  40 2.45
   5  0.868  0.073  0.249-  21 2.45  41 2.45  42 2.45
   6  0.619  0.044  0.500-  35 0.00  36 2.42   1 2.45  69 2.45  93 2.45  74 2.52  87 2.88  94 2.88

   7  0.244  0.669  0.500-  18 2.42  19 2.45  48 2.45
   8  0.493  0.448  0.000-  55 2.19  45 2.45  15 2.45  44 2.45  73 2.60
   9  0.451  0.156  0.083-  45 2.45  16 2.45  46 2.45
  10  0.409  0.865  0.166-  14 2.45  47 2.45  17 2.45  46 2.45
  11  0.368  0.573  0.249-  15 2.45  47 2.45  18 2.45  58 2.45
  12  0.326  0.281  0.332-  37 2.42  16 2.45  87 2.45  94 2.45  58 2.45  81 2.45  86 2.45
  13  0.494  0.419  0.500-  58 2.42  37 2.45  76 2.45
  14  0.368  0.823  0.000-  67 2.19  10 2.45  26 2.45  91 2.60  84 2.72  79 2.85
  15  0.326  0.531  0.083-  11 2.45  27 2.45   8 2.45  26 2.45  55 2.72
  16  0.284  0.240  0.166-  12 2.45  28 2.45   9 2.45  27 2.45
  17  0.243  0.948  0.249-  28 2.45  62 2.45  10 2.45  92 2.45
  18  0.201  0.656  0.332-   7 2.42  11 2.45  92 2.45  30 2.45
  19  0.119  0.544  0.500-  30 2.42   7 2.45  63 2.45  81 2.52  86 2.52  50 2.88
  20  0.868  0.323  0.000-  61 2.19   4 2.45  32 2.45  85 2.60  78 2.72  73 2.85
  21  0.826  0.031  0.083-   5 2.45   2 2.45  32 2.45  33 2.45  49 2.72
  22  0.784  0.740  0.166-   3 2.45  34 2.45  33 2.45
  23  0.577  0.753  0.583-  56 2.42  93 2.45  43 2.45  64 2.45
  24  0.869  0.794  0.500-  31 0.00  93 2.45  63 2.45  29 2.45  50 2.52  74 2.88
  25  0.910  0.336  0.666-  78 2.45  51 2.45  52 2.45  75 2.45
  26  0.243  0.698  0.000-  79 2.19  14 2.45  39 2.45  15 2.45  55 2.60
  27  0.201  0.406  0.083-  15 2.45  40 2.45  16 2.45
  28  0.159  0.115  0.166-  17 2.45  38 2.45  16 2.45  41 2.45
  29  0.994  0.919  0.500-  42 2.42  82 2.45  24 2.45  31 2.45
  30  0.076  0.531  0.332-  19 2.42  40 2.45  50 2.45  81 2.45  86 2.45  18 2.45
  31  0.869  0.794  0.500-  24 0.00  93 2.45  63 2.45  29 2.45  50 2.52  74 2.88
  32  0.743  0.198  0.000-  73 2.19  21 2.45  20 2.45  45 2.45  49 2.60
  33  0.701  0.906  0.083-  46 2.45  21 2.45  22 2.45
  34  0.659  0.615  0.166-  57 2.45  44 2.45  22 2.45  47 2.45
  35  0.619  0.044  0.500-   6 0.00  36 2.42   1 2.45  69 2.45  93 2.45  74 2.52  87 2.88  94 2.88

[...]

  95  0.119  0.794  0.749-  79 2.45  82 2.45  48 2.45  59 2.45
  96  0.827  0.753  0.832-  83 2.45  59 2.45  60 2.45

  LATTYP: Found a base centered orthorhombic cell.
 ALAT       =    16.0026764918
 B/A-ratio  =     1.2247448613
 C/A-ratio  =     0.8707237428

  Lattice vectors:

 A1 = (  -2.5302453040, -12.3956203460,   0.0000000000)
 A2 = (  12.6512260440,   0.0000000000,   0.0000000000)
 A3 = (   0.0000000000,   0.0000000000,  13.9339103700)

Analysis of symmetry for initial positions (statically):
 Subroutine PRICEL returns:
 Original cell was already a primitive cell.

 Routine SETGRP: Setting up the symmetry group for a
 base centered orthorhombic supercell.

 Subroutine GETGRP returns: Found  2 space group operations
 (whereof  1 operations were pure point group operations)
 out of a pool of  8 trial point group operations.

The static configuration has the point symmetry C_1 .
 The point group associated with its full space group is S_2 .

Analysis of symmetry for dynamics (positions and initial velocities):
 Subroutine PRICEL returns:
 Original cell was already a primitive cell.

[...]

The dynamic configuration has the point symmetry C_1 .
 The point group associated with its full space group is S_2 .

Analysis of structural, dynamic, and magnetic symmetry:
 Subroutine PRICEL returns:
 Original cell was already a primitive cell.

 Routine SETGRP: Setting up the symmetry group for a
 base centered orthorhombic supercell.

 Subroutine GETGRP returns: Found  2 space group operations
 (whereof  1 operations were pure point group operations)
 out of a pool of  8 trial point group operations.

The overall configuration has the point symmetry C_1 .
 The point group associated with its full space group is S_2 .

 Subroutine INISYM returns: Found  2 space group operations
 (whereof  1 operations are pure point group operations),
 and found     1 'primitive' translations

                                     Primitive cell

  volume of cell :    2185.1130

  direct lattice vectors                    reciprocal lattice vectors
    12.651226044  0.000000000  0.000000000     0.079043722 -0.016134732  0.000000000
     2.530245304 12.395620346  0.000000000     0.000000000  0.080673655  0.000000000
     0.000000000  0.000000000 13.933910370     0.000000000  0.000000000  0.071767363

  length of vectors
    12.651226044 12.651227018 13.933910370     0.080673661  0.080673655  0.071767363

  position of ions in fractional coordinates (direct lattice)
     0.743767500  0.169177771  0.500000000
     0.992590368  0.948132515  0.000000022
     0.950923562  0.656465769  0.082883760
     0.909256816  0.364798903  0.165767506
     0.867590070  0.073132217  0.248651221
     0.618767440  0.044177771  0.500000000
     0.243767500  0.669177711  0.500000000
     0.492590368  0.448132515  0.000000028
     0.450923622  0.156465769  0.082883760
     0.409256876  0.864798963  0.165767506
     0.367590129  0.573132277  0.248651221
     0.325923383  0.281465530  0.331534922
     0.493767440  0.419177681  0.500000000
     0.367590398  0.823132634  0.000000012
     0.325923622  0.531465828  0.082883760
     0.284256876  0.239799008  0.165767536
     0.242590174  0.948132396  0.248651192
     0.200923383  0.656465650  0.331534922
     0.118767500  0.544177651  0.500000000
     0.867590487  0.323132575  0.000000012
     0.825923681  0.031465776  0.082883760
     0.784256876  0.739798903  0.165767506
     0.577100635  0.752510905  0.582883716
     0.868767440  0.794177651  0.500000000
     0.910433948  0.335844189  0.665767550
     0.242590353  0.698132634  0.000000000
     0.200923592  0.406465799  0.082883753
     0.159256846  0.114798956  0.165767506
     0.993767500  0.919177771  0.500000000
     0.075923339  0.531465530  0.331534892
     0.868767440  0.794177651  0.500000000
     0.742590427  0.198132515  0.000000021
     0.700923622  0.906465709  0.082883768
     0.659256876  0.614798903  0.165767506
     0.618767440  0.044177771  0.500000000
     0.575923443  0.031465471  0.331534892
     0.368767500  0.294177651  0.500000000
     0.117590360  0.073132515  0.000000021
     0.075923599  0.781465769  0.082883760
     0.034256846  0.489798963  0.165767506
     0.992590070  0.198132217  0.248651221
     0.950923383  0.906465530  0.331534922
     0.410434008  0.835844278  0.665767550
     0.617590487  0.573132575  0.000000012
     0.575923622  0.281465828  0.082883753
     0.534256935  0.989799023  0.165767536
     0.492590189  0.698132277  0.248651251
     0.285434008  0.710844219  0.665767550
     0.910433590  0.085843921  0.914418697
     0.909256577  0.614798784  0.414418697
     0.077100515  0.252510905  0.582883716
     0.785433888  0.210844159  0.665767550
     0.493767142  0.169177413  0.748651266
     0.202100515  0.127510667  0.831534982
     0.410433531  0.585843921  0.914418697
     0.534256697  0.739798665  0.414418697
     0.742590129  0.448132336  0.248651192
     0.450923443  0.406465530  0.331534952
     0.993767202  0.669177413  0.748651266
     0.702100396  0.627510667  0.831534982
[...]
     0.035433888  0.960844159  0.665767550
     0.743767202  0.919177532  0.748651266
     0.452100396  0.877510786  0.831534982
     0.035433531  0.210843921  0.914418697
     0.159256637  0.364798784  0.414418697
     0.409256607  0.114798844  0.414418697
     0.034256559  0.239798784  0.414418638
     0.618767142  0.294177413  0.748651147
     0.327100515  0.252510667  0.831534982
     0.535433710  0.710844040  0.914418697
     0.117590085  0.823132396  0.248651177
     0.702100694  0.877510905  0.582883716
     0.409256607  0.114798844  0.414418697
     0.118767262  0.794177532  0.748651266
     0.827100456  0.752510786  0.831534982

  ion indices of the primitive-cell ions
   primitive index   ion index
                 1           1
                 2           2
                 3           3
                 4           4
                 5           5
                 6           6
                 7           7
                 8           8
                 9           9
                10          10
[...]
     0.000000000  0.000000000 13.933910370     0.000000000  0.000000000  0.071767363

  length of vectors
    12.651226044 12.651227018 13.933910370     0.080673661  0.080673655  0.071767363

 FORCES acting on ions
    electron-ion (+dipol)            ewald-force                    non-local-force                 convergence-correction
   -.561E+02 -.486E+02 0.304E+02   0.573E+02 0.495E+02 -.325E+02   -.511E-01 0.179E-01 0.102E+01   0.114E-03 0.786E-04 0.189E-05
   0.261E+02 0.329E+02 -.736E+01   -.256E+02 -.337E+02 0.787E+01   0.525E+00 -.226E+01 0.916E+00   0.194E-04 0.992E-04 -.284E-04
   0.122E+02 0.247E+01 0.287E+02   -.134E+02 -.295E+01 -.299E+02   0.542E+00 0.217E+00 0.541E+00   -.211E-04 0.405E-04 -.122E-04
   0.306E+01 -.369E+01 -.472E+01   -.312E+01 0.355E+01 0.416E+01   0.329E+00 0.260E+00 0.837E+00   -.509E-04 -.955E-04 -.637E-04
   0.184E+02 -.121E+02 -.187E+02   -.197E+02 0.126E+02 0.189E+02   0.587E+00 0.110E+00 0.228E+00   -.944E-04 0.428E-04 -.636E-04
   -.308E+02 -.181E+02 -.156E+02   0.321E+02 0.194E+02 0.176E+02   -.179E+00 0.634E-02 -.101E+01   0.207E-03 -.569E-04 0.103E-03
   -.386E+02 -.270E+02 -.841E+01   0.391E+02 0.268E+02 0.843E+01   0.515E-01 0.972E-01 0.144E+00   0.369E-04 0.307E-04 0.231E-04
   0.230E+02 0.332E+02 -.372E+01   -.228E+02 -.337E+02 0.405E+01   0.500E+00 -.216E+01 0.100E+01   0.434E-04 -.579E-04 0.148E-04
   0.247E+01 0.755E+01 0.395E+02   -.332E+01 -.838E+01 -.409E+02   0.341E+00 0.400E+00 0.588E+00   0.513E-04 -.300E-04 0.519E-04
   -.761E+01 0.544E+00 -.187E+01   0.727E+01 -.591E+00 0.130E+01   0.519E+00 0.136E+00 0.720E+00   0.332E-04 0.807E-04 -.189E-04
   -.107E+02 -.831E+01 -.714E+01   0.106E+02 0.805E+01 0.727E+01   0.238E+00 0.382E+00 -.211E-01   0.139E-04 -.518E-04 -.462E-04
   -.994E+01 -.131E+02 0.560E+02   0.968E+01 0.135E+02 -.580E+02   0.671E+00 0.357E+00 -.194E+01   0.161E-04 0.113E-03 -.141E-03
   -.355E+02 -.333E+02 -.576E+01   0.357E+02 0.330E+02 0.570E+01   0.149E+00 0.610E+00 0.121E+00   -.233E-04 -.133E-03 -.111E-04
   -.250E+02 -.684E+01 -.223E+02   0.254E+02 0.598E+01 0.241E+02   0.118E+01 -.119E+01 0.170E+01   -.297E-06 0.703E-04 -.486E-04
   0.186E+02 0.122E+02 -.299E+01   -.187E+02 -.132E+02 0.422E+01   -.524E+00 0.741E+00 0.957E-01   0.601E-04 -.265E-04 -.181E-04
   0.555E-01 0.838E+00 0.340E+02   0.302E+00 -.501E+00 -.343E+02   -.144E+00 -.161E+00 -.183E+00   0.376E-04 -.590E-04 0.418E-04
   0.822E+01 0.781E+01 -.109E+02   -.802E+01 -.769E+01 0.113E+02   -.131E+00 0.110E-01 -.537E+00   0.575E-04 0.737E-04 -.358E-04
   -.196E+02 -.262E+02 0.363E+01   0.197E+02 0.263E+02 -.435E+01   0.280E+00 0.349E+00 0.515E-01   0.104E-04 -.214E-04 -.678E-04
   -.254E+02 -.112E+02 -.542E+02   0.261E+02 0.114E+02 0.557E+02   0.265E+00 0.714E-01 0.123E+01   0.140E-05 -.304E-04 -.974E-06
   -.237E+02 -.661E+01 -.265E+02   0.242E+02 0.557E+01 0.282E+02   0.107E+01 -.104E+01 0.186E+01   -.392E-04 -.980E-04 0.462E-05
   0.228E+02 0.143E+02 -.162E+02   -.228E+02 -.149E+02 0.179E+02   -.710E+00 0.581E+00 -.295E+00   -.102E-04 0.809E-04 -.816E-05
   -.696E+01 -.665E+01 -.776E+01   0.764E+01 0.721E+01 0.821E+01   -.173E+00 -.944E-01 -.180E+00   -.646E-04 0.831E-04 -.167E-04
   0.332E+02 0.244E+02 -.533E+01   -.338E+02 -.246E+02 0.606E+01   0.145E+00 -.544E+00 -.847E-01   0.514E-05 0.144E-03 0.663E-04
   -.139E+02 -.738E+01 0.126E+02   0.136E+02 0.780E+01 -.118E+02   0.463E+00 0.267E+00 -.210E+01   -.976E-04 0.883E-04 0.200E-04
   -.155E+01 0.467E+01 0.745E+01   0.190E+01 -.491E+01 -.769E+01   -.452E+00 0.172E-01 0.918E-01   -.271E-04 -.708E-04 0.608E-04
   0.247E+02 0.324E+02 -.255E+01   -.245E+02 -.330E+02 0.286E+01   0.565E+00 -.219E+01 0.109E+01   0.368E-04 0.890E-04 -.439E-04
   0.871E+01 0.462E+01 0.420E+02   -.983E+01 -.546E+01 -.440E+02   0.492E+00 0.417E+00 0.110E+01   0.199E-04 -.675E-04 0.217E-04
   0.173E+01 -.914E-01 0.150E+01   -.176E+01 -.856E-01 -.189E+01   0.199E+00 0.226E+00 0.618E+00   0.118E-04 -.237E-04 -.256E-04
   -.615E+02 -.443E+02 0.521E+01   0.617E+02 0.442E+02 -.553E+01   0.819E+00 0.777E+00 0.847E+00   -.211E-04 0.120E-03 0.282E-04
   0.176E+02 -.265E+02 0.473E+02   -.181E+02 0.271E+02 -.486E+02   -.142E+00 0.113E+01 -.153E+01   0.355E-04 -.143E-04 -.556E-04
   -.139E+02 -.738E+01 0.126E+02   0.136E+02 0.780E+01 -.118E+02   0.463E+00 0.267E+00 -.210E+01   -.976E-04 0.883E-04 0.200E-04
   0.242E+02 0.336E+02 -.106E+02   -.238E+02 -.343E+02 0.111E+02   0.501E+00 -.221E+01 0.977E+00   0.139E-04 -.261E-04 0.414E-04
   0.342E+01 0.786E+01 0.259E+02   -.412E+01 -.911E+01 -.269E+02   0.245E+00 0.672E+00 0.384E+00   -.155E-04 0.816E-04 0.372E-04
   -.111E+02 -.692E+01 -.952E+01   0.114E+02 0.690E+01 0.903E+01   0.108E+00 0.213E+00 0.812E+00   -.277E-04 0.108E-04 -.502E-04
   -.308E+02 -.181E+02 -.156E+02   0.321E+02 0.194E+02 0.176E+02   -.179E+00 0.634E-02 -.101E+01   0.207E-03 -.569E-04 0.103E-03
   -.396E+02 0.453E+01 0.857E+02   0.405E+02 -.404E+01 -.864E+02   0.640E+00 -.656E-01 -.327E+01   0.176E-03 -.974E-04 -.435E-03
   -.184E+01 -.481E+02 -.665E+02   0.204E+01 0.492E+02 0.684E+02   -.348E+00 0.128E+01 0.124E+01   -.222E-04 0.126E-03 0.847E-04
   -.235E+02 -.660E+01 -.218E+02   0.241E+02 0.558E+01 0.234E+02   0.865E+00 -.103E+01 0.178E+01   -.226E-04 -.972E-05 -.575E-04
   0.245E+02 0.129E+02 -.896E+01   -.247E+02 -.137E+02 0.100E+02   -.519E+00 0.610E+00 0.225E+00   0.308E-04 0.101E-03 -.614E-04
   0.799E+01 -.720E+01 0.245E+02   -.764E+01 0.733E+01 -.251E+02   -.249E+00 -.256E-02 0.168E+00   -.102E-05 -.639E-04 0.723E-06
   0.175E+02 0.567E+01 -.115E+02   -.179E+02 -.613E+01 0.112E+02   0.191E+00 0.221E+00 0.165E+00   -.216E-04 -.429E-04 -.632E-04
   -.492E+00 -.123E+02 0.224E+02   -.642E+00 0.115E+02 -.227E+02   0.423E+00 0.287E+00 -.187E+00   -.602E-04 0.103E-03 -.312E-04
   0.214E+02 -.161E+02 0.181E+02   -.218E+02 0.184E+02 -.184E+02   0.610E-01 -.112E+01 -.101E+00   0.264E-04 0.116E-03 0.519E-04
   -.262E+02 -.688E+01 -.269E+02   0.265E+02 0.623E+01 0.285E+02   0.109E+01 -.139E+01 0.182E+01   -.179E-04 -.246E-04 0.148E-04
   0.141E+02 0.172E+02 -.103E+02   -.140E+02 -.175E+02 0.121E+02   -.658E+00 0.214E+00 -.198E+00   0.542E-04 -.530E-04 0.494E-04
   -.116E+02 0.440E+01 0.244E+02   0.118E+02 -.400E+01 -.247E+02   -.684E-01 -.197E+00 -.386E+00   0.287E-04 0.356E-04 0.792E-05
   -.440E+01 0.218E+01 -.141E+02   0.421E+01 -.240E+01 0.135E+02   0.104E+00 0.901E-01 0.660E+00   0.314E-04 0.689E-04 -.755E-04
   -.217E+01 -.348E+01 0.157E+02   0.282E+01 0.380E+01 -.151E+02   -.470E+00 -.216E+00 -.752E+00   0.764E-04 0.102E-03 0.977E-04
   0.235E+02 0.660E+01 0.218E+02   -.241E+02 -.558E+01 -.234E+02   -.865E+00 0.103E+01 -.178E+01   0.197E-04 0.104E-04 0.624E-04
   0.254E+02 0.112E+02 0.542E+02   -.261E+02 -.114E+02 -.557E+02   -.265E+00 -.714E-01 -.123E+01   -.459E-05 0.293E-04 -.504E-05
   0.492E+00 0.123E+02 -.224E+02   0.642E+00 -.115E+02 0.227E+02   -.423E+00 -.287E+00 0.187E+00   0.564E-04 -.102E-03 0.269E-04
   -.822E+01 -.781E+01 0.109E+02   0.802E+01 0.769E+01 -.113E+02   0.131E+00 -.110E-01 0.537E+00   -.582E-04 -.730E-04 0.336E-04
   0.116E+02 -.440E+01 -.244E+02   -.118E+02 0.400E+01 0.247E+02   0.684E-01 0.197E+00 0.386E+00   -.249E-04 -.359E-04 -.701E-05
   -.228E+02 -.143E+02 0.162E+02   0.228E+02 0.149E+02 -.179E+02   0.710E+00 -.581E+00 0.295E+00   0.880E-05 -.805E-04 0.119E-04
   0.262E+02 0.688E+01 0.269E+02   -.265E+02 -.623E+01 -.285E+02   -.109E+01 0.139E+01 -.182E+01   0.212E-04 0.239E-04 -.894E-05
   0.355E+02 0.333E+02 0.576E+01   -.357E+02 -.330E+02 -.570E+01   -.149E+00 -.610E+00 -.121E+00   0.274E-04 0.131E-03 0.510E-05
   0.217E+01 0.348E+01 -.157E+02   -.282E+01 -.380E+01 0.151E+02   0.470E+00 0.216E+00 0.752E+00   -.759E-04 -.102E-03 -.985E-04
   -.332E+02 -.244E+02 0.533E+01   0.338E+02 0.246E+02 -.606E+01   -.145E+00 0.544E+00 0.847E-01   -.131E-05 -.146E-03 -.698E-04
   -.799E+01 0.720E+01 -.245E+02   0.764E+01 -.733E+01 0.251E+02   0.249E+00 0.256E-02 -.168E+00   -.304E-05 0.643E-04 0.129E-05
   -.186E+02 -.122E+02 0.299E+01   0.187E+02 0.132E+02 -.422E+01   0.524E+00 -.741E+00 -.957E-01   -.586E-04 0.258E-04 0.227E-04
[...]
   -.557E-01 -.838E+00 -.340E+02   -.302E+00 0.501E+00 0.343E+02   0.144E+00 0.161E+00 0.183E+00   -.371E-04 0.596E-04 -.397E-04
   -.141E+02 -.172E+02 0.103E+02   0.140E+02 0.175E+02 -.121E+02   0.658E+00 -.214E+00 0.198E+00   -.507E-04 0.529E-04 -.448E-04
   -.261E+02 -.329E+02 0.736E+01   0.256E+02 0.337E+02 -.787E+01   -.525E+00 0.226E+01 -.916E+00   -.230E-04 -.984E-04 0.334E-04
   0.139E+02 0.738E+01 -.126E+02   -.136E+02 -.780E+01 0.118E+02   -.463E+00 -.267E+00 0.210E+01   0.953E-04 -.881E-04 -.255E-04
   0.308E+02 0.181E+02 0.156E+02   -.321E+02 -.194E+02 -.176E+02   0.179E+00 -.634E-02 0.101E+01   -.204E-03 0.585E-04 -.108E-03
   0.615E+02 0.443E+02 -.521E+01   -.617E+02 -.442E+02 0.553E+01   -.819E+00 -.777E+00 -.847E+00   0.170E-04 -.118E-03 -.334E-04
   0.761E+01 -.544E+00 0.187E+01   -.727E+01 0.591E+00 -.130E+01   -.519E+00 -.136E+00 -.720E+00   -.301E-04 -.815E-04 0.193E-04
   -.342E+01 -.786E+01 -.259E+02   0.412E+01 0.911E+01 0.269E+02   -.245E+00 -.672E+00 -.384E+00   0.170E-04 -.823E-04 -.338E-04
   -.230E+02 -.332E+02 0.372E+01   0.228E+02 0.337E+02 -.405E+01   -.500E+00 0.216E+01 -.100E+01   -.394E-04 0.571E-04 -.886E-05
   0.155E+01 -.467E+01 -.745E+01   -.190E+01 0.491E+01 0.769E+01   0.452E+00 -.172E-01 -.918E-01   0.237E-04 0.710E-04 -.630E-04
   0.994E+01 0.131E+02 -.560E+02   -.968E+01 -.135E+02 0.580E+02   -.671E+00 -.357E+00 0.194E+01   -.143E-04 -.112E-03 0.137E-03
   0.308E+02 0.181E+02 0.156E+02   -.321E+02 -.194E+02 -.176E+02   0.179E+00 -.634E-02 0.101E+01   -.204E-03 0.585E-04 -.108E-03
   -.306E+01 0.369E+01 0.472E+01   0.312E+01 -.355E+01 -.416E+01   -.329E+00 -.260E+00 -.837E+00   0.477E-04 0.965E-04 0.660E-04
   -.871E+01 -.462E+01 -.420E+02   0.983E+01 0.546E+01 0.440E+02   -.492E+00 -.417E+00 -.110E+01   -.215E-04 0.678E-04 -.170E-04
   -.108E-01 -.253E-02 0.302E-03   -.174E-12 0.130E-12 0.455E-12   0.999E-15 0.278E-15 -.311E-14   0.202E-05 0.184E-05 -.283E-05

 POSITION                                       TOTAL-FORCE (eV/Angst)
      9.83763      2.09706      6.96696         1.133246      0.950940     -1.010827
     14.95649     11.75269      0.00000         0.999026     -3.010464      1.425562
     13.69137      8.13730      1.15489        -0.736356     -0.264665     -0.643529
     12.42624      4.52191      2.30979         0.272470      0.123749      0.276356
     11.16112      0.90652      3.46468        -0.725526      0.597859      0.460011
      7.93995      0.54761      6.96696         1.093545      1.235329      0.974594
      4.77714      8.29487      6.96696         0.583125     -0.105963      0.162253
      7.36576      5.55488      0.00000         0.626451     -2.716639      1.336086
      6.10063      1.93949      1.15489        -0.508816     -0.423605     -0.852123
      7.36575     10.71972      2.30979         0.183830      0.089353      0.154810
      6.10063      7.10433      3.46468         0.121528      0.123916      0.115118
      4.83551      3.48894      4.61958         0.408940      0.740320     -4.018569
      7.30739      5.19597      6.96696         0.296680      0.320905      0.055748
      6.73320     10.20324      0.00000         1.613542     -2.039946      3.473999
      5.46807      6.58785      1.15489        -0.624242     -0.221095      1.323674
      4.20295      2.97246      2.30979         0.213180      0.175666     -0.550012
      5.46807     11.75269      3.46468         0.067970      0.124815     -0.135240
      4.20295      8.13730      4.61958         0.370080      0.393421     -0.673385
      2.87946      6.74542      6.96696         0.949376      0.281775      2.744684
     11.79369      4.00543      0.00000         1.575963     -2.082452      3.549646
     10.52856      0.39004      1.15489        -0.734504      0.014838      1.436234
     11.79368      9.17027      2.30979         0.510931      0.460715      0.271043
      9.20507      9.32784      8.12185        -0.410217     -0.735729      0.639413
     13.00044      9.84432      6.96696         0.166289      0.684923     -1.268269
     12.36787      4.16300      9.27675        -0.099522     -0.218970     -0.149225
      4.83551      8.65379      0.00000         0.806714     -2.819537      1.401156
      3.57039      5.03840      1.15489        -0.630138     -0.429185     -0.878064
      2.30526      1.42300      2.30979         0.166988      0.049439      0.226241
     14.89812     11.39378      6.96696         1.031651      0.645602      0.525630
      2.30526      6.58784      4.61958        -0.647628      1.660687     -2.775485
     13.00044      9.84432      6.96696         0.166289      0.684923     -1.268269
      9.89600      2.45598      0.00000         0.857110     -2.913806      1.435520
     11.16112     11.23620      1.15489        -0.458415     -0.580786     -0.553446
      9.89600      7.62081      2.30979         0.378665      0.197222      0.325794
      7.93995      0.54761      6.96696         1.093545      1.235329      0.974594
      7.36575      0.39003      4.61958         1.452109      0.430616     -3.973388
      5.40970      3.64651      6.96696        -0.153837      2.431084      3.104637
      1.67271      0.90652      0.00000         1.506300     -2.061324      3.433612
      2.93783      9.68675      1.15489        -0.674967     -0.164322      1.313346
      1.67270      6.07136      2.30979         0.095865      0.122391     -0.443535
     13.05880      2.45597      3.46468        -0.234825     -0.239764     -0.176395
     14.32393     11.23620      4.61958        -0.710694     -0.510938     -0.429382
      7.30738     10.36081      9.27675        -0.353982      1.097828     -0.311261
      9.26344      7.10433      0.00000         1.379096     -2.042534      3.451930
      7.99832      3.48894      1.15489        -0.590006     -0.042864      1.562093
      9.26344     12.26917      2.30979         0.121379      0.196607     -0.675897
      7.99832      8.65378      3.46468        -0.090916     -0.131582      0.040474
      5.40970      8.81136      9.27675         0.182112      0.107137     -0.095087
     11.73531      1.06409     12.74143        -1.506300      2.061324     -3.433612
     13.05880      7.62081      5.77447        -0.949376     -0.281775     -2.744684
      1.61433      3.13003      8.12185         0.710694      0.510938      0.429382
     10.47019      2.61354      9.27675        -0.067970     -0.124815      0.135240
      6.67482      2.09706     10.43164        -0.121379     -0.196607      0.675897
      2.87945      1.58057     11.58653         0.734504     -0.014838     -1.436234
      6.67482      7.26190     12.74143        -1.379096      2.042534     -3.451930
      8.63087      9.17026      5.77447        -0.296680     -0.320905     -0.055748
     10.52856      5.55488      3.46468        -0.182112     -0.107137      0.095087
      6.73319      5.03839      4.61958         0.410217      0.735729     -0.639413
     14.26556      8.29487     10.43164        -0.095865     -0.122391      0.443535
     10.47019      7.77838     11.58653         0.624242      0.221095     -1.323674
[...]
      2.87945     11.91026      9.27675         0.234825      0.239764      0.176395
     11.73531     11.39378     10.43164        -0.213180     -0.175666      0.550012
      7.93994     10.87729     11.58653         0.590006      0.042864     -1.562093
      0.98176      2.61354     12.74143        -0.999026      3.010464     -1.425562
      2.93782      4.52191      5.77447        -0.166289     -0.684923      1.268269
      5.46807      1.42300      5.77447        -1.093545     -1.235329     -0.974594
      1.04014      2.97245      5.77447        -1.031651     -0.645602     -0.525630
      8.57250      3.64651     10.43164        -0.183830     -0.089353     -0.154810
      4.77714      3.13003     11.58653         0.458415      0.580786      0.553446
      8.57250      8.81135     12.74143        -0.626451      2.716639     -1.336086
      3.57039     10.20324      3.46468         0.099522      0.218970      0.149225
     11.10275     10.87729      8.12185        -0.408940     -0.740320      4.018569
      5.46807      1.42300      5.77447        -1.093545     -1.235329     -0.974594
      3.51202      9.84432     10.43164        -0.272470     -0.123749     -0.276356
     12.36787      9.32784     11.58653         0.630138      0.429185      0.878064
    total drift:                               -0.010798     -0.002528      0.000299

  FREE ENERGIE OF THE ION-ELECTRON SYSTEM (eV)
  free  energy   TOTEN  =      -924.94300955 eV

  energy  without entropy=     -924.94116645  energy(sigma->0) =     -924.94208800