 vasp.6.4.3 19Mar24 (build Oct 22 2024 11:23:12) complex

 executed on             LinuxIFC date 2025.06.09  12:28:44

 INCAR:
   SYSTEM = Si and Ge interface calculation
   ISTART = 0
   ICHARG = 2
   LWAVE = .FALSE.
   LREAL = AUTO
   ENCUT = 700
   ENAUG = 900
   ADDGRID = .TRUE.
   LMAXMIX = 6
   LASPH = .TRUE.
   LMIXTAU = .TRUE.
   NCORE = 16
   NELM = 100
   NBANDS = 519
   EDIFF = 1d-7
   AMIX = 0.6
   ISMEAR = 0
   SIGMA = 0.01
   NELECT = 864
   ISPIN = 2
   NUPDOWN = 1
   LVTOT = .FALSE.
   LVHAR = .TRUE.

 POTCAR:    PAW_PBE Si 05Jan2001
 POTCAR:    PAW_PBE Sn 08Apr2002
|           W    W    AA    RRRRR   N    N  II  N    N   GGGG   !!!           |
|           W    W   A  A   R    R  NN   N  II  NN   N  G    G  !!!           |
|           W    W  A    A  R    R  N N  N  II  N N  N  G       !!!           |
|           W WW W  AAAAAA  RRRRR   N  N N  II  N  N N  G  GGG   !            |
|           WW  WW  A    A  R   R   N   NN  II  N   NN  G    G                |
|           W    W  A    A  R    R  N    N  II  N    N   GGGG   !!!           |
|     You use a magnetic or noncollinear calculation, but did not specify     |
|     the initial magnetic moment with the MAGMOM tag. Note that a            |
|     default of 4.63e-3 will be used for all atoms. This ferromagnetic       |
|     setup may break the symmetry of the crystal, in particular it may       |
|     rule out finding an antiferromagnetic solution. Thence, we              |
|     recommend setting the initial magnetic moment manually or verifying     |
|     carefully that this magnetic setup is desired.                          |

 POTCAR:    PAW_PBE Si 05Jan2001
   VRHFIN =Si: s2p2

   TITEL  = PAW_PBE Si 05Jan2001
   POMASS =   28.085; ZVAL   =    4.000    mass and valenz
   ENMAX  =  245.345; ENMIN  =  184.009 eV

 POTCAR:    PAW_PBE Sn 08Apr2002
   VRHFIN =Sn: s2p2

   TITEL  = PAW_PBE Sn 08Apr2002
   POMASS =  118.710; ZVAL   =    4.000    mass and valenz
   ENMAX  =  103.236; ENMIN  =   77.427 eV

 Optimization of the real space projectors (new method)

 maximal supplied QI-value         = 19.84
 optimisation between [QCUT,QGAM] = [ 13.49, 26.99] = [ 50.98,203.92] Ry
 Optimized for a Real-space Cutoff    1.07 Angstroem

   l    n(q)    QCUT    max X(q) W(low)/X(q) W(high)/X(q)  e(spline)
   0      9    13.493   159.560    0.22E-03    0.15E-03    0.72E-07
   0      9    13.493   115.863    0.21E-03    0.15E-03    0.71E-07
   1      8    13.493    88.339    0.15E-03    0.11E-03    0.13E-06
   1      8    13.493    48.592    0.15E-03    0.10E-03    0.13E-06
 Optimization of the real space projectors (new method)

 maximal supplied QI-value         = 12.47
 optimisation between [QCUT,QGAM] = [ 12.47, 27.06] = [ 43.56,205.12] Ry
 Optimized for a Real-space Cutoff    1.58 Angstroem

   l    n(q)    QCUT    max X(q) W(low)/X(q) W(high)/X(q)  e(spline)
   0     13    12.472    14.688    0.45E-04    0.45E-04    0.25E-05
   0     13    12.472     7.308    0.94E-04    0.11E-03    0.61E-05
   1     12    12.472    45.102    0.34E-03    0.14E-03    0.21E-05
   1     12    12.472    30.691    0.31E-03    0.13E-03    0.20E-05
   2     12    12.472     7.156    0.86E-04    0.11E-03    0.17E-05
 WARNING: PSMAXN for non-local potential too small
          PSMAXN should be >   13.5545592237991       NTYP=           2
  PAW_PBE Si 05Jan2001                  :
  PAW_PBE Sn 08Apr2002                  :

 POSCAR: Si+Sn
  positions in direct lattice

 exchange-correlation table for PE
   RHO(1)=    0.500       N(1)  =     2000
   RHO(2)=  100.500       N(2)  =     4000

 ion  position               nearest neighbor table
   1  0.979  0.500  0.000- 115 2.35 122 2.35  97 2.35 213 3.36 171 3.39
   2  0.729  0.500  0.089- 123 2.35  98 2.35 116 2.35  97 2.35
   3  0.479  0.500  0.177- 124 2.35 117 2.35  99 2.35  98 2.35
   4  0.229  0.500  0.266- 118 2.35 100 2.35 125 2.35  99 2.35
   5  0.979  0.500  0.355- 119 2.35 101 2.35 126 2.35 100 2.35
   6  0.729  0.500  0.444- 120 2.35 102 2.35 101 2.35 184 2.99 157 3.23
   7  0.312  0.667  0.000- 128 2.35  73 2.35 121 2.35 204 3.37
   8  0.062  0.667  0.089- 129 2.35 122 2.35  74 2.35  73 2.35
   9  0.812  0.667  0.177- 130 2.35  75 2.35 123 2.35  74 2.35
  10  0.562  0.667  0.266- 131 2.35 124 2.35  76 2.35  75 2.35
  11  0.312  0.667  0.355- 132 2.35  77 2.35 125 2.35  76 2.35
  12  0.062  0.667  0.444-  78 2.35 126 2.35  77 2.35 193 2.56
  13  0.645  0.833  0.000- 110 2.35  79 2.35 127 2.35 210 2.67
  14  0.395  0.833  0.089- 111 2.35  80 2.35  79 2.35 128 2.35
  15  0.145  0.833  0.177- 112 2.35  81 2.35  80 2.35 129 2.35
  16  0.895  0.833  0.266-  82 2.35 113 2.35  81 2.35 130 2.35
  17  0.645  0.833  0.355- 114 2.35  83 2.35 131 2.35  82 2.35
  18  0.395  0.833  0.444- 145 2.27  84 2.35  83 2.35 132 2.35
  19  0.979  0.000  0.000- 165 2.12 109 2.35 134 2.35 103 2.35
  20  0.729  1.000  0.089- 110 2.35 104 2.35 135 2.35 103 2.35
  21  0.479  1.000  0.177- 136 2.35 105 2.35 111 2.35 104 2.35
  22  0.229  1.000  0.266- 106 2.35 112 2.35 137 2.35 105 2.35
  23  0.979  1.000  0.355- 113 2.35 138 2.35 107 2.35 106 2.35
  24  0.729  1.000  0.444- 108 2.35 114 2.35 107 2.35 181 2.49
  25  0.312  0.167  0.000- 207 2.07 140 2.35 133 2.35  85 2.35
  26  0.062  0.167  0.089- 141 2.35  86 2.35 134 2.35  85 2.35
  27  0.812  0.167  0.177- 142 2.35  87 2.35 135 2.35  86 2.35
  28  0.562  0.167  0.266- 143 2.35 136 2.35  88 2.35  87 2.35
  29  0.312  0.167  0.355- 144 2.35 137 2.35  89 2.35  88 2.35
  30  0.062  0.167  0.444-  89 2.35 138 2.35  90 2.35 196 3.06 160 3.11
  31  0.645  0.333  0.000- 116 2.35  91 2.35 139 2.35 180 2.56
  32  0.395  0.333  0.089-  92 2.35 140 2.35 117 2.35  91 2.35
  33  0.145  0.333  0.177- 118 2.35 141 2.35  93 2.35  92 2.35
  34  0.895  0.333  0.266- 119 2.35  94 2.35 142 2.35  93 2.35
  35  0.645  0.333  0.355-  95 2.35 143 2.35 120 2.35  94 2.35
  36  0.395  0.333  0.444- 144 2.35  95 2.35  96 2.35 148 2.82
  37  0.145  0.833  0.000-  80 2.35  73 2.35 109 2.35 201 2.67
  38  0.895  0.833  0.089-  74 2.35 110 2.35  81 2.35 109 2.35
  39  0.645  0.833  0.177-  75 2.35  82 2.35 111 2.35 110 2.35
  40  0.395  0.833  0.266-  76 2.35  83 2.35 111 2.35 112 2.35
  41  0.145  0.833  0.355-  84 2.35 113 2.35  77 2.35 112 2.35
  42  0.895  0.833  0.444- 154 2.27 114 2.35  78 2.35 113 2.35
  43  0.145  0.333  0.000-  85 2.35  92 2.35 115 2.35 171 2.56
  44  0.895  0.333  0.089-  93 2.35  86 2.35 116 2.35 115 2.35
  45  0.645  0.333  0.177-  94 2.35  87 2.35 117 2.35 116 2.35
  46  0.395  0.333  0.266-  95 2.35  88 2.35 118 2.35 117 2.35
  47  0.145  0.333  0.355-  96 2.35  89 2.35 119 2.35 118 2.35
  48  0.895  0.333  0.444-  90 2.35 120 2.35 119 2.35 157 2.82
  49  0.479  0.500  0.000-  98 2.35  91 2.35 121 2.35 204 3.36 180 3.39
  50  0.229  0.500  0.089-  92 2.35  99 2.35 122 2.35 121 2.35
  51  0.979  0.500  0.177- 100 2.35  93 2.35 123 2.35 122 2.35
  52  0.729  0.500  0.266- 124 2.35  94 2.35 101 2.35 123 2.35
  53  0.479  0.500  0.355- 102 2.35  95 2.35 125 2.35 124 2.35
  54  0.229  0.500  0.444-  96 2.35 125 2.35 126 2.35 193 2.99 148 3.23
  55  0.812  0.667  0.000-  74 2.35 127 2.35  97 2.35 213 3.37
  56  0.562  0.667  0.089-  75 2.35 127 2.35 128 2.35  98 2.35
  57  0.312  0.667  0.177-  76 2.35 129 2.35  99 2.35 128 2.35
  58  0.062  0.667  0.266- 100 2.35  77 2.35 129 2.35 130 2.35
  59  0.812  0.667  0.355-  78 2.35 101 2.35 131 2.35 130 2.35
  60  0.562  0.667  0.444- 132 2.35 102 2.35 131 2.35 184 2.56
[...]
 202  0.777  0.524  0.609- 194 2.80 158 2.80 184 2.80 157 2.80
 203  0.527  0.524  0.759- 195 2.80 159 2.80 158 2.80 185 2.80
 204  0.277  0.524  0.909- 121 2.05 186 2.80 159 2.80  49 3.36   7 3.37
 205  0.777  0.190  0.609- 161 2.80 197 2.80 160 2.80 187 2.80
 206  0.527  0.190  0.759- 162 2.80 198 2.80 161 2.80 188 2.80
 207  0.277  0.190  0.909-  25 2.07  85 2.65 162 2.80 189 2.80 133 3.45
 208  0.277  0.857  0.609- 182 2.80 146 2.80 190 2.80 145 2.80
 209  0.027  0.857  0.759- 183 2.80 147 2.80 146 2.80 191 2.80
 210  0.777  0.857  0.909-  13 2.67 192 2.80 147 2.80 109 3.35
 211  0.277  0.524  0.609- 185 2.80 149 2.80 193 2.80 148 2.80
 212  0.027  0.524  0.759- 186 2.80 150 2.80 149 2.80 194 2.80
 213  0.777  0.524  0.909-  97 2.05 195 2.80 150 2.80   1 3.36  55 3.37
 214  0.277  0.190  0.609- 152 2.80 188 2.80 151 2.80 196 2.80
 215  0.027  0.190  0.759- 153 2.80 189 2.80 152 2.80 197 2.80
 216  0.777  0.190  0.909-  67 2.07 139 2.65 198 2.80 153 2.80 103 3.45

  LATTYP: Found a simple orthorhombic cell.
 ALAT       =    13.3031797410
 B/A-ratio  =     1.4142134479
 C/A-ratio  =     1.6271803903

  Lattice vectors:

 A1 = (  13.3031797410,   0.0000000000,   0.0000000000)
 A2 = (   0.0000000000,  18.8135356900,   0.0000000000)
 A3 = (   0.0000000000,   0.0000000000,  21.6466732030)

Analysis of symmetry for initial positions (statically):
 Subroutine PRICEL returns following result:

[...]

   2 primitive cells build up your supercell.

 Routine SETGRP: Setting up the symmetry group for a
 simple orthorhombic supercell.

 Subroutine GETGRP returns: Found  1 space group operations
 (whereof  1 operations were pure point group operations)
 out of a pool of  8 trial point group operations.

The static configuration has the point symmetry C_1 .

Analysis of symmetry for dynamics (positions and initial velocities):
 Subroutine PRICEL returns following result:

[...]

The dynamic configuration has the point symmetry C_1 .

Analysis of structural, dynamic, and magnetic symmetry:
 Subroutine PRICEL returns following result:

  LATTYP: Found a simple orthorhombic cell.
 ALAT       =     6.6515906554
 B/A-ratio  =     2.8284265621
 C/A-ratio  =     3.2543603966

  Lattice vectors:

 A1 = (   6.6515906554,   0.0000000000,   0.0000000000)
 A2 = (   0.0000000000,  18.8135356900,   0.0000000000)
 A3 = (   0.0000000000,   0.0000000000,  21.6466732030)

   2 primitive cells build up your supercell.

 Routine SETGRP: Setting up the symmetry group for a
 simple orthorhombic supercell.

 Subroutine GETGRP returns: Found  1 space group operations
 (whereof  1 operations were pure point group operations)
 out of a pool of  8 trial point group operations.

The overall configuration has the point symmetry C_1 .

 Subroutine INISYM returns: Found  1 space group operations
 (whereof  1 operations are pure point group operations),
 and found     2 'primitive' translations

                                     Primitive cell

  volume of cell :    2708.8633

  direct lattice vectors                    reciprocal lattice vectors
     6.651590655  0.000000000  0.000000000     0.150339979  0.000000000  0.000000000
     0.000000000 18.813535690  0.000000000     0.000000000  0.053153220  0.000000000
     0.000000000  0.000000000 21.646673203     0.000000000  0.000000000  0.046196475

  length of vectors
     6.651590655 18.813535690 21.646673203     0.150339979  0.053153220  0.046196475

  position of ions in fractional coordinates (direct lattice)
     0.957034357  0.499999970  0.000000002
     0.457034326  0.499999911  0.088704117
     0.957033999  0.499999881  0.177408218
     0.457034058  0.499999791  0.266112298
     0.957033641  0.499999732  0.354816407
[...]
     0.000000000  0.000000000 21.646673203     0.000000000  0.000000000  0.046196475

  length of vectors
    13.303179741 18.813535690 21.646673203     0.075169998  0.053153220  0.046196475

 FORCES acting on ions
    electron-ion (+dipol)            ewald-force                    non-local-force                 convergence-correction
   -.173E+02 -.126E+02 0.141E+03   0.177E+02 0.132E+02 -.140E+03   0.347E-01 -.275E+00 -.486E+00   0.401E-04 -.518E-04 0.803E-03
   0.136E+01 0.110E+01 0.848E+02   -.172E+01 -.124E+01 -.846E+02   0.141E+00 0.775E-01 -.147E+00   -.362E-04 -.147E-03 0.541E-03
   0.116E-01 -.264E-01 0.278E+02   0.152E+00 0.112E+00 -.279E+02   -.167E+00 -.102E+00 0.166E+00   0.501E-04 -.108E-03 0.118E-03
   -.527E-01 -.110E+00 -.278E+02   0.913E-01 0.451E-01 0.278E+02   -.655E-01 0.372E-01 -.544E-01   0.131E-04 -.955E-04 -.863E-04
   0.202E+00 0.196E+00 -.857E+02   -.698E+00 -.244E+00 0.854E+02   0.200E+00 -.102E+00 0.354E+00   0.790E-05 -.682E-04 -.458E-03
   -.112E+02 -.438E+01 -.137E+03   0.112E+02 0.439E+01 0.135E+03   0.194E+00 0.213E-01 0.130E+01   0.155E-04 -.416E-04 -.678E-03
   -.117E+02 -.127E+02 0.143E+03   0.118E+02 0.123E+02 -.142E+03   0.580E+00 0.369E+00 -.179E+01   0.611E-04 -.104E-03 0.673E-03
   0.838E+00 0.104E+01 0.842E+02   -.763E+00 -.118E+01 -.844E+02   -.120E+00 -.104E-01 0.167E+00   -.405E-04 -.206E-03 0.537E-03
   -.816E-01 -.167E+00 0.278E+02   0.991E-01 0.104E+00 -.279E+02   -.508E-01 0.298E-01 0.147E+00   0.346E-04 -.111E-03 0.203E-03
   -.608E-01 -.150E+00 -.279E+02   0.954E-01 0.106E+00 0.278E+02   -.514E-01 0.793E-02 0.587E-01   0.155E-04 -.122E-03 -.110E-03
   0.370E+00 0.589E+00 -.866E+02   -.895E+00 -.109E+01 0.860E+02   0.340E+00 0.280E+00 0.775E+00   -.264E-04 -.174E-03 -.463E-03
   -.732E+01 -.164E+02 -.131E+03   0.758E+01 0.156E+02 0.129E+03   0.180E-01 0.114E+01 0.119E+01   0.409E-04 -.966E-04 -.625E-03
   -.356E+01 -.891E+01 0.136E+03   0.367E+01 0.755E+01 -.134E+03   0.253E+00 0.100E+01 -.188E+01   0.270E-04 0.771E-04 0.630E-03
   0.404E+00 0.704E+00 0.857E+02   -.329E+00 -.788E+00 -.855E+02   -.372E-02 0.372E-01 -.198E+00   -.119E-04 0.708E-04 0.533E-03
   -.567E-01 -.970E-01 0.279E+02   0.609E-01 0.737E-01 -.278E+02   -.151E-01 0.925E-02 -.233E-01   0.220E-04 0.893E-04 0.239E-03
   -.181E+00 -.122E+00 -.280E+02   0.125E+00 0.144E+00 0.278E+02   -.358E-01 -.504E-01 0.278E+00   0.131E-04 0.882E-04 -.123E-03
   0.124E+01 0.135E+01 -.861E+02   -.121E+01 -.161E+01 0.861E+02   -.105E+00 0.213E+00 0.185E+00   -.127E-04 0.865E-04 -.472E-03
   -.139E+02 -.250E+02 -.122E+03   0.140E+02 0.244E+02 0.122E+03   0.181E+00 0.288E+01 -.307E+01   0.404E-04 0.149E-03 -.622E-03
   -.319E+01 -.196E+01 0.115E+03   0.259E+01 0.158E+01 -.114E+03   -.191E+01 -.124E+01 0.699E+01   -.134E-03 0.155E-03 0.783E-03
   0.698E+00 0.624E+00 0.865E+02   -.730E+00 -.462E+00 -.865E+02   0.955E-01 -.602E-01 -.140E+00   0.854E-04 0.221E-03 0.457E-03
   -.631E-01 0.920E-01 0.279E+02   0.788E-01 0.522E-01 -.278E+02   -.496E-01 -.154E+00 -.185E+00   -.297E-05 0.168E-03 0.211E-03
   -.142E+00 0.414E-01 -.281E+02   0.148E+00 0.123E+00 0.278E+02   -.104E+00 -.176E+00 0.355E+00   0.124E-04 0.152E-03 -.101E-03
   0.143E+01 0.143E+01 -.859E+02   -.143E+01 -.128E+01 0.859E+02   0.160E-02 -.174E-02 0.724E-01   0.495E-04 0.160E-03 -.408E-03
   -.227E+02 -.192E+02 -.132E+03   0.213E+02 0.185E+02 0.130E+03   0.244E+01 0.188E+01 0.630E+00   -.450E-04 0.203E-03 -.722E-03
   -.219E+02 -.235E+01 0.112E+03   0.218E+02 0.204E+01 -.111E+03   0.239E+01 -.139E+01 0.829E+01   0.895E-05 -.117E-03 0.860E-03
   0.907E+00 0.306E+00 0.868E+02   -.138E+01 -.522E+00 -.866E+02   0.332E+00 0.694E-01 -.417E+00   0.239E-06 0.593E-04 0.588E-03
   -.183E+00 -.142E+00 0.278E+02   0.140E+00 0.606E-01 -.277E+02   -.153E-01 0.636E-02 -.142E+00   0.860E-05 0.620E-04 0.148E-03
   -.168E+00 -.740E-01 -.278E+02   0.136E+00 0.626E-01 0.278E+02   -.288E-01 -.437E-01 -.661E-02   0.404E-04 0.462E-04 -.131E-03
   0.108E+01 0.270E+00 -.856E+02   -.151E+01 -.441E+00 0.853E+02   0.343E+00 0.181E+00 0.238E+00   -.482E-04 -.181E-04 -.514E-03
   -.173E+02 -.703E+01 -.141E+03   0.159E+02 0.694E+01 0.138E+03   0.192E+01 0.107E+01 0.301E+01   0.741E-04 -.553E-04 -.711E-03
   -.251E+02 -.952E+01 0.132E+03   0.250E+02 0.918E+01 -.130E+03   0.124E+01 0.488E+00 -.583E+00   0.435E-04 0.134E-04 0.843E-03
   0.144E+01 0.539E+00 0.859E+02   -.192E+01 -.904E+00 -.858E+02   0.290E+00 0.174E+00 -.299E+00   -.175E-04 0.419E-05 0.602E-03
   -.220E+00 -.108E+00 0.279E+02   0.175E+00 0.907E-01 -.278E+02   -.304E-01 -.207E-01 -.122E+00   0.238E-04 0.854E-06 0.160E-03
   -.199E+00 -.851E-01 -.278E+02   0.109E+00 0.236E-01 0.279E+02   0.849E-04 0.205E-01 -.100E+00   0.148E-04 0.762E-05 -.185E-03
   0.113E+01 -.244E-01 -.845E+02   -.110E+01 0.877E-01 0.850E+02   -.188E+00 -.511E-01 -.461E+00   0.710E-05 -.862E-05 -.495E-03
   -.139E+02 0.224E+00 -.139E+03   0.126E+02 0.373E+00 0.137E+03   0.959E+00 0.700E-01 0.206E+01   0.775E-05 0.440E-04 -.668E-03
   -.356E+01 -.891E+01 0.136E+03   0.367E+01 0.755E+01 -.134E+03   0.253E+00 0.100E+01 -.188E+01   0.293E-04 0.783E-04 0.628E-03
   0.403E+00 0.703E+00 0.857E+02   -.329E+00 -.788E+00 -.855E+02   -.372E-02 0.372E-01 -.198E+00   -.113E-04 0.697E-04 0.533E-03
   -.567E-01 -.972E-01 0.279E+02   0.609E-01 0.738E-01 -.278E+02   -.151E-01 0.925E-02 -.233E-01   0.207E-04 0.891E-04 0.240E-03
   -.181E+00 -.122E+00 -.280E+02   0.125E+00 0.145E+00 0.278E+02   -.358E-01 -.504E-01 0.278E+00   0.133E-04 0.890E-04 -.124E-03
   0.124E+01 0.135E+01 -.861E+02   -.121E+01 -.161E+01 0.861E+02   -.105E+00 0.213E+00 0.185E+00   -.132E-04 0.858E-04 -.471E-03
   -.139E+02 -.250E+02 -.122E+03   0.140E+02 0.244E+02 0.122E+03   0.181E+00 0.288E+01 -.307E+01   0.405E-04 0.144E-03 -.615E-03
   -.251E+02 -.952E+01 0.132E+03   0.250E+02 0.918E+01 -.130E+03   0.124E+01 0.488E+00 -.583E+00   0.422E-04 0.100E-04 0.840E-03
   0.144E+01 0.539E+00 0.859E+02   -.192E+01 -.904E+00 -.858E+02   0.290E+00 0.174E+00 -.299E+00   -.159E-04 0.357E-05 0.603E-03
   -.220E+00 -.108E+00 0.279E+02   0.175E+00 0.907E-01 -.278E+02   -.304E-01 -.207E-01 -.122E+00   0.264E-04 0.256E-05 0.160E-03
   -.199E+00 -.851E-01 -.278E+02   0.109E+00 0.236E-01 0.279E+02   0.849E-04 0.205E-01 -.100E+00   0.137E-04 0.974E-05 -.184E-03
   0.113E+01 -.244E-01 -.845E+02   -.110E+01 0.876E-01 0.850E+02   -.188E+00 -.511E-01 -.461E+00   0.679E-05 -.109E-04 -.494E-03
   -.139E+02 0.224E+00 -.139E+03   0.126E+02 0.373E+00 0.137E+03   0.959E+00 0.700E-01 0.206E+01   0.961E-05 0.393E-04 -.672E-03
   -.173E+02 -.126E+02 0.141E+03   0.177E+02 0.132E+02 -.140E+03   0.347E-01 -.275E+00 -.486E+00   0.409E-04 -.510E-04 0.804E-03
   0.136E+01 0.110E+01 0.848E+02   -.172E+01 -.124E+01 -.846E+02   0.141E+00 0.775E-01 -.147E+00   -.367E-04 -.147E-03 0.542E-03
   0.116E-01 -.264E-01 0.278E+02   0.152E+00 0.112E+00 -.279E+02   -.167E+00 -.102E+00 0.166E+00   0.496E-04 -.108E-03 0.117E-03
   -.527E-01 -.110E+00 -.278E+02   0.913E-01 0.451E-01 0.278E+02   -.655E-01 0.372E-01 -.544E-01   0.113E-04 -.973E-04 -.895E-04
   0.202E+00 0.196E+00 -.857E+02   -.698E+00 -.244E+00 0.854E+02   0.200E+00 -.102E+00 0.354E+00   0.410E-05 -.678E-04 -.457E-03
   -.112E+02 -.438E+01 -.137E+03   0.112E+02 0.439E+01 0.135E+03   0.194E+00 0.213E-01 0.130E+01   0.189E-04 -.412E-04 -.677E-03
   -.117E+02 -.127E+02 0.143E+03   0.118E+02 0.123E+02 -.142E+03   0.580E+00 0.369E+00 -.179E+01   0.608E-04 -.106E-03 0.673E-03
   0.838E+00 0.104E+01 0.842E+02   -.763E+00 -.118E+01 -.844E+02   -.120E+00 -.104E-01 0.167E+00   -.402E-04 -.206E-03 0.537E-03
   -.816E-01 -.167E+00 0.278E+02   0.991E-01 0.104E+00 -.279E+02   -.508E-01 0.298E-01 0.147E+00   0.350E-04 -.111E-03 0.204E-03
   -.608E-01 -.150E+00 -.279E+02   0.954E-01 0.106E+00 0.278E+02   -.514E-01 0.793E-02 0.587E-01   0.165E-04 -.121E-03 -.109E-03
   0.370E+00 0.589E+00 -.866E+02   -.895E+00 -.109E+01 0.860E+02   0.340E+00 0.280E+00 0.775E+00   -.246E-04 -.170E-03 -.462E-03
   -.732E+01 -.164E+02 -.131E+03   0.758E+01 0.156E+02 0.129E+03   0.180E-01 0.114E+01 0.119E+01   0.417E-04 -.985E-04 -.625E-03
[...]
   -.228E+00 -.346E+00 0.244E+02   0.294E+00 0.207E+00 -.242E+02   -.832E-01 0.113E+00 -.256E+00   0.504E-05 -.144E-04 -.342E-04
   0.159E+02 0.115E+02 0.143E+03   -.160E+02 -.114E+02 -.143E+03   -.252E+01 -.192E+01 -.989E+01   0.127E-04 -.712E-04 0.417E-03
   0.187E+01 0.268E+00 -.737E+02   -.148E+01 -.899E+00 0.732E+02   -.404E+00 0.573E+00 0.788E+00   -.246E-04 0.530E-05 -.236E-03
   0.252E+00 0.113E+00 0.238E+02   -.181E+00 -.122E+00 -.239E+02   -.107E+00 -.131E+00 -.665E-01   -.572E-05 0.901E-05 -.334E-04
   -.315E+01 -.844E+01 0.150E+03   0.409E+01 0.904E+01 -.150E+03   -.266E+01 0.130E+01 -.916E+01   0.785E-05 -.262E-04 0.428E-03
   0.404E+00 0.114E+01 -.783E+02   -.773E+00 -.664E+00 0.779E+02   0.386E+00 -.575E+00 0.819E+00   0.558E-05 0.893E-05 -.143E-03
   0.754E-01 0.174E+00 0.248E+02   -.112E+00 -.836E-01 -.247E+02   0.104E-01 0.744E-02 -.145E+00   -.160E-04 -.221E-06 -.597E-04
   -.819E+01 -.370E+01 0.116E+03   0.784E+01 0.362E+01 -.117E+03   0.869E+00 0.472E+00 0.115E+01   0.315E-04 0.555E-04 0.316E-03
   -.197E+01 -.199E+01 -.755E+02   0.228E+01 0.161E+01 0.753E+02   -.234E+00 0.250E+00 0.510E+00   0.114E-04 -.207E-04 -.236E-03
   -.228E+00 -.346E+00 0.244E+02   0.294E+00 0.207E+00 -.242E+02   -.832E-01 0.113E+00 -.256E+00   0.659E-05 -.161E-04 -.330E-04
   0.159E+02 0.115E+02 0.143E+03   -.160E+02 -.114E+02 -.143E+03   -.252E+01 -.192E+01 -.989E+01   0.148E-04 -.712E-04 0.418E-03
   0.187E+01 0.268E+00 -.737E+02   -.148E+01 -.899E+00 0.732E+02   -.404E+00 0.573E+00 0.788E+00   -.221E-04 0.768E-05 -.236E-03
   0.252E+00 0.113E+00 0.238E+02   -.181E+00 -.122E+00 -.239E+02   -.107E+00 -.131E+00 -.665E-01   -.172E-05 0.973E-05 -.304E-04
   -.315E+01 -.844E+01 0.150E+03   0.409E+01 0.904E+01 -.150E+03   -.266E+01 0.130E+01 -.916E+01   0.114E-04 -.249E-04 0.425E-03
   0.325E+00 0.422E+00 -.205E+02   -.444E-13 -.227E-12 0.540E-12   -.222E+00 -.555E+00 0.205E+02   -.181E-04 -.126E-04 0.218E-02

 POSITION                                       TOTAL-FORCE (eV/Angst)
     13.01739      9.40677      0.00000         0.425739      0.369362     -0.274065
      9.69159      9.40677      1.92015        -0.219925     -0.060999      0.006138
      6.36580      9.40677      3.84030        -0.003734     -0.015134      0.042360
      3.04000      9.40676      5.76045        -0.027442     -0.027560     -0.039282
     13.01739      9.40676      7.68059        -0.295641     -0.149465      0.108034
      9.69159      9.40676      9.60074         0.204786      0.033550     -0.127487
      4.14860     12.54236      0.00000         0.704174     -0.038036     -0.606686
      0.82281     12.54236      1.92015        -0.045161     -0.147506     -0.037033
     10.80019     12.54236      3.84030        -0.033801     -0.032545      0.031161
      7.47440     12.54235      5.76045        -0.017259     -0.035798      0.001522
      4.14860     12.54235      7.68060        -0.185448     -0.220507      0.210106
      0.82280     12.54235      9.60074         0.269748      0.280728     -1.096339
      8.58300     15.67795      0.00000         0.361576     -0.348685      0.001020
      5.25720     15.67795      1.92015         0.070044     -0.046204     -0.026635
      1.93141     15.67795      3.84030        -0.011339     -0.013336      0.005688
     11.90879     15.67794      5.76045        -0.092388     -0.027097      0.062420
      8.58299     15.67794      7.68060        -0.074219     -0.047808      0.172227
      5.25720     15.67794      9.60074         0.256164      2.253296     -3.787175
     13.01739      0.00000      0.00000        -2.512741     -1.616262      7.732784
      9.69159     18.81353      1.92015         0.063344      0.102447     -0.057062
      6.36580     18.81353      3.84030        -0.034436     -0.008652     -0.044227
      3.04000     18.81353      5.76045        -0.097872     -0.011194      0.065939
     13.01739     18.81353      7.68060         0.003297      0.148612      0.045269
      9.69159     18.81353      9.60074         1.063624      1.163911     -1.126895
      4.14860      3.13559      0.00000         2.254345     -1.695008      9.736615
      0.82281      3.13559      1.92015        -0.141730     -0.145142     -0.196080
     10.80019      3.13559      3.84030        -0.058752     -0.074420     -0.056944
      7.47440      3.13559      5.76045        -0.061068     -0.054458      0.016581
      4.14860      3.13558      7.68060        -0.086196      0.010886      0.018216
      0.82280      3.13558      9.60074         0.518169      0.980467      0.176899
      8.58300      6.27118      0.00000         1.145492      0.152095      1.048634
      5.25720      6.27118      1.92015        -0.188750     -0.191261     -0.162341
      1.93141      6.27118      3.84030        -0.076351     -0.037042     -0.019027
     11.90879      6.27118      5.76045        -0.089699     -0.040369     -0.011058
      8.58299      6.27117      7.68060        -0.159049      0.012739      0.053435
      5.25720      6.27117      9.60074        -0.317397      0.667277      0.310181
      1.93141     15.67795      0.00000         0.361576     -0.348685      0.001020
     11.90879     15.67794      1.92015         0.070044     -0.046204     -0.026635
      8.58300     15.67794      3.84030        -0.011339     -0.013336      0.005688
      5.25720     15.67794      5.76045        -0.092388     -0.027097      0.062420
      1.93140     15.67794      7.68060        -0.074219     -0.047808      0.172227
     11.90879     15.67794      9.60074         0.256164      2.253296     -3.787175
      1.93141      6.27118      0.00000         1.145492      0.152095      1.048634
     11.90879      6.27118      1.92015        -0.188750     -0.191261     -0.162341
      8.58300      6.27118      3.84030        -0.076351     -0.037042     -0.019027
      5.25720      6.27117      5.76045        -0.089699     -0.040369     -0.011058
      1.93140      6.27117      7.68060        -0.159049      0.012739      0.053435
     11.90879      6.27117      9.60074        -0.317397      0.667277      0.310181
      6.36580      9.40677      0.00000         0.425739      0.369362     -0.274065
      3.04001      9.40677      1.92015        -0.219925     -0.060999      0.006138
     13.01739      9.40677      3.84030        -0.003734     -0.015134      0.042360
      9.69159      9.40676      5.76045        -0.027442     -0.027560     -0.039282
      6.36580      9.40676      7.68060        -0.295641     -0.149465      0.108034
      3.04000      9.40676      9.60074         0.204786      0.033550     -0.127487
     10.80020     12.54236      0.00000         0.704174     -0.038036     -0.606686
      7.47440     12.54236      1.92015        -0.045161     -0.147506     -0.037033
      4.14860     12.54236      3.84030        -0.033801     -0.032545      0.031161
      0.82281     12.54235      5.76045        -0.017259     -0.035798      0.001522
     10.80019     12.54235      7.68060        -0.185448     -0.220507      0.210106
      7.47439     12.54235      9.60074         0.269748      0.280728     -1.096339
[...]
     10.33183      9.85112     13.19026         0.076901     -0.129155      0.299853
      7.00603      9.85112     16.43486        -0.017914     -0.025517     -0.044437
      3.68024      9.85112     19.67946        -2.577972     -1.849592     -9.822179
     10.33183      3.57994     13.19026        -0.009550     -0.056981      0.235215
      7.00603      3.57994     16.43486        -0.036381     -0.138839     -0.088289
      3.68024      3.57994     19.67946        -1.711307      1.900609     -9.370307
      3.68024     16.12230     13.19026         0.016395     -0.099383      0.458289
      0.35445     16.12230     16.43486        -0.026846      0.098445     -0.084306
     10.33183     16.12230     19.67946         0.519642      0.390532      1.010539
      3.68024      9.85112     13.19026         0.076901     -0.129155      0.299853
      0.35445      9.85112     16.43486        -0.017914     -0.025517     -0.044437
     10.33183      9.85112     19.67946        -2.577972     -1.849592     -9.822179
      3.68024      3.57994     13.19026        -0.009550     -0.056981      0.235215
      0.35445      3.57994     16.43486        -0.036381     -0.138839     -0.088289
     10.33183      3.57994     19.67946        -1.711307      1.900609     -9.370307
    total drift:                                0.102633     -0.132710      0.063268

  FREE ENERGIE OF THE ION-ELECTRON SYSTEM (eV)
  free  energy   TOTEN  =      -995.08701641 eV

  energy  without entropy=     -995.08654269  energy(sigma->0) =     -995.08677955