 vasp.6.4.3 19Mar24 (build Oct 22 2024 11:23:12) complex

 executed on             LinuxIFC date 2025.06.08  18:49:09

 INCAR:
   SYSTEM = Si and Ge interface calculation
   ISTART = 0
   ICHARG = 2
   LWAVE = .FALSE.
   LREAL = AUTO
   ENCUT = 700
   ENAUG = 900
   ADDGRID = .TRUE.
   LMAXMIX = 6
   LASPH = .TRUE.
   LMIXTAU = .TRUE.
   NCORE = 16
   NELM = 100
   NBANDS = 375
   EDIFF = 1d-7
   AMIX = 0.6
   ISMEAR = 0
   SIGMA = 0.01
   NELECT = 624
   ISPIN = 2
   NUPDOWN = 1
   LVTOT = .FALSE.
   LVHAR = .TRUE.

 POTCAR:    PAW_PBE Si 05Jan2001
 POTCAR:    PAW_PBE Ge 05Jan2001
|           W    W    AA    RRRRR   N    N  II  N    N   GGGG   !!!           |
|           W    W   A  A   R    R  NN   N  II  NN   N  G    G  !!!           |
|           W    W  A    A  R    R  N N  N  II  N N  N  G       !!!           |
|           W WW W  AAAAAA  RRRRR   N  N N  II  N  N N  G  GGG   !            |
|           WW  WW  A    A  R   R   N   NN  II  N   NN  G    G                |
|           W    W  A    A  R    R  N    N  II  N    N   GGGG   !!!           |
|     You use a magnetic or noncollinear calculation, but did not specify     |
|     the initial magnetic moment with the MAGMOM tag. Note that a            |
|     default of 6.41e-3 will be used for all atoms. This ferromagnetic       |
|     setup may break the symmetry of the crystal, in particular it may       |
|     rule out finding an antiferromagnetic solution. Thence, we              |
|     recommend setting the initial magnetic moment manually or verifying     |
|     carefully that this magnetic setup is desired.                          |

 POTCAR:    PAW_PBE Si 05Jan2001
   VRHFIN =Si: s2p2

   TITEL  = PAW_PBE Si 05Jan2001
   POMASS =   28.085; ZVAL   =    4.000    mass and valenz
   ENMAX  =  245.345; ENMIN  =  184.009 eV

 POTCAR:    PAW_PBE Ge 05Jan2001
   VRHFIN =Ge: s2p2

   TITEL  = PAW_PBE Ge 05Jan2001
   POMASS =   72.610; ZVAL   =    4.000    mass and valenz
   ENMAX  =  173.807; ENMIN  =  130.355 eV

 Optimization of the real space projectors (new method)

 maximal supplied QI-value         = 19.84
 optimisation between [QCUT,QGAM] = [ 13.49, 26.99] = [ 50.98,203.92] Ry
 Optimized for a Real-space Cutoff    1.07 Angstroem

   l    n(q)    QCUT    max X(q) W(low)/X(q) W(high)/X(q)  e(spline)
   0      9    13.493   159.560    0.22E-03    0.15E-03    0.72E-07
   0      9    13.493   115.863    0.21E-03    0.15E-03    0.71E-07
   1      8    13.493    88.339    0.15E-03    0.11E-03    0.13E-06
   1      8    13.493    48.592    0.15E-03    0.10E-03    0.13E-06
 Optimization of the real space projectors (new method)

 maximal supplied QI-value         = 16.25
 optimisation between [QCUT,QGAM] = [ 13.49, 26.98] = [ 50.95,203.80] Ry
 Optimized for a Real-space Cutoff    1.25 Angstroem

   l    n(q)    QCUT    max X(q) W(low)/X(q) W(high)/X(q)  e(spline)
   0     10    13.489    65.336    0.91E-04    0.11E-03    0.34E-06
   0     10    13.489    52.220    0.89E-04    0.11E-03    0.34E-06
   1     10    13.489    36.409    0.22E-03    0.27E-03    0.14E-06
   1     10    13.489    21.334    0.21E-03    0.27E-03    0.14E-06
   2      9    13.489     4.673    0.11E-03    0.12E-03    0.19E-06
  PAW_PBE Si 05Jan2001                  :
  PAW_PBE Ge 05Jan2001                  :

 POSCAR: Si+Ge
  positions in direct lattice

 exchange-correlation table for PE
   RHO(1)=    0.500       N(1)  =     2000
   RHO(2)=  100.500       N(2)  =     4000

 ion  position               nearest neighbor table
   1  0.000  0.994  0.000- 114 0.91 131 1.96  28 2.35 106 2.35 141 2.86
   2  0.000  0.827  0.268- 106 2.35  46 2.35  29 2.35 107 2.35 156 2.85
   3  0.000  0.661  0.537- 151 2.00 108 2.35  47 2.35  30 2.35 107 2.35
   4  0.333  0.994  0.000- 119 1.52  31 2.35 100 2.35 155 2.86
   5  0.333  0.827  0.268- 100 2.35  49 2.35  32 2.35 101 2.35
   6  0.333  0.661  0.537- 122 2.26 102 2.35  50 2.35  33 2.35 101 2.35
   7  0.667  0.994  0.000- 144 1.54 148 1.96  34 2.35 103 2.35 126 2.87
   8  0.667  0.827  0.268-  52 2.35 103 2.35  35 2.35 104 2.35
   9  0.667  0.661  0.537- 105 2.35  53 2.35  36 2.35 104 2.35 127 2.42 139 2.48
  10  0.000  0.327  0.000- 150 0.85 143 1.94  88 2.35  37 2.35 123 2.84
  11  0.000  0.161  0.268-  38 2.35  28 2.35  88 2.35  89 2.35
  12  0.000  0.994  0.537-  90 2.35  39 2.35  29 2.35  89 2.35 109 2.39
  13  0.333  0.327  0.000- 113 1.59  40 2.35  82 2.35 155 2.78
  14  0.333  0.161  0.268-  41 2.35  31 2.35  82 2.35  83 2.35
  15  0.333  0.994  0.537-  84 2.35  42 2.35  32 2.35  83 2.35 134 2.62
  16  0.667  0.327  0.000- 138 1.61 118 1.94  43 2.35  85 2.35 126 2.79
  17  0.667  0.161  0.268-  44 2.35  34 2.35  85 2.35  86 2.35 126 2.83
  18  0.667  0.994  0.537- 121 1.54  45 2.35  87 2.35  35 2.35  86 2.35
  19  0.000  0.661  0.000- 120 2.07 156 2.15  97 2.35  46 2.35 125 2.71 137 2.77 117 2.94
  20  0.000  0.494  0.268-  98 2.35  37 2.35  47 2.35  97 2.35 120 2.86
  21  0.000  0.327  0.537-  99 2.35  48 2.35  38 2.35  98 2.35 115 2.44
  22  0.333  0.661  0.000- 149 0.75  91 2.35  49 2.35 122 2.85 142 2.93
  23  0.333  0.494  0.268-  92 2.35  40 2.35  50 2.35  91 2.35
  24  0.333  0.327  0.537-  93 2.35  51 2.35  41 2.35  92 2.35 140 2.66
  25  0.667  0.661  0.000- 132 0.80  94 2.35  52 2.35 154 2.71 112 2.77
  26  0.667  0.494  0.268-  95 2.35  43 2.35  53 2.35  94 2.35
  27  0.667  0.327  0.537- 133 1.50  96 2.35  54 2.35  44 2.35  95 2.35
  28  0.083  0.077  0.134- 131 2.15  11 2.35   1 2.35  55 2.35  56 2.35 114 2.44
  29  0.083  0.911  0.402-   2 2.35  56 2.35  12 2.35  57 2.35
  30  0.083  0.744  0.671- 117 2.04  57 2.35   3 2.35 137 2.78
  31  0.417  0.077  0.134-  14 2.35  58 2.35  59 2.35   4 2.35 155 2.66
  32  0.417  0.911  0.402-  59 2.35   5 2.35  15 2.35  60 2.35
  33  0.417  0.744  0.671- 146 1.96  60 2.35   6 2.35 142 2.70 122 2.79
  34  0.750  0.077  0.134- 126 2.03  17 2.35   7 2.35  61 2.35  62 2.35 148 2.77
  35  0.750  0.911  0.402-   8 2.35  62 2.35  18 2.35  63 2.35
  36  0.750  0.744  0.671- 139 1.63 112 2.13   9 2.35  63 2.35 129 2.63 151 2.92
  37  0.083  0.411  0.134-  65 2.35  20 2.35  10 2.35  64 2.35 143 2.86 125 2.92
  38  0.083  0.244  0.402-  11 2.35  65 2.35  66 2.35  21 2.35
  39  0.083  0.077  0.671- 111 2.09  12 2.35  66 2.35 131 2.76
  40  0.417  0.411  0.134- 113 2.26  68 2.35  23 2.35  67 2.35  13 2.35 130 2.97
  41  0.417  0.244  0.402-  14 2.35  68 2.35  69 2.35  24 2.35
  42  0.417  0.077  0.671- 116 1.94  69 2.35  15 2.35 136 2.74 128 2.83
  43  0.750  0.411  0.134- 138 1.47  26 2.35  16 2.35  71 2.35  70 2.35
  44  0.750  0.244  0.402-  17 2.35  71 2.35  27 2.35  72 2.35
  45  0.750  0.077  0.671- 121 1.60 148 2.10  18 2.35  72 2.35 141 2.61 145 2.96
  46  0.083  0.744  0.134- 137 2.18   2 2.35  73 2.35  19 2.35  74 2.35 156 2.46
  47  0.083  0.577  0.402-  74 2.35  20 2.35   3 2.35  75 2.35
  48  0.083  0.411  0.671- 147 1.55  75 2.35  21 2.35 115 2.82
  49  0.417  0.744  0.134-   5 2.35  76 2.35  77 2.35  22 2.35 149 2.62
  50  0.417  0.577  0.402-  77 2.35  23 2.35   6 2.35  78 2.35
  51  0.417  0.411  0.671-  78 2.35  24 2.35 130 2.36 140 2.46 152 2.71 110 2.77 113 2.85
  52  0.750  0.744  0.134- 132 1.97   8 2.35  25 2.35  79 2.35  80 2.35 112 2.79
  53  0.750  0.577  0.402-  26 2.35   9 2.35  80 2.35  81 2.35
  54  0.750  0.411  0.671-  27 2.35  81 2.35 133 2.48 127 2.54 115 2.61 118 2.83 154 2.89
  55  0.167  0.161  0.000- 111 2.08 131 2.34  82 2.35  28 2.35 143 2.41
  56  0.167  0.994  0.268- 100 2.35  29 2.35  83 2.35  28 2.35
  57  0.167  0.827  0.537-  30 2.35  84 2.35 101 2.35  29 2.35 134 2.99
  58  0.500  0.161  0.000- 136 1.34  31 2.35  85 2.35 155 2.46
  59  0.500  0.994  0.268-  32 2.35 103 2.35  31 2.35  86 2.35
  60  0.500  0.827  0.537- 146 2.15  33 2.35  87 2.35 104 2.35  32 2.35 139 3.01
  61  0.833  0.161  0.000- 126 1.92  88 2.35  34 2.35 148 2.81 118 2.87 141 2.94 114 2.94 123 2.99
                           150 2.99
  62  0.833  0.994  0.268- 106 2.35  89 2.35  35 2.35  34 2.35
  63  0.833  0.827  0.537- 109 2.32  36 2.35  90 2.35 107 2.35  35 2.35 129 2.88
  64  0.167  0.494  0.000- 125 1.41  37 2.35  91 2.35 147 2.46
  65  0.167  0.327  0.268-  37 2.35  82 2.35  38 2.35  92 2.35
  66  0.167  0.161  0.537-  39 2.35  83 2.35  93 2.35  38 2.35 128 2.65 111 2.75
  67  0.500  0.494  0.000- 130 1.88  40 2.35  94 2.35 110 2.78 113 2.79
  68  0.500  0.327  0.268-  40 2.35  41 2.35  85 2.35  95 2.35
  69  0.500  0.161  0.537-  42 2.35  86 2.35  41 2.35  96 2.35 116 2.86 152 2.92
  70  0.833  0.494  0.000- 154 2.11 135 2.27 120 2.27 138 2.33  43 2.35  97 2.35
  71  0.833  0.327  0.268-  88 2.35  43 2.35  98 2.35  44 2.35
  72  0.833  0.161  0.537- 145 1.85  45 2.35  89 2.35  99 2.35  44 2.35
  73  0.167  0.827  0.000- 137 1.37 100 2.35  46 2.35 153 2.50
  74  0.167  0.661  0.268-  91 2.35 101 2.35  47 2.35  46 2.35
  75  0.167  0.494  0.537-  48 2.35  92 2.35 102 2.35  47 2.35 140 2.95
  76  0.500  0.827  0.000- 124 1.94  49 2.35 103 2.35 146 2.76 119 2.83 142 2.99
  77  0.500  0.661  0.268-  94 2.35  50 2.35  49 2.35 104 2.35
  78  0.500  0.494  0.537- 110 2.18  51 2.35  95 2.35 105 2.35  50 2.35 127 3.03
  79  0.833  0.827  0.000- 112 2.08 129 2.25 156 2.25 106 2.35  52 2.35 144 2.37
  80  0.833  0.661  0.268-  97 2.35 107 2.35  53 2.35  52 2.35
  81  0.833  0.494  0.537- 115 2.27  98 2.35  54 2.35 108 2.35  53 2.35 135 2.90
  82  0.250  0.244  0.134-  65 2.35  14 2.35  55 2.35  13 2.35 155 2.95
  83  0.250  0.077  0.402-  14 2.35  56 2.35  66 2.35  15 2.35
  84  0.250  0.911  0.671- 134 0.75 153 2.34  15 2.35  57 2.35
  85  0.583  0.244  0.134-  17 2.35  16 2.35  68 2.35  58 2.35 126 2.87
  86  0.583  0.077  0.402-  17 2.35  59 2.35  69 2.35  18 2.35
  87  0.583  0.911  0.671- 146 2.34  18 2.35  60 2.35 139 2.35 116 2.41 121 2.42 124 2.48
  88  0.917  0.244  0.134- 150 1.73  71 2.35  11 2.35  10 2.35  61 2.35
  89  0.917  0.077  0.402-  11 2.35  62 2.35  72 2.35  12 2.35
  90  0.917  0.911  0.671- 109 0.12  12 2.35  63 2.35 129 2.47 141 2.53
  91  0.250  0.577  0.134-  74 2.35  22 2.35  23 2.35  64 2.35 149 2.99
  92  0.250  0.411  0.402-  23 2.35  75 2.35  65 2.35  24 2.35
  93  0.250  0.244  0.671- 128 1.52  24 2.35  66 2.35 111 2.68 140 2.86
  94  0.583  0.577  0.134-  77 2.35  25 2.35  26 2.35  67 2.35 132 2.91
  95  0.583  0.411  0.402-  26 2.35  78 2.35  68 2.35  27 2.35
  96  0.583  0.244  0.671- 152 1.41 133 1.44  27 2.35  69 2.35 136 2.81
  97  0.917  0.577  0.134- 120 1.70  80 2.35  19 2.35  20 2.35  70 2.35
  98  0.917  0.411  0.402-  20 2.35  81 2.35  71 2.35  21 2.35 115 2.72
  99  0.917  0.244  0.671- 145 1.32 123 1.62  21 2.35  72 2.35 115 2.76
 100  0.250  0.911  0.134-  56 2.35   5 2.35  73 2.35   4 2.35 119 2.65
 101  0.250  0.744  0.402-  74 2.35   5 2.35  57 2.35   6 2.35
 102  0.250  0.577  0.671- 122 1.59   6 2.35  75 2.35 117 2.72 140 2.78
 103  0.583  0.911  0.134-   8 2.35  59 2.35  76 2.35   7 2.35 144 2.55
 104  0.583  0.744  0.402-   8 2.35  77 2.35  60 2.35   9 2.35
 105  0.583  0.577  0.671- 110 1.37 127 1.40   9 2.35  78 2.35 142 2.85
 106  0.917  0.911  0.134-   2 2.35  62 2.35  79 2.35   1 2.35 156 2.54 114 2.61
 107  0.917  0.744  0.402-  80 2.35   2 2.35  63 2.35   3 2.35 151 3.02
[...]
     0.000000000  0.000000000 10.122648239     0.000000000  0.000000000  0.098788378

  length of vectors
    16.293001175 16.293001175 10.122648239     0.061376047  0.061376047  0.098788378

 FORCES acting on ions
    electron-ion (+dipol)            ewald-force                    non-local-force                 convergence-correction
   -.173E+02 0.527E+02 -.142E+02   0.150E+03 -.221E+03 0.143E+02   0.105E+02 -.275E+02 0.274E+01   0.659E-03 0.401E-03 0.400E-03
   -.207E+02 -.240E+01 -.292E+02   0.205E+02 0.267E+01 0.298E+02   0.495E+00 0.916E-01 -.371E-01   0.613E-03 -.273E-03 -.352E-03
   -.539E+02 0.315E+01 0.498E+02   0.550E+02 -.760E+00 -.506E+02   0.452E+01 -.154E+01 -.469E+01   0.666E-03 -.626E-03 -.196E-03
   0.235E+02 -.605E+02 -.328E+02   -.239E+02 0.677E+02 0.373E+02   -.105E+02 0.341E+02 0.169E+02   0.208E-03 -.271E-03 -.216E-03
   0.203E+01 0.736E+00 -.103E+02   -.215E+01 -.935E+00 0.106E+02   -.404E-01 -.263E-01 -.109E+00   0.248E-03 -.196E-03 -.124E-03
   -.598E+01 0.860E+00 0.401E+02   0.677E+01 -.483E+00 -.418E+02   0.636E+00 -.329E+00 -.111E+01   0.231E-03 -.331E-04 0.160E-03
   0.897E+02 -.376E+02 -.297E+02   -.934E+02 0.453E+02 0.300E+02   -.241E+02 0.254E+02 0.501E+01   -.791E-03 0.105E-03 0.132E-03
   0.205E+02 0.210E+01 -.144E+02   -.211E+02 -.164E+01 0.145E+02   0.485E+00 -.328E+00 0.247E+00   -.828E-03 -.193E-03 -.154E-03
   0.102E+02 -.160E+01 0.493E+02   -.103E+02 0.169E+01 -.506E+02   0.912E-01 0.110E-01 -.366E+00   -.840E-03 -.400E-03 0.333E-04
   -.134E+02 -.466E+02 -.149E+02   0.189E+03 0.243E+03 0.151E+02   0.874E+01 0.245E+02 0.277E+01   0.870E-04 -.247E-03 0.422E-04
   -.195E+02 -.920E+00 -.240E+02   0.199E+02 0.190E+00 0.240E+02   -.481E+00 0.762E+00 0.325E+00   0.400E-03 0.568E-03 -.195E-03
   -.456E+02 -.119E+02 0.394E+02   0.427E+02 0.878E+01 -.380E+02   0.161E+01 0.185E+01 -.398E+00   0.160E-02 0.122E-02 -.929E-03
   0.191E+02 0.552E+02 -.292E+02   -.212E+02 -.589E+02 0.318E+02   -.555E+01 -.287E+02 0.131E+02   -.144E-03 -.120E-03 0.598E-04
   0.244E+01 -.294E+00 -.124E+02   -.239E+01 -.721E-01 0.122E+02   0.201E+00 0.266E+00 0.417E+00   0.697E-04 0.665E-04 -.266E-04
   -.532E+00 -.601E+01 0.299E+02   0.636E+00 0.606E+01 -.308E+02   -.837E-01 -.299E+00 0.288E+00   0.549E-05 -.307E-03 0.323E-03
   0.858E+02 0.335E+02 -.327E+02   -.894E+02 -.383E+02 0.318E+02   -.186E+02 -.202E+02 0.680E+01   -.136E-03 0.319E-03 -.734E-05
   0.223E+02 -.475E+00 -.192E+02   -.222E+02 -.133E+00 0.190E+02   -.213E+00 0.526E+00 0.106E+01   -.392E-03 0.203E-03 -.614E-04
   0.324E+01 0.320E+02 0.936E+02   -.477E+01 -.378E+02 -.103E+03   0.494E+01 -.142E+02 -.296E+02   -.101E-02 0.176E-03 -.195E-03
   -.208E+02 -.234E+01 -.618E+01   0.200E+02 0.458E+01 0.596E+01   0.304E+01 0.252E+00 0.168E+00   0.517E-03 -.495E-03 0.172E-03
   -.205E+02 0.299E+01 -.292E+02   0.205E+02 -.286E+01 0.294E+02   0.109E+00 -.297E-01 0.545E+00   0.376E-03 -.298E-03 -.175E-03
   -.427E+02 0.705E+01 0.378E+02   0.419E+02 -.804E+01 -.373E+02   0.180E+01 0.748E+00 -.161E+01   0.307E-03 0.121E-03 -.123E-04
   0.231E+02 0.190E+01 -.380E+02   -.188E+03 -.218E+02 0.357E+03   -.124E+02 -.111E+01 0.243E+02   0.127E-03 -.916E-04 0.165E-03
   0.249E+01 -.165E+01 -.111E+02   -.216E+01 0.101E+01 0.107E+02   -.133E+00 0.494E+00 0.513E+00   0.605E-04 0.143E-03 -.141E-03
   -.362E+00 0.501E+01 0.301E+02   0.221E+00 -.558E+01 -.300E+02   0.755E-01 0.246E+00 -.721E+00   0.850E-04 0.220E-03 0.815E-04
   0.727E+02 -.689E+00 -.105E+02   -.383E+03 -.171E+02 0.116E+02   -.250E+02 0.172E+00 -.139E+01   -.334E-03 -.187E-03 -.956E-05
   0.216E+02 -.194E+01 -.148E+02   -.212E+02 0.177E+01 0.148E+02   -.360E+00 0.259E+00 0.596E+00   -.403E-03 -.933E-04 -.838E-04
   0.658E+01 -.303E+02 0.974E+02   -.417E+01 0.367E+02 -.110E+03   0.212E+01 0.146E+02 -.327E+02   -.439E-03 -.255E-04 0.254E-03
   -.349E+02 -.131E+02 -.661E+02   0.367E+02 0.132E+02 0.674E+02   -.100E+01 0.144E+01 0.415E+01   0.568E-03 0.381E-03 -.685E-04
   -.225E+02 0.260E+00 0.563E+01   0.223E+02 -.325E-01 -.572E+01   0.374E+00 -.207E+00 0.130E+00   0.111E-02 -.500E-04 -.358E-03
   -.102E+02 -.211E+02 0.349E+02   0.114E+02 0.190E+02 -.359E+02   -.383E+01 0.626E+01 -.330E+01   0.123E-02 -.547E-03 0.518E-04
   0.556E+01 0.691E+01 -.333E+02   -.588E+01 -.711E+01 0.336E+02   0.320E+00 0.137E+00 0.559E+00   -.109E-03 -.669E-04 -.103E-03
   0.139E+02 0.578E+00 0.125E+02   -.139E+02 0.436E-02 -.128E+02   -.817E-01 -.600E+00 0.237E+00   -.210E-03 -.132E-03 0.713E-04
   0.521E+02 0.528E+01 0.218E+02   -.521E+02 -.316E+01 -.227E+02   -.787E+01 -.515E+01 -.161E+01   -.191E-03 -.868E-04 0.268E-03
   -.191E+00 0.170E+02 -.658E+02   -.842E+00 -.166E+02 0.664E+02   0.271E+01 -.485E+01 0.578E+01   -.462E-03 0.366E-03 0.139E-04
   0.654E+01 -.132E+01 0.185E+02   -.578E+01 0.733E-01 -.182E+02   -.638E+00 0.955E+00 -.441E+00   -.985E-03 0.726E-04 -.561E-03
   -.336E+02 0.391E+02 0.320E+02   0.378E+02 -.397E+02 -.339E+02   0.227E+02 -.143E+02 -.238E+01   -.102E-02 -.705E-03 0.143E-03
   -.312E+02 -.170E+01 -.459E+02   0.307E+02 0.841E+00 0.464E+02   0.765E+00 0.748E+00 0.286E+00   0.206E-03 -.181E-03 -.253E-03
   -.215E+02 -.877E+00 0.466E+01   0.222E+02 0.457E+00 -.443E+01   -.540E+00 0.266E+00 -.512E+00   0.323E-03 0.329E-03 -.957E-04
   -.117E+02 0.170E+02 0.322E+02   0.126E+02 -.172E+02 -.342E+02   -.203E+01 -.247E+01 -.119E+01   0.949E-03 0.507E-03 0.915E-04
   0.275E+01 0.185E+01 -.468E+02   -.160E+01 -.603E+00 0.480E+02   0.375E-01 -.102E+01 0.249E+01   -.738E-04 0.267E-03 0.648E-04
   0.144E+02 0.647E+00 0.134E+02   -.147E+02 -.700E-01 -.132E+02   0.425E+00 -.569E+00 -.478E+00   -.135E-03 0.104E-03 0.814E-05
   0.564E+02 -.438E+01 0.213E+02   -.544E+02 0.328E+01 -.225E+02   -.101E+02 0.427E+01 -.221E+01   -.168E-03 -.137E-03 0.101E-03
   -.163E+02 0.358E+01 -.999E+02   0.232E+02 -.222E+01 0.116E+03   0.144E+02 -.271E+01 0.365E+02   -.317E-03 -.993E-04 -.226E-03
   0.305E+01 0.141E+01 0.201E+02   -.409E+01 -.111E+01 -.207E+02   0.118E+01 -.204E+00 0.714E-01   -.256E-03 0.279E-03 -.650E-04
   -.370E+02 -.333E+02 0.357E+02   0.426E+02 0.381E+02 -.356E+02   0.249E+02 0.101E+02 -.449E+01   -.768E-03 0.784E-03 0.259E-04
   -.371E+02 0.124E+02 -.639E+02   0.363E+02 -.140E+02 0.657E+02   0.127E+01 -.161E+00 0.329E+01   0.754E-03 -.334E-03 -.276E-04
   -.217E+02 -.665E+00 0.442E+01   0.222E+02 -.424E+00 -.433E+01   -.550E+00 0.903E+00 -.254E+00   0.595E-03 -.304E-03 -.153E-03
   0.104E+02 0.857E+00 0.642E+02   -.124E+02 -.203E+01 -.715E+02   -.190E+02 0.518E+00 -.284E+02   0.405E-03 -.850E-04 0.586E-04
   0.559E+01 -.745E+01 -.333E+02   -.562E+01 0.770E+01 0.345E+02   0.610E-01 -.900E-01 -.426E+00   -.127E-03 -.119E-03 -.214E-03
   0.140E+02 0.429E+00 0.132E+02   -.147E+02 0.656E-01 -.133E+02   0.746E+00 -.613E+00 -.510E-01   -.143E-03 0.565E-04 0.216E-04
   0.264E+02 0.150E+00 0.273E+02   -.260E+02 -.718E-01 -.288E+02   -.745E+00 -.279E+00 -.348E+00   -.169E-03 0.249E-03 0.742E-04
   0.124E+01 -.181E+02 -.679E+02   0.277E+00 0.185E+02 0.685E+02   0.924E+00 0.451E+01 0.581E+01   -.710E-03 -.554E-03 -.326E-03
   0.380E+01 -.108E+01 0.207E+02   -.396E+01 0.103E+01 -.209E+02   0.365E+00 -.674E-01 -.299E+00   -.465E-03 -.298E-03 -.846E-04
   0.782E+01 -.113E+01 0.144E+02   -.640E+01 0.194E+01 -.149E+02   -.123E+01 0.182E+00 0.536E+00   -.440E-03 -.117E-03 0.156E-04
   -.478E+02 -.154E+01 -.397E+02   0.470E+02 0.113E+01 0.410E+02   0.313E+01 0.896E+00 0.501E+01   0.345E-03 0.320E-03 0.149E-04
   -.200E+02 0.314E+00 -.170E+02   0.199E+02 -.582E+00 0.168E+02   0.246E-01 0.289E+00 0.554E+00   0.690E-03 0.107E-03 -.610E-04
   -.986E+01 0.501E+01 0.300E+02   0.990E+01 -.522E+01 -.304E+02   -.140E+00 0.174E+00 0.432E-01   0.121E-02 -.682E-04 0.115E-03
   -.129E+01 0.286E+01 -.852E+02   0.529E+01 -.356E+01 0.119E+03   0.354E+01 -.180E+01 0.515E+02   -.353E-03 0.439E-04 -.209E-03
   0.183E+02 0.818E-01 -.549E+01   -.185E+02 0.507E+00 0.508E+01   0.388E+00 -.602E+00 0.777E+00   -.417E-03 -.849E-04 -.562E-04
   0.388E+02 -.101E+02 0.581E+02   -.383E+02 0.955E+01 -.585E+02   -.123E+01 0.164E+01 -.460E+01   -.584E-03 -.187E-03 0.135E-03
[...]
   -.643E+02 0.627E+01 0.992E+01   0.665E+02 -.576E+01 -.952E+01   0.716E+01 -.248E+01 -.365E+01   -.141E-03 0.364E-03 0.257E-03
   0.779E+00 0.369E+02 -.225E+02   0.968E+01 -.544E+02 0.229E+02   0.116E+02 -.198E+02 0.116E+00   -.891E-03 -.716E-04 0.221E-03
   -.503E+02 0.516E+02 0.447E+01   0.501E+02 -.106E+03 -.512E+00   0.270E+01 -.340E+02 0.525E+01   0.132E-03 0.980E-03 0.522E-04
   0.130E+02 0.138E+02 -.206E+02   -.120E+02 -.135E+02 0.215E+02   0.439E+01 -.283E+00 0.539E+01   -.750E-03 -.223E-03 0.230E-03
   -.362E+02 0.840E+01 -.140E+02   0.454E+02 -.906E+01 0.284E+02   0.103E+02 0.368E+00 0.194E+02   0.422E-03 -.295E-04 0.245E-03
   -.213E+00 0.513E+01 0.482E+00   0.184E+01 -.361E+01 -.280E+00   0.323E+01 0.480E+00 -.227E+01   -.813E-03 0.522E-03 0.377E-03
   0.132E+00 0.296E+01 0.109E+02   0.162E+03 0.161E+02 -.327E+03   0.136E+02 0.211E+01 -.254E+02   0.223E-03 -.520E-04 -.110E-03
   -.387E+01 0.103E+02 0.304E+01   -.167E+03 -.204E+03 -.808E+01   -.126E+02 -.153E+02 -.873E+01   0.505E-03 0.481E-03 0.761E-04
   0.840E+00 -.530E+02 0.103E+02   -.584E+01 0.917E+02 -.866E+01   -.479E+01 0.304E+02 0.264E+01   0.107E-03 -.848E-03 0.122E-03
   0.795E+02 -.292E+02 -.206E+02   -.107E+03 0.487E+02 0.376E+02   -.231E+02 0.164E+02 0.161E+02   -.149E-03 0.772E-04 -.501E-04
   0.683E+01 -.954E+01 0.169E+02   -.841E+01 0.102E+02 -.189E+02   -.112E+01 0.606E+00 0.685E+00   0.165E-02 0.209E-04 0.623E-04
   0.330E+02 -.927E+01 0.950E+01   -.340E+02 0.963E+01 -.950E+01   -.266E+01 0.154E+01 -.218E+01   -.579E-03 -.695E-04 0.210E-03
   0.250E+02 -.380E+01 -.115E+02   -.271E+02 0.394E+01 0.122E+02   0.270E-01 0.289E-01 0.360E+00   0.128E-03 0.255E-04 -.256E-04
   -.946E+01 -.986E+01 -.136E+02   0.901E+01 0.985E+01 0.139E+02   -.762E+00 0.190E+01 -.395E+00   0.433E-03 -.472E-03 0.445E-03
   -.148E+02 -.747E+01 0.155E+01   -.110E-11 0.307E-12 0.419E-12   0.151E+02 0.737E+01 -.128E+01   -.128E-02 -.358E-03 0.185E-02

 POSITION                                       TOTAL-FORCE (eV/Angst)
      0.00000     16.19635      0.00000       143.627697   -195.793283      2.802885
      0.00000     13.48085      2.71550         0.293140      0.369157      0.578274
      0.00000     10.76534      5.43100         5.582302      0.840987     -5.502775
      5.43100     16.19635      0.00000       -10.943659     41.236592     21.387663
      5.43100     13.48085      2.71550        -0.152906     -0.225165      0.140270
      5.43100     10.76534      5.43100         1.429014      0.048214     -2.796101
     10.86200     16.19635      0.00000       -27.850458     33.158119      5.358288
     10.86200     13.48085      2.71550        -0.152057      0.138585      0.352728
     10.86200     10.76534      5.43100         0.042999      0.105327     -1.674552
      0.00000      5.33435      0.00000       184.591260    221.137455      2.936847
      0.00000      2.61885      2.71550        -0.052664      0.033727      0.375640
      0.00000     16.19635      5.43100        -1.338386     -1.262961      0.933144
      5.43100      5.33435      0.00000        -7.603245    -32.470536     15.719577
      5.43100      2.61885      2.71550         0.241496     -0.099617      0.214269
      5.43100     16.19635      5.43100         0.018868     -0.252215     -0.565638
     10.86200      5.33435      0.00000       -22.106765    -24.952211      5.913915
     10.86200      2.61885      2.71550        -0.044305     -0.080541      0.852002
     10.86200     16.19635      5.43100         3.401986    -20.066598    -39.298645
      0.00000     10.76535      0.00000         2.253216      2.495819     -0.050105
      0.00000      8.04985      2.71550         0.046756      0.100994      0.730081
      0.00000      5.33435      5.43100         1.059830     -0.248198     -1.093027
      5.43100     10.76535      0.00000      -177.091685    -21.007615    343.442171
      5.43100      8.04985      2.71550         0.192098     -0.144722      0.145751
      5.43100      5.33435      5.43100        -0.066508     -0.331244     -0.672461
     10.86200     10.76535      0.00000      -335.054170    -17.574003     -0.232547
     10.86200      8.04985      2.71550         0.054243      0.091432      0.598009
     10.86200      5.33435      5.43100         4.530373     20.913363    -44.926423
      1.35775      1.26110      1.35775         0.847105      1.534450      5.433279
      1.35775     14.83860      4.07325         0.130298      0.020962      0.042258
      1.35775     12.12310      6.78875        -2.667823      4.165452     -4.225518
      6.78875      1.26110      1.35775        -0.007588     -0.061199      0.903131
      6.78875     14.83860      4.07325        -0.095298     -0.016727     -0.043626
      6.78875     12.12310      6.78875        -7.771855     -3.036988     -2.586204
     12.21975      1.26110      1.35775         1.671862     -4.403658      6.359375
     12.21975     14.83860      4.07325         0.119376     -0.287525     -0.132044
     12.21975     12.12310      6.78875        26.829815    -14.981258     -4.263800
      1.35775      6.69210      1.35775         0.278706     -0.107727      0.781689
      1.35775      3.97659      4.07325         0.092005     -0.153602     -0.280599
      1.35775      1.26109      6.78875        -1.161718     -2.682930     -3.230659
      6.78875      6.69210      1.35775         1.185717      0.226001      3.622539
      6.78875      3.97659      4.07325         0.201579      0.008756     -0.275318
      6.78875      1.26109      6.78875        -8.101165      3.169962     -3.428438
     12.21975      6.69210      1.35775        21.190777     -1.340807     52.416657
     12.21975      3.97659      4.07325         0.142580      0.099492     -0.454446
     12.21975      1.26109      6.78875        30.525946     14.879347     -4.396476
      1.35775     12.12310      1.35775         0.425242     -1.847494      5.067044
      1.35775      9.40760      4.07325        -0.100294     -0.185743     -0.170097
      1.35775      6.69210      6.78875       -21.015029     -0.653960    -35.593607
      6.78875     12.12310      1.35775         0.030208      0.161506      0.741756
      6.78875      9.40760      4.07325         0.037126     -0.117482     -0.146985
      6.78875      6.69210      6.78875        -0.304098     -0.199768     -1.848272
     12.21975     12.12310      1.35775         2.435077      4.841843      6.367435
     12.21975      9.40760      4.07325         0.204816     -0.117811     -0.510014
     12.21975      6.69210      6.78875         0.185408      0.983430      0.054829
      2.71550      2.61885      0.00000         2.337983      0.479886      6.311532
      2.71550     16.19635      2.71550        -0.048318      0.021994      0.319768
      2.71550     13.48085      5.43100        -0.095185     -0.033745     -0.419703
      8.14650      2.61885      0.00000         7.538294     -2.496709     85.673291
      8.14650     16.19635      2.71550         0.152746     -0.012479      0.370137
      8.14650     13.48085      5.43100        -0.751821      1.071770     -5.073990
[...]
      8.03827     10.80613      8.78909         1.103959     -0.128993      1.053345
      1.70210      4.69626      9.45587         9.308888     -1.978238     -3.250245
     11.65893     14.87938      0.00000        22.044188    -37.247903      0.522308
     14.82703      2.65963      6.78875         2.524233    -88.790027      9.202619
      8.49086     12.84276      7.45553         5.391935     -0.029440      6.273998
      2.15469      6.73288      8.12231        19.456334     -0.287913     33.783175
     12.11152      0.62301      8.78909         4.857212      2.008297     -2.070313
      5.77536     10.80614      9.45587       176.059363     21.208322   -341.641181
     15.73219      4.69626      0.00000      -183.990315   -209.248411    -13.775052
     14.82703     10.80613      6.78875        -9.782912     69.142039      4.238670
      8.49086      4.69626      7.45553       -51.111029     35.885189     33.032363
      2.15469     14.87938      8.12231        -2.706002      1.286486     -1.309635
     12.11152      8.76951      8.78909        -3.594629      1.901362     -2.171909
      5.77536      2.65963      9.45587        -2.031043      0.168499      1.080818
     15.73218     12.84276      0.00000        -1.212946      1.881046     -0.121258
    total drift:                                0.201698     -0.097914      0.271818

  FREE ENERGIE OF THE ION-ELECTRON SYSTEM (eV)
  free  energy   TOTEN  =      2052.80392372 eV

  energy  without entropy=     2052.80604158  energy(sigma->0) =     2052.80498265