 vasp.6.4.3 19Mar24 (build Oct 22 2024 11:23:12) complex

 executed on             LinuxIFC date 2025.06.04  05:41:15

 INCAR:
   SYSTEM = Si and Ge interface calculation
   ISTART = 0
   ICHARG = 2
   LWAVE = .FALSE.
   LREAL = AUTO
   ENCUT = 700
   ENAUG = 900
   ADDGRID = .TRUE.
   LMAXMIX = 6
   LASPH = .TRUE.
   LMIXTAU = .TRUE.
   NCORE = 16
   NELM = 100
   NBANDS = 231
   EDIFF = 1d-7
   AMIX = 0.6
   ISMEAR = 0
   SIGMA = 0.01
   NELECT = 384
   ISPIN = 2
   NUPDOWN = 1
   LVTOT = .FALSE.
   LVHAR = .TRUE.

 POTCAR:    PAW_PBE Ge 05Jan2001
|           W    W    AA    RRRRR   N    N  II  N    N   GGGG   !!!           |
|           W    W   A  A   R    R  NN   N  II  NN   N  G    G  !!!           |
|           W    W  A    A  R    R  N N  N  II  N N  N  G       !!!           |
|           W WW W  AAAAAA  RRRRR   N  N N  II  N  N N  G  GGG   !            |
|           WW  WW  A    A  R   R   N   NN  II  N   NN  G    G                |
|           W    W  A    A  R    R  N    N  II  N    N   GGGG   !!!           |
|     You use a magnetic or noncollinear calculation, but did not specify     |
|     the initial magnetic moment with the MAGMOM tag. Note that a            |
|     default of 0.01 will be used for all atoms. This ferromagnetic          |
|     setup may break the symmetry of the crystal, in particular it may       |
|     rule out finding an antiferromagnetic solution. Thence, we              |
|     recommend setting the initial magnetic moment manually or verifying     |
|     carefully that this magnetic setup is desired.                          |

 POTCAR:    PAW_PBE Ge 05Jan2001
   VRHFIN =Ge: s2p2

   TITEL  = PAW_PBE Ge 05Jan2001
   POMASS =   72.610; ZVAL   =    4.000    mass and valenz
   ENMAX  =  173.807; ENMIN  =  130.355 eV

 Optimization of the real space projectors (new method)

 maximal supplied QI-value         = 16.25
 optimisation between [QCUT,QGAM] = [ 13.49, 26.98] = [ 50.95,203.80] Ry
 Optimized for a Real-space Cutoff    1.25 Angstroem

   l    n(q)    QCUT    max X(q) W(low)/X(q) W(high)/X(q)  e(spline)
   0     10    13.489    65.336    0.91E-04    0.11E-03    0.34E-06
   0     10    13.489    52.220    0.89E-04    0.11E-03    0.34E-06
   1     10    13.489    36.409    0.22E-03    0.27E-03    0.14E-06
   1     10    13.489    21.334    0.21E-03    0.27E-03    0.14E-06
   2      9    13.489     4.673    0.11E-03    0.12E-03    0.19E-06
  PAW_PBE Ge 05Jan2001                  :

 POSCAR: Ge+Ge
  positions in direct lattice

 exchange-correlation table for PE
   RHO(1)=    0.500       N(1)  =     2000
   RHO(2)=  100.500       N(2)  =     4000

 ion  position               nearest neighbor table
   1  0.784  0.490  0.500-  62 1.53  23 2.45  37 2.45  58 2.65  92 2.83
   2  0.993  0.948  0.000-  90 1.58  38 2.45  21 2.45  39 2.45  53 2.65
   3  0.951  0.656  0.100-  67 1.58  22 2.45  39 2.45  40 2.45  84 2.65
   4  0.909  0.365  0.200-  20 2.45  41 2.45  23 2.45  40 2.45  55 2.65
   5  0.868  0.073  0.300-  21 2.45  41 2.45  24 2.45  42 2.45  50 2.65
   6  0.826  0.781  0.400-  22 2.45  42 2.45  19 2.45  37 2.45  81 2.65
   7  0.284  0.990  0.500-  68 1.53  17 2.45  43 2.45  52 2.65  86 2.83
   8  0.493  0.448  0.000-  96 1.58  45 2.45  15 2.45  44 2.45  59 2.65
   9  0.451  0.156  0.100-  61 1.58  45 2.45  16 2.45  46 2.45  78 2.65
  10  0.409  0.865  0.200-  14 2.45  47 2.45  17 2.45  46 2.45  49 2.65
  11  0.368  0.573  0.300-  15 2.45  47 2.45  18 2.45  48 2.45  56 2.65
  12  0.326  0.281  0.400-  16 2.45  43 2.45  48 2.45  13 2.45  75 2.65
  13  0.159  0.365  0.500-  57 1.58  25 2.45  12 2.45  30 2.45  64 2.65
  14  0.368  0.823  0.000-  49 1.53  10 2.45  26 2.45  71 2.65  73 2.83
  15  0.326  0.531  0.100-  11 2.45  27 2.45   8 2.45  26 2.45  96 2.65
  16  0.284  0.240  0.200-  12 2.45  28 2.45   9 2.45  27 2.45  61 2.65
  17  0.243  0.948  0.300-  28 2.45   7 2.45  10 2.45  29 2.45  68 2.65
  18  0.201  0.656  0.400-  80 1.58  11 2.45  29 2.45  30 2.45  93 2.65
  19  0.659  0.865  0.500-  51 1.58  31 2.45   6 2.45  36 2.45  70 2.65
  20  0.868  0.323  0.000-  55 1.53   4 2.45  32 2.45  65 2.65  79 2.83
  21  0.826  0.031  0.100-   5 2.45   2 2.45  32 2.45  33 2.45  90 2.65
  22  0.784  0.740  0.200-   6 2.45   3 2.45  34 2.45  33 2.45  67 2.65
  23  0.743  0.448  0.300-  35 2.45  34 2.45   1 2.45   4 2.45  62 2.65
  24  0.701  0.156  0.400-  74 1.58  36 2.45   5 2.45  35 2.45  87 2.65
  25  0.034  0.240  0.500-  86 1.53  41 2.45  13 2.45  76 2.65  62 2.83
  26  0.243  0.698  0.000-  72 1.58  14 2.45  39 2.45  15 2.45  83 2.65
  27  0.201  0.406  0.100-  91 1.58  15 2.45  40 2.45  16 2.45  60 2.65
  28  0.159  0.115  0.200-  17 2.45  38 2.45  16 2.45  41 2.45  73 2.65
  29  0.118  0.823  0.300-  42 2.45  39 2.45  17 2.45  18 2.45  80 2.65
  30  0.076  0.531  0.400-  40 2.45  37 2.45  13 2.45  18 2.45  57 2.65
  31  0.534  0.740  0.500-  92 1.53  19 2.45  47 2.45  82 2.65  68 2.83
  32  0.743  0.198  0.000-  66 1.58  21 2.45  20 2.45  45 2.45  77 2.65
  33  0.701  0.906  0.100-  85 1.58  46 2.45  21 2.45  22 2.45  54 2.65
  34  0.659  0.615  0.200-  23 2.45  44 2.45  22 2.45  47 2.45  79 2.65
  35  0.618  0.323  0.300-  23 2.45  24 2.45  45 2.45  48 2.45  74 2.65
  36  0.576  0.031  0.400-  46 2.45  24 2.45  19 2.45  43 2.45  51 2.65
  37  0.909  0.615  0.500-  81 1.58   1 2.45   6 2.45  30 2.45  94 2.65
  38  0.118  0.073  0.000-  73 1.53   2 2.45  28 2.45  89 2.65  55 2.83
  39  0.076  0.781  0.100-   3 2.45  29 2.45  26 2.45   2 2.45  72 2.65
  40  0.034  0.490  0.200-  30 2.45  27 2.45   4 2.45   3 2.45  91 2.65
  41  0.993  0.198  0.300-   5 2.45   4 2.45  25 2.45  28 2.45  86 2.65
  42  0.951  0.906  0.400-  50 1.58  29 2.45   5 2.45   6 2.45  69 2.65
  43  0.409  0.115  0.500-  75 1.58  12 2.45   7 2.45  36 2.45  88 2.65
  44  0.618  0.573  0.000-  79 1.53  34 2.45   8 2.45  95 2.65  49 2.83
  45  0.576  0.281  0.100-   8 2.45   9 2.45  35 2.45  32 2.45  66 2.65
  46  0.534  0.990  0.200-  36 2.45  33 2.45  10 2.45   9 2.45  85 2.65
  47  0.493  0.698  0.300-  31 2.45  11 2.45  10 2.45  34 2.45  92 2.65
  48  0.451  0.406  0.400-  56 1.58  12 2.45  11 2.45  35 2.45  63 2.65
  49  0.490  0.784  0.000-  14 1.53  85 2.45  71 2.45  10 2.65  44 2.83
  50  0.948  0.993  0.500-  42 1.58  86 2.45  69 2.45  87 2.45   5 2.65
  51  0.656  0.951  0.600-  19 1.58  88 2.45  70 2.45  87 2.45  36 2.65
  52  0.365  0.909  0.700-  68 2.45  71 2.45  89 2.45  88 2.45   7 2.65
  53  0.073  0.868  0.800-  69 2.45  89 2.45  90 2.45  72 2.45   2 2.65
  54  0.781  0.826  0.900-  67 2.45  90 2.45  70 2.45  85 2.45  33 2.65
  55  0.990  0.284  0.000-  20 1.53  65 2.45  91 2.45   4 2.65  38 2.83
  56  0.448  0.493  0.500-  48 1.58  93 2.45  63 2.45  92 2.45  11 2.65
  57  0.156  0.451  0.600-  13 1.58  94 2.45  93 2.45  64 2.45  30 2.65
  58  0.865  0.409  0.700-  62 2.45  94 2.45  95 2.45  65 2.45   1 2.65
  59  0.573  0.368  0.800-  95 2.45  63 2.45  96 2.45  66 2.45   8 2.65
  60  0.281  0.326  0.900-  64 2.45  91 2.45  96 2.45  61 2.45  27 2.65
[...]
  82  0.615  0.659  0.700-  71 2.45  92 2.45  70 2.45  95 2.45  31 2.65
  83  0.323  0.618  0.800-  71 2.45  72 2.45  93 2.45  96 2.45  26 2.65
  84  0.031  0.576  0.900-  72 2.45  94 2.45  67 2.45  91 2.45   3 2.65
  85  0.615  0.909  0.000-  33 1.58  49 2.45  78 2.45  54 2.45  46 2.65
  86  0.073  0.118  0.500-  25 1.53  50 2.45  76 2.45  41 2.65   7 2.83
  87  0.781  0.076  0.600-  77 2.45  74 2.45  51 2.45  50 2.45  24 2.65
  88  0.490  0.034  0.700-  78 2.45  51 2.45  75 2.45  52 2.45  43 2.65
  89  0.198  0.993  0.800-  76 2.45  53 2.45  52 2.45  73 2.45  38 2.65
  90  0.906  0.951  0.900-   2 1.58  54 2.45  53 2.45  77 2.45  21 2.65
  91  0.115  0.409  0.000-  27 1.58  60 2.45  84 2.45  55 2.45  40 2.65
  92  0.573  0.618  0.500-  31 1.53  82 2.45  56 2.45  47 2.65   1 2.83
  93  0.281  0.576  0.600-  57 2.45  56 2.45  83 2.45  80 2.45  18 2.65
  94  0.990  0.534  0.700-  57 2.45  84 2.45  58 2.45  81 2.45  37 2.65
  95  0.698  0.493  0.800-  59 2.45  82 2.45  58 2.45  79 2.45  44 2.65
  96  0.406  0.451  0.900-   8 1.58  60 2.45  59 2.45  83 2.45  15 2.65

  LATTYP: Found a base centered orthorhombic cell.
 ALAT       =    16.0026764918
 B/A-ratio  =     1.2247448613
 C/A-ratio  =     0.7216883050

  Lattice vectors:

 A1 = (  -2.5302453040, -12.3956203460,   0.0000000000)
 A2 = (  12.6512260440,   0.0000000000,   0.0000000000)
 A3 = (   0.0000000000,   0.0000000000,  11.5489444730)

Analysis of symmetry for initial positions (statically):
 Subroutine PRICEL returns following result:

  LATTYP: Found a simple orthorhombic cell.
 ALAT       =     4.0006680508
 B/A-ratio  =     2.4494908887
 C/A-ratio  =     2.8867539937

[...]

   4 primitive cells build up your supercell.

 Routine SETGRP: Setting up the symmetry group for a
 base centered orthorhombic supercell.

 Subroutine GETGRP returns: Found  4 space group operations
 (whereof  1 operations were pure point group operations)
 out of a pool of  8 trial point group operations.

The static configuration has the point symmetry C_1 .
 The point group associated with its full space group is C_2h.

Analysis of symmetry for dynamics (positions and initial velocities):
 Subroutine PRICEL returns following result:

[...]

The dynamic configuration has the point symmetry C_1 .
 The point group associated with its full space group is C_2h.

Analysis of structural, dynamic, and magnetic symmetry:
 Subroutine PRICEL returns following result:

  LATTYP: Found a simple orthorhombic cell.
 ALAT       =     4.0006680508
 B/A-ratio  =     2.4494908887
 C/A-ratio  =     2.8867539937

  Lattice vectors:

 A1 = (   2.5302452963,  -3.0989036114,   0.0000000000)
 A2 = (   7.5907358967,   6.1978131232,   0.0000000000)
 A3 = (   0.0000000000,   0.0000000000,  11.5489444730)

   4 primitive cells build up your supercell.

 Routine SETGRP: Setting up the symmetry group for a
 base centered orthorhombic supercell.

 Subroutine GETGRP returns: Found  4 space group operations
 (whereof  1 operations were pure point group operations)
 out of a pool of  8 trial point group operations.

The overall configuration has the point symmetry C_1 .
 The point group associated with its full space group is C_2h.

 Subroutine INISYM returns: Found  4 space group operations
 (whereof  1 operations are pure point group operations),
 and found     4 'primitive' translations

                                     Primitive cell

  volume of cell :     452.7757

  direct lattice vectors                    reciprocal lattice vectors
     2.530245296 -3.098903611  0.000000000     0.158087530 -0.193616791  0.000000000
     7.590735897  6.197813123  0.000000000     0.079043690  0.064538930  0.000000000
     0.000000000  0.000000000 11.548944473     0.000000000  0.000000000  0.086588000

  length of vectors
     4.000668051  9.799599939 11.548944473     0.249958254  0.102044982  0.086588000

  position of ions in fractional coordinates (direct lattice)
     0.588916665  0.274054916  0.500000060
     0.088916620  0.940722633  0.000000026
     0.588916605  0.607388935  0.100000039
     0.088916653  0.274055505  0.200000063
     0.588916488  0.940722328  0.300000042
[...]
     0.000000000  0.000000000 11.548944473     0.000000000  0.000000000  0.086588000

  length of vectors
    12.651226044 12.651227018 11.548944473     0.080673661  0.080673655  0.086588000

 FORCES acting on ions
    electron-ion (+dipol)            ewald-force                    non-local-force                 convergence-correction
   0.116E+02 -.427E+02 -.539E+00   -.163E+02 0.716E+02 0.626E+00   -.263E+01 0.259E+02 -.708E+00   -.115E-03 -.122E-03 -.251E-04
   -.264E+02 -.204E+01 -.397E+02   0.414E+02 0.125E+01 0.568E+02   0.154E+02 0.139E+00 0.168E+02   0.396E-03 0.302E-03 0.885E-05
   -.282E+02 -.200E+01 -.446E+02   0.437E+02 0.147E+01 0.617E+02   0.152E+02 -.549E-01 0.169E+02   -.276E-03 -.207E-03 0.731E-04
   0.480E+01 -.248E+01 -.173E+02   -.570E+01 0.240E+01 0.179E+02   0.304E+00 0.620E+00 0.103E+01   -.132E-03 -.991E-04 0.834E-05
   0.533E+01 -.274E+01 0.261E+02   -.571E+01 0.240E+01 -.272E+02   -.385E+00 0.111E+01 -.777E+00   0.368E-03 0.307E-03 -.490E-04
   0.652E+01 -.955E+00 0.282E+02   -.710E+01 0.174E+00 -.292E+02   -.342E+00 0.145E+01 -.986E+00   -.273E-03 -.203E-03 -.928E-04
   0.116E+02 -.427E+02 -.539E+00   -.163E+02 0.716E+02 0.626E+00   -.263E+01 0.259E+02 -.708E+00   -.115E-03 -.135E-03 -.232E-04
   -.264E+02 -.204E+01 -.397E+02   0.414E+02 0.125E+01 0.568E+02   0.154E+02 0.139E+00 0.168E+02   0.409E-03 0.314E-03 0.943E-05
   -.282E+02 -.200E+01 -.446E+02   0.437E+02 0.147E+01 0.617E+02   0.152E+02 -.549E-01 0.169E+02   -.263E-03 -.221E-03 0.761E-04
   0.480E+01 -.248E+01 -.173E+02   -.570E+01 0.240E+01 0.179E+02   0.304E+00 0.620E+00 0.103E+01   -.120E-03 -.107E-03 0.803E-05
   0.533E+01 -.274E+01 0.261E+02   -.571E+01 0.240E+01 -.272E+02   -.385E+00 0.111E+01 -.777E+00   0.376E-03 0.318E-03 -.495E-04
   0.652E+01 -.955E+00 0.282E+02   -.710E+01 0.174E+00 -.292E+02   -.342E+00 0.145E+01 -.986E+00   -.268E-03 -.207E-03 -.919E-04
   0.727E+01 0.254E+02 0.397E+02   -.952E+01 -.403E+02 -.568E+02   -.322E+01 -.151E+02 -.168E+02   -.387E-03 -.330E-03 -.945E-05
   0.395E+02 -.200E+02 0.540E+00   -.669E+02 0.303E+02 -.626E+00   -.248E+02 0.775E+01 0.708E+00   0.152E-03 0.837E-04 0.225E-04
   -.368E+00 -.658E+01 -.282E+02   0.125E+01 0.699E+01 0.292E+02   -.135E+01 0.625E+00 0.986E+00   0.256E-03 0.231E-03 0.786E-04
   0.162E+01 -.577E+01 -.261E+02   -.121E+01 0.607E+01 0.272E+02   -.101E+01 0.600E+00 0.777E+00   -.381E-03 -.304E-03 0.305E-04
   0.147E+01 -.520E+01 0.173E+02   -.121E+01 0.607E+01 -.179E+02   -.668E+00 -.174E+00 -.103E+01   0.124E-03 0.991E-04 -.276E-04
   0.760E+01 0.273E+02 0.446E+02   -.102E+02 -.426E+02 -.617E+02   -.298E+01 -.149E+02 -.169E+02   0.259E-03 0.227E-03 -.861E-04
   0.727E+01 0.254E+02 0.397E+02   -.952E+01 -.403E+02 -.568E+02   -.322E+01 -.151E+02 -.168E+02   -.377E-03 -.337E-03 -.978E-05
   0.395E+02 -.200E+02 0.540E+00   -.669E+02 0.303E+02 -.626E+00   -.248E+02 0.775E+01 0.708E+00   0.147E-03 0.887E-04 0.253E-04
   -.368E+00 -.658E+01 -.282E+02   0.125E+01 0.699E+01 0.292E+02   -.135E+01 0.625E+00 0.986E+00   0.254E-03 0.216E-03 0.811E-04
   0.162E+01 -.577E+01 -.261E+02   -.121E+01 0.607E+01 0.272E+02   -.101E+01 0.600E+00 0.777E+00   -.381E-03 -.299E-03 0.290E-04
   0.147E+01 -.520E+01 0.173E+02   -.121E+01 0.607E+01 -.179E+02   -.668E+00 -.174E+00 -.103E+01   0.129E-03 0.108E-03 -.282E-04
   0.760E+01 0.273E+02 0.446E+02   -.102E+02 -.426E+02 -.617E+02   -.298E+01 -.149E+02 -.169E+02   0.268E-03 0.214E-03 -.870E-04
   0.116E+02 -.427E+02 -.539E+00   -.163E+02 0.716E+02 0.626E+00   -.263E+01 0.259E+02 -.708E+00   -.122E-03 -.131E-03 -.246E-04
   -.264E+02 -.204E+01 -.397E+02   0.414E+02 0.125E+01 0.568E+02   0.154E+02 0.139E+00 0.168E+02   0.399E-03 0.313E-03 0.724E-05
   -.282E+02 -.200E+01 -.446E+02   0.437E+02 0.147E+01 0.617E+02   0.152E+02 -.549E-01 0.169E+02   -.273E-03 -.209E-03 0.740E-04
   0.480E+01 -.248E+01 -.173E+02   -.570E+01 0.240E+01 0.179E+02   0.304E+00 0.620E+00 0.103E+01   -.132E-03 -.109E-03 0.858E-05
   0.533E+01 -.274E+01 0.261E+02   -.570E+01 0.240E+01 -.272E+02   -.385E+00 0.111E+01 -.777E+00   0.364E-03 0.315E-03 -.500E-04
   0.652E+01 -.955E+00 0.282E+02   -.710E+01 0.174E+00 -.292E+02   -.342E+00 0.145E+01 -.986E+00   -.278E-03 -.197E-03 -.927E-04
   0.116E+02 -.427E+02 -.539E+00   -.163E+02 0.716E+02 0.626E+00   -.263E+01 0.259E+02 -.708E+00   -.106E-03 -.128E-03 -.234E-04
   -.264E+02 -.204E+01 -.397E+02   0.414E+02 0.125E+01 0.568E+02   0.154E+02 0.139E+00 0.168E+02   0.406E-03 0.303E-03 0.109E-04
   -.282E+02 -.200E+01 -.446E+02   0.437E+02 0.147E+01 0.617E+02   0.152E+02 -.549E-01 0.169E+02   -.264E-03 -.221E-03 0.753E-04
   0.480E+01 -.248E+01 -.173E+02   -.570E+01 0.240E+01 0.179E+02   0.304E+00 0.620E+00 0.103E+01   -.120E-03 -.979E-04 0.799E-05
   0.533E+01 -.274E+01 0.261E+02   -.571E+01 0.240E+01 -.272E+02   -.385E+00 0.111E+01 -.777E+00   0.379E-03 0.313E-03 -.485E-04
   0.652E+01 -.955E+00 0.282E+02   -.710E+01 0.174E+00 -.292E+02   -.342E+00 0.145E+01 -.986E+00   -.263E-03 -.213E-03 -.920E-04
   0.727E+01 0.254E+02 0.397E+02   -.952E+01 -.403E+02 -.568E+02   -.322E+01 -.151E+02 -.168E+02   -.388E-03 -.324E-03 -.950E-05
   0.395E+02 -.200E+02 0.540E+00   -.669E+02 0.303E+02 -.626E+00   -.248E+02 0.775E+01 0.708E+00   0.142E-03 0.794E-04 0.238E-04
   -.368E+00 -.658E+01 -.282E+02   0.125E+01 0.699E+01 0.292E+02   -.135E+01 0.625E+00 0.986E+00   0.246E-03 0.226E-03 0.778E-04
   0.162E+01 -.577E+01 -.261E+02   -.121E+01 0.607E+01 0.272E+02   -.101E+01 0.600E+00 0.777E+00   -.389E-03 -.293E-03 0.283E-04
   0.147E+01 -.520E+01 0.173E+02   -.121E+01 0.607E+01 -.179E+02   -.668E+00 -.174E+00 -.103E+01   0.119E-03 0.100E-03 -.278E-04
   0.760E+01 0.273E+02 0.446E+02   -.102E+02 -.426E+02 -.617E+02   -.298E+01 -.149E+02 -.169E+02   0.257E-03 0.218E-03 -.867E-04
   0.727E+01 0.254E+02 0.397E+02   -.952E+01 -.403E+02 -.568E+02   -.322E+01 -.151E+02 -.168E+02   -.377E-03 -.340E-03 -.980E-05
   0.395E+02 -.200E+02 0.540E+00   -.669E+02 0.303E+02 -.626E+00   -.248E+02 0.775E+01 0.708E+00   0.157E-03 0.927E-04 0.243E-04
   -.368E+00 -.658E+01 -.282E+02   0.125E+01 0.699E+01 0.292E+02   -.135E+01 0.625E+00 0.986E+00   0.262E-03 0.222E-03 0.818E-04
   0.162E+01 -.577E+01 -.261E+02   -.121E+01 0.607E+01 0.272E+02   -.101E+01 0.600E+00 0.777E+00   -.373E-03 -.310E-03 0.310E-04
   0.147E+01 -.520E+01 0.173E+02   -.121E+01 0.607E+01 -.179E+02   -.668E+00 -.174E+00 -.103E+01   0.136E-03 0.106E-03 -.277E-04
   0.760E+01 0.273E+02 0.446E+02   -.102E+02 -.426E+02 -.617E+02   -.298E+01 -.149E+02 -.169E+02   0.271E-03 0.222E-03 -.864E-04
   -.395E+02 0.200E+02 -.540E+00   0.669E+02 -.303E+02 0.626E+00   0.248E+02 -.775E+01 -.708E+00   -.143E-03 -.882E-04 -.442E-05
   -.727E+01 -.254E+02 -.397E+02   0.952E+01 0.403E+02 0.568E+02   0.322E+01 0.151E+02 0.168E+02   0.376E-03 0.327E-03 -.105E-04
   -.760E+01 -.273E+02 -.446E+02   0.102E+02 0.426E+02 0.617E+02   0.298E+01 0.149E+02 0.169E+02   -.258E-03 -.228E-03 0.695E-04
   -.147E+01 0.520E+01 -.173E+02   0.121E+01 -.607E+01 0.179E+02   0.668E+00 0.174E+00 0.103E+01   -.124E-03 -.109E-03 0.215E-04
   -.162E+01 0.577E+01 0.261E+02   0.121E+01 -.607E+01 -.272E+02   0.101E+01 -.600E+00 -.777E+00   0.374E-03 0.299E-03 -.224E-04
   0.367E+00 0.658E+01 0.282E+02   -.125E+01 -.699E+01 -.292E+02   0.135E+01 -.625E+00 -.986E+00   -.253E-03 -.226E-03 -.639E-04
   -.395E+02 0.200E+02 -.540E+00   0.669E+02 -.303E+02 0.626E+00   0.248E+02 -.775E+01 -.708E+00   -.157E-03 -.855E-04 -.268E-05
   -.727E+01 -.254E+02 -.397E+02   0.952E+01 0.403E+02 0.568E+02   0.322E+01 0.151E+02 0.168E+02   0.389E-03 0.337E-03 -.977E-05
   -.760E+01 -.273E+02 -.446E+02   0.102E+02 0.426E+02 0.617E+02   0.298E+01 0.149E+02 0.169E+02   -.269E-03 -.214E-03 0.718E-04
   -.147E+01 0.520E+01 -.173E+02   0.121E+01 -.607E+01 0.179E+02   0.668E+00 0.174E+00 0.103E+01   -.129E-03 -.970E-04 0.214E-04
   -.162E+01 0.577E+01 0.261E+02   0.121E+01 -.607E+01 -.272E+02   0.101E+01 -.600E+00 -.777E+00   0.387E-03 0.304E-03 -.238E-04
   0.367E+00 0.658E+01 0.282E+02   -.125E+01 -.699E+01 -.292E+02   0.135E+01 -.625E+00 -.986E+00   -.255E-03 -.221E-03 -.648E-04
[...]
   -.162E+01 0.577E+01 0.261E+02   0.121E+01 -.607E+01 -.272E+02   0.101E+01 -.600E+00 -.777E+00   0.382E-03 0.308E-03 -.226E-04
   0.367E+00 0.658E+01 0.282E+02   -.125E+01 -.699E+01 -.292E+02   0.135E+01 -.625E+00 -.986E+00   -.261E-03 -.213E-03 -.639E-04
   0.264E+02 0.204E+01 0.397E+02   -.414E+02 -.125E+01 -.568E+02   -.154E+02 -.139E+00 -.168E+02   -.395E-03 -.316E-03 0.110E-04
   -.116E+02 0.427E+02 0.540E+00   0.163E+02 -.716E+02 -.626E+00   0.263E+01 -.259E+02 0.708E+00   0.108E-03 0.124E-03 0.334E-05
   -.652E+01 0.955E+00 -.282E+02   0.710E+01 -.174E+00 0.292E+02   0.342E+00 -.145E+01 0.986E+00   0.271E-03 0.197E-03 0.752E-04
   -.533E+01 0.274E+01 -.261E+02   0.570E+01 -.240E+01 0.272E+02   0.385E+00 -.111E+01 0.777E+00   -.365E-03 -.322E-03 0.412E-04
   -.480E+01 0.248E+01 0.173E+02   0.570E+01 -.240E+01 -.179E+02   -.304E+00 -.620E+00 -.103E+01   0.121E-03 0.958E-04 -.204E-05
   0.282E+02 0.200E+01 0.446E+02   -.437E+02 -.147E+01 -.617E+02   -.152E+02 0.549E-01 -.169E+02   0.265E-03 0.208E-03 -.581E-04
   0.264E+02 0.204E+01 0.397E+02   -.414E+02 -.125E+01 -.568E+02   -.154E+02 -.139E+00 -.168E+02   -.409E-03 -.301E-03 0.104E-04
   -.116E+02 0.427E+02 0.540E+00   0.163E+02 -.716E+02 -.626E+00   0.263E+01 -.259E+02 0.708E+00   0.123E-03 0.135E-03 0.369E-05
   -.652E+01 0.955E+00 -.282E+02   0.710E+01 -.174E+00 0.292E+02   0.342E+00 -.145E+01 0.986E+00   0.270E-03 0.212E-03 0.786E-04
   -.533E+01 0.274E+01 -.261E+02   0.571E+01 -.240E+01 0.272E+02   0.385E+00 -.111E+01 0.777E+00   -.378E-03 -.303E-03 0.441E-04
   -.480E+01 0.248E+01 0.173E+02   0.570E+01 -.240E+01 -.179E+02   -.304E+00 -.620E+00 -.103E+01   0.130E-03 0.111E-03 -.137E-05
   0.282E+02 0.200E+01 0.446E+02   -.437E+02 -.147E+01 -.617E+02   -.152E+02 0.549E-01 -.169E+02   0.273E-03 0.221E-03 -.589E-04
   -.135E-01 -.108E-01 -.346E-02   0.213E-13 -.129E-13 0.853E-13   -.711E-14 0.255E-14 -.355E-13   0.298E-06 0.312E-06 0.837E-06

 POSITION                                       TOTAL-FORCE (eV/Angst)
     11.16112      6.07136      5.77447        -7.281681     54.759095     -0.622028
     14.95649     11.75269      0.00000        30.491001     -0.645084     33.978178
     13.69137      8.13730      1.15489        30.689578     -0.580572     33.962499
     12.42624      4.52191      2.30979        -0.599983      0.535812      1.645370
     11.16112      0.90652      3.46468        -0.759478      0.772676     -1.863810
     12.42624      9.68675      4.61958        -0.922972      0.665452     -2.036384
      6.10063     12.26917      5.77447        -7.281681     54.759095     -0.622028
      7.36576      5.55488      0.00000        30.491001     -0.645084     33.978178
      6.10063      1.93949      1.15489        30.689578     -0.580572     33.962499
      7.36575     10.71972      2.30979        -0.599983      0.535812      1.645370
      6.10063      7.10433      3.46468        -0.759478      0.772676     -1.863810
      4.83551      3.48894      4.61958        -0.922972      0.665452     -2.036384
      2.93782      4.52191      5.77447        -5.466150    -30.003977    -33.978178
      6.73320     10.20324      0.00000       -52.196396     18.086381      0.622028
      5.46807      6.58785      1.15489        -0.467412      1.037415      2.036384
      4.20295      2.97246      2.30979        -0.605169      0.898668      1.863810
      5.46807     11.75269      3.46468        -0.404990      0.695024     -1.645370
      4.20295      8.13730      4.61958        -5.569073    -30.185639    -33.962499
     10.52856     10.71972      5.77447        -5.466150    -30.003977    -33.978178
     11.79369      4.00543      0.00000       -52.196396     18.086381      0.622028
     10.52856      0.39004      1.15489        -0.467412      1.037415      2.036384
     11.79368      9.17027      2.30979        -0.605169      0.898668      1.863810
     10.52856      5.55488      3.46468        -0.404990      0.695024     -1.645370
      9.26344      1.93949      4.61958        -5.569073    -30.185639    -33.962499
      1.04014      2.97245      5.77447        -7.281681     54.759095     -0.622028
      4.83551      8.65379      0.00000        30.491001     -0.645084     33.978178
      3.57039      5.03840      1.15489        30.689578     -0.580572     33.962499
      2.30526      1.42300      2.30979        -0.599983      0.535812      1.645370
      3.57039     10.20324      3.46468        -0.759478      0.772676     -1.863810
      2.30526      6.58784      4.61958        -0.922972      0.665452     -2.036384
      8.63087      9.17026      5.77447        -7.281681     54.759095     -0.622028
      9.89600      2.45598      0.00000        30.491001     -0.645084     33.978178
     11.16112     11.23620      1.15489        30.689578     -0.580572     33.962499
      9.89600      7.62081      2.30979        -0.599983      0.535812      1.645370
      8.63088      4.00543      3.46468        -0.759478      0.772676     -1.863810
      7.36575      0.39003      4.61958        -0.922972      0.665452     -2.036384
     13.05880      7.62081      5.77447        -5.466150    -30.003977    -33.978178
      1.67271      0.90652      0.00000       -52.196396     18.086381      0.622028
      2.93783      9.68675      1.15489        -0.467412      1.037415      2.036384
      1.67270      6.07136      2.30979        -0.605169      0.898668      1.863810
     13.05880      2.45597      3.46468        -0.404990      0.695024     -1.645370
     14.32393     11.23620      4.61958        -5.569073    -30.185639    -33.962499
      5.46807      1.42300      5.77447        -5.466150    -30.003977    -33.978178
      9.26344      7.10433      0.00000       -52.196396     18.086381      0.622028
      7.99832      3.48894      1.15489        -0.467412      1.037415      2.036384
      9.26344     12.26917      2.30979        -0.605169      0.898668      1.863810
      7.99832      8.65378      3.46468        -0.404990      0.695024     -1.645370
      6.73319      5.03839      4.61958        -5.569073    -30.185639    -33.962499
      8.18092      9.72135      0.00000        52.196396    -18.086381     -0.622028
     14.50654     12.30377      5.77447         5.466150     30.003977     33.978178
     10.71117     11.78729      6.92937         5.569073     30.185639     33.962499
      6.91580     11.27080      8.08426         0.404990     -0.695024      1.645370
      3.12043     10.75432      9.23916         0.605169     -0.898668     -1.863810
     11.97629     10.23783     10.39405         0.467412     -1.037415     -2.036384
     13.24141      3.52354      0.00000        52.196396    -18.086381     -0.622028
      6.91580      6.10596      5.77447         5.466150     30.003977     33.978178
      3.12043      5.58948      6.92937         5.569073     30.185639     33.962499
     11.97629      5.07299      8.08426         0.404990     -0.695024      1.645370
      8.18092      4.55651      9.23916         0.605169     -0.898668     -1.863810
      4.38555      4.04002     10.39405         0.467412     -1.037415     -2.036384
[...]
      9.44604      8.17190      8.08426         0.404990     -0.695024      1.645370
      5.65067      7.65541      9.23916         0.605169     -0.898668     -1.863810
      1.85530      7.13893     10.39405         0.467412     -1.037415     -2.036384
     10.07860     11.27080      0.00000       -30.491001      0.645084    -33.978178
      1.22275      1.45761      5.77447         7.281681    -54.759095      0.622028
     10.07860      0.94112      6.92937         0.922972     -0.665452      2.036384
      6.28324      0.42464      8.08426         0.759478     -0.772676      1.863810
      5.01811     12.30377      9.23916         0.599983     -0.535812     -1.645370
     13.87397     11.78729     10.39405       -30.689578      0.580572    -33.962499
      2.48787      5.07299      0.00000       -30.491001      0.645084    -33.978178
      8.81349      7.65542      5.77447         7.281681    -54.759095      0.622028
      5.01812      7.13893      6.92937         0.922972     -0.665452      2.036384
     13.87397      6.62245      8.08426         0.759478     -0.772676      1.863810
     10.07860      6.10596      9.23916         0.599983     -0.535812     -1.645370
      6.28323      5.58948     10.39405       -30.689578      0.580572    -33.962499
    total drift:                               -0.013537     -0.010755     -0.003462

  FREE ENERGIE OF THE ION-ELECTRON SYSTEM (eV)
  free  energy   TOTEN  =       -96.81158018 eV

  energy  without entropy=      -96.81019635  energy(sigma->0) =      -96.81088827