 vasp.6.4.3 19Mar24 (build Oct 22 2024 11:23:12) complex

 executed on             LinuxIFC date 2025.06.04  01:07:54

 INCAR:
   SYSTEM = Si and Ge interface calculation
   ISTART = 0
   ICHARG = 2
   LWAVE = .FALSE.
   LREAL = AUTO
   ENCUT = 700
   ENAUG = 900
   ADDGRID = .TRUE.
   LMAXMIX = 6
   LASPH = .TRUE.
   LMIXTAU = .TRUE.
   NCORE = 16
   NELM = 100
   NBANDS = 116
   EDIFF = 1d-7
   AMIX = 0.6
   ISMEAR = 0
   SIGMA = 0.01
   NELECT = 192
   ISPIN = 2
   NUPDOWN = 1
   LVTOT = .FALSE.
   LVHAR = .TRUE.

 POTCAR:    PAW_PBE Sn 08Apr2002
|           W    W    AA    RRRRR   N    N  II  N    N   GGGG   !!!           |
|           W    W   A  A   R    R  NN   N  II  NN   N  G    G  !!!           |
|           W    W  A    A  R    R  N N  N  II  N N  N  G       !!!           |
|           W WW W  AAAAAA  RRRRR   N  N N  II  N  N N  G  GGG   !            |
|           WW  WW  A    A  R   R   N   NN  II  N   NN  G    G                |
|           W    W  A    A  R    R  N    N  II  N    N   GGGG   !!!           |
|     You use a magnetic or noncollinear calculation, but did not specify     |
|     the initial magnetic moment with the MAGMOM tag. Note that a            |
|     default of 0.021 will be used for all atoms. This ferromagnetic         |
|     setup may break the symmetry of the crystal, in particular it may       |
|     rule out finding an antiferromagnetic solution. Thence, we              |
|     recommend setting the initial magnetic moment manually or verifying     |
|     carefully that this magnetic setup is desired.                          |

 POTCAR:    PAW_PBE Sn 08Apr2002
   VRHFIN =Sn: s2p2

   TITEL  = PAW_PBE Sn 08Apr2002
   POMASS =  118.710; ZVAL   =    4.000    mass and valenz
   ENMAX  =  103.236; ENMIN  =   77.427 eV

 Optimization of the real space projectors (new method)

 maximal supplied QI-value         = 12.47
 optimisation between [QCUT,QGAM] = [ 12.47, 27.06] = [ 43.56,205.12] Ry
 Optimized for a Real-space Cutoff    1.58 Angstroem

   l    n(q)    QCUT    max X(q) W(low)/X(q) W(high)/X(q)  e(spline)
   0     13    12.472    14.688    0.45E-04    0.45E-04    0.25E-05
   0     13    12.472     7.308    0.94E-04    0.11E-03    0.61E-05
   1     12    12.472    45.102    0.34E-03    0.14E-03    0.21E-05
   1     12    12.472    30.691    0.31E-03    0.13E-03    0.20E-05
   2     12    12.472     7.156    0.86E-04    0.11E-03    0.17E-05
 WARNING: PSMAXN for non-local potential too small
          PSMAXN should be >   13.5545592237991       NTYP=           1
  PAW_PBE Sn 08Apr2002                  :

 POSCAR: Sn+Sn
  positions in direct lattice

 exchange-correlation table for PE
   RHO(1)=    0.500       N(1)  =     2000
   RHO(2)=  100.500       N(2)  =     4000

 ion  position               nearest neighbor table
   1  0.194  0.745  0.300-  31 0.00   5 2.46  36 2.67   9 2.81   3 2.81  15 2.81  12 2.81  48 2.81

   2  0.556  0.718  1.000-  14 1.66  19 2.67  28 2.81  46 2.81   3 3.50
   3  0.194  0.662  0.000-  36 1.66  46 2.46  20 2.81   1 2.81  31 2.81   2 3.50
   4  0.944  0.912  0.000-  39 2.67  18 2.81  12 2.81  48 2.81   8 3.50
   5  0.306  0.662  0.500-   9 1.66   1 2.46  31 2.46  46 2.81  15 3.50
   6  0.444  0.357  0.400-  38 2.46  24 2.81  41 2.81  13 2.81
   7  0.444  0.134  0.200-  26 0.00  13 2.81  43 2.81  11 2.81
   8  0.306  0.968  1.000-  22 1.66  12 2.46  48 2.46  33 2.81   4 3.50
   9  0.444  0.718  0.500-   5 1.66  46 2.67  31 2.81   1 2.81  19 2.81
  10  0.194  0.968  0.500-  25 1.66  33 2.46  11 2.81  12 2.81  48 2.81  17 3.50
  11  0.194  0.107  0.400-  45 2.67  10 2.81  32 2.81   7 2.81  26 2.81
  12  0.194  0.884  0.200-  48 0.00   8 2.46  25 2.67   4 2.81  10 2.81  22 2.81  31 2.81   1 2.81

[...]

  32  0.944  0.134  0.200-  35 2.67  30 2.81  11 2.81  43 2.81
  33  0.306  0.884  0.700-  10 2.46  22 2.67   8 2.81  25 2.81  17 2.81  46 2.81
  34  0.556  0.495  0.800-  42 2.67  47 2.81  44 2.81
  35  0.806  0.107  0.900-  32 2.67  27 2.81  45 2.81
  36  0.056  0.718  1.000-   3 1.66   1 2.67  31 2.67  46 2.81  28 2.81  14 3.50
  37  0.944  0.357  0.400-  21 2.46  29 2.81  30 2.81
  38  0.556  0.273  0.600-   6 2.46  27 2.81  47 2.81
  39  0.806  0.884  0.700-  23 2.46   4 2.67  17 2.81  25 2.81  28 2.81
  40  0.056  0.495  0.800-  20 2.67  16 2.81  44 2.81
  41  0.444  0.495  0.300-  24 0.00   6 2.81  20 2.81  42 2.81
  42  0.694  0.523  0.100-  34 2.67  14 2.81  29 2.81  24 2.81  41 2.81
  43  0.694  0.107  0.400-  27 2.67  26 2.81   7 2.81  32 2.81  23 2.81
  44  0.806  0.523  0.600-  29 2.67  34 2.81  40 2.81
  45  0.056  0.134  0.700-  11 2.67  21 2.81  35 2.81
  46  0.306  0.745  0.800-   3 2.46   9 2.67  36 2.81   5 2.81  33 2.81   2 2.81
  47  0.556  0.357  0.900-  13 2.46  34 2.81  38 2.81
  48  0.194  0.884  0.200-  12 0.00   8 2.46  25 2.67   4 2.81  10 2.81  22 2.81   1 2.81  31 2.81

  LATTYP: Found a simple orthorhombic cell.
 ALAT       =     7.6476025580
 B/A-ratio  =     1.1999988777
 C/A-ratio  =     2.5455823088

  Lattice vectors:

 A1 = (   0.0000000000,   0.0000000000,   7.6476025580)
 A2 = (   9.1771144870,   0.0000000000,   0.0000000000)
 A3 = (   0.0000000000,  19.4676017760,   0.0000000000)

Analysis of symmetry for initial positions (statically):
 Subroutine PRICEL returns:
 Original cell was already a primitive cell.

 Routine SETGRP: Setting up the symmetry group for a
 simple orthorhombic supercell.

 Subroutine GETGRP returns: Found  2 space group operations
 (whereof  1 operations were pure point group operations)
 out of a pool of  8 trial point group operations.

The static configuration has the point symmetry C_1 .
 The point group associated with its full space group is C_2 .

Analysis of symmetry for dynamics (positions and initial velocities):
 Subroutine PRICEL returns:
 Original cell was already a primitive cell.

[...]

The dynamic configuration has the point symmetry C_1 .
 The point group associated with its full space group is C_2 .

Analysis of structural, dynamic, and magnetic symmetry:
 Subroutine PRICEL returns:
 Original cell was already a primitive cell.

 Routine SETGRP: Setting up the symmetry group for a
 simple orthorhombic supercell.

 Subroutine GETGRP returns: Found  2 space group operations
 (whereof  1 operations were pure point group operations)
 out of a pool of  8 trial point group operations.

The overall configuration has the point symmetry C_1 .
 The point group associated with its full space group is C_2 .

 Subroutine INISYM returns: Found  2 space group operations
 (whereof  1 operations are pure point group operations),
 and found     1 'primitive' translations

                                     Primitive cell

  volume of cell :    1366.2932

  direct lattice vectors                    reciprocal lattice vectors
     9.177114487  0.000000000  0.000000000     0.108966713  0.000000000  0.000000000
     0.000000000 19.467601776  0.000000000     0.000000000  0.051367396  0.000000000
     0.000000000  0.000000000  7.647602558     0.000000000  0.000000000  0.130759933

  length of vectors
     9.177114487 19.467601776  7.647602558     0.108966713  0.051367396  0.130759933

  position of ions in fractional coordinates (direct lattice)
     0.193513930  0.745466113  0.299999952
     0.556486249  0.717688084  0.999999762
     0.193514079  0.662132859  0.000000000
     0.943514049  0.912132978  0.000000022
     0.306485921  0.662132859  0.499999940
     0.443513989  0.356577277  0.399999857
     0.443514049  0.134355187  0.199999899
     0.306486130  0.967688084  0.999999881
     0.443513811  0.717688084  0.499999821
     0.193513930  0.967688322  0.499999970
     0.193513989  0.106577039  0.399999797
     0.193514019  0.884355068  0.199999973
     0.443513989  0.273243964  0.100000016
     0.693514049  0.662132919  0.000000035
     0.943513870  0.717688084  0.499999821
     0.056486130  0.356577158  0.899999857
     0.556485891  0.912132978  0.499999940
     0.693514109  0.884355068  0.199999973
     0.693514049  0.745466113  0.299999952
     0.193514034  0.523244023  0.099999964
     0.056485891  0.273243964  0.600000024
     0.443514049  0.912132978  0.000000017
     0.693513870  0.967688084  0.499999970
     0.443513989  0.495465994  0.299999923
     0.056485925  0.912132978  0.499999940
     0.443514049  0.134355187  0.199999899
     0.556485951  0.134355187  0.699999928
     0.806486070  0.745466113  0.799999952
     0.943513930  0.495465994  0.299999952
     0.943514049  0.273243934  0.099999987
     0.193513930  0.745466113  0.299999952
     0.943514049  0.134355187  0.199999973
     0.306485891  0.884355068  0.699999928
     0.556486011  0.495465934  0.799999952
     0.806485891  0.106577218  0.899999857
     0.056486130  0.717688084  0.999999881
     0.943513870  0.356577158  0.399999857
     0.556485951  0.273243934  0.599999964
     0.806485891  0.884355068  0.699999928
     0.056486011  0.495465994  0.799999952
     0.443513989  0.495465994  0.299999923
     0.693514049  0.523244023  0.100000001
     0.693513870  0.106577158  0.399999917
     0.806485951  0.523244023  0.599999964
     0.056485891  0.134355187  0.699999928
     0.306486011  0.745466113  0.799999952
     0.556486011  0.356577277  0.899999857
     0.193514019  0.884355068  0.199999973

  ion indices of the primitive-cell ions
   primitive index   ion index
                 1           1
                 2           2
                 3           3
                 4           4
                 5           5
                 6           6
                 7           7
                 8           8
                 9           9
                10          10
                11          11
                12          12
                13          13
                14          14
                15          15
                16          16
                17          17
                18          18
                19          19
                20          20
                21          21
                22          22
                23          23
                24          24
                25          25
                26          26
                27          27
                28          28
                29          29
                30          30
                31          31
                32          32
                33          33
                34          34
                35          35
                36          36
                37          37
                38          38
                39          39
                40          40
                41          41
                42          42
                43          43
                44          44
                45          45
                46          46
                47          47
                48          48

 KPOINTS: Automatic KPOINTS generated

Automatic generation of k-mesh.
 Grid dimensions read from file:
 generate k-points for:    3    2    4

 Generating k-lattice:

  Cartesian coordinates                     Fractional coordinates (reciprocal lattice)
     0.036322238  0.000000000  0.000000000     0.333333333  0.000000000  0.000000000
[...]
     42       0.1886      1.00000
     43       0.5420      1.00000
     44       0.5812      1.00000
     45       0.7932      1.00000
     46       0.8052      1.00000
     47       0.9232      1.00000
     48       1.0471      1.00000
     49       1.0490      1.00000
     50       1.3737      1.00000
     51       1.6589      1.00000
     52       1.6721      1.00000
     53       1.8014      1.00000
     54       1.8141      1.00000
     55       2.0232      1.00000
     56       2.0495      1.00000
     57       2.2250      1.00000
     58       2.2587      1.00000
     59       2.4093      1.00000
     60       2.4400      1.00000
[...]
    102       5.4538      0.00000
    103       5.4807      0.00000
    104       5.5545      0.00000
    105       5.6162      0.00000
    106       5.7150      0.00000
    107       5.7451      0.00000
    108       5.8503      0.00000
    109       5.8786      0.00000
    110       5.9621      0.00000
    111       5.9924      0.00000
    112       6.1355      0.00000
    113       6.1550      0.00000
    114       6.3074      0.00000
    115       6.3725      0.00000
    116       6.4957      0.00000
 Fermi energy:         5.2216032129

 spin component 2

[...]

 k-point    12 :       0.3333    0.5000    0.5000
  band No.  band energies     occupation
      1      -7.3362      1.00000
      2      -6.9990      1.00000
      3      -6.7768      1.00000
      4      -6.7682      1.00000
      5      -5.9575      1.00000
      6      -5.9158      1.00000
      7      -4.7073      1.00000
      8      -4.5745      1.00000
      9      -4.4525      1.00000
     10      -4.4346      1.00000
     11      -4.2730      1.00000
     12      -4.2071      1.00000
     13      -4.1951      1.00000
     14      -4.0239      1.00000
     15      -3.7888      1.00000
     16      -3.4887      1.00000
     17      -3.4354      1.00000
     18      -3.3049      1.00000
     19      -3.2678      1.00000
     20      -3.0751      1.00000
     21      -2.4012      1.00000
     22      -2.3372      1.00000
     23      -1.9990      1.00000
     24      -1.9296      1.00000
     25      -1.8295      1.00000
     26      -1.6776      1.00000
     27      -1.3433      1.00000
     28      -1.2439      1.00000
     29      -1.1423      1.00000
     30      -1.0864      1.00000
     31      -0.9616      1.00000
     32      -0.9028      1.00000
     33      -0.6621      1.00000
     34      -0.4088      1.00000
     35      -0.3093      1.00000
     36      -0.2970      1.00000
     37      -0.2462      1.00000
     38      -0.1381      1.00000
     39      -0.0233      1.00000
     40       0.0685      1.00000
     41       0.0824      1.00000
     42       0.2015      1.00000
     43       0.5527      1.00000
     44       0.5941      1.00000
     45       0.8095      1.00000
     46       0.8164      1.00000
     47       0.9389      1.00000
     48       1.0580      1.00000
     49       1.0607      1.00000
     50       1.3886      1.00000
     51       1.6752      1.00000
     52       1.6976      1.00000
     53       1.8230      1.00000
     54       1.8341      1.00000
     55       2.0380      1.00000
     56       2.0626      1.00000
     57       2.2381      1.00000
     58       2.2780      1.00000
     59       2.4259      1.00000
     60       2.4525      1.00000
[...]
    102       5.4898      0.00000
    103       5.5018      0.00000
    104       5.5806      0.00000
    105       5.6430      0.00000
    106       5.7418      0.00000
    107       5.7784      0.00000
    108       5.8748      0.00000
    109       5.9110      0.00000
    110       5.9855      0.00000
    111       6.0137      0.00000
    112       6.1571      0.00000
    113       6.1805      0.00000
    114       6.3307      0.00000
    115       6.3913      0.00000
    116       6.5345      0.00000

 soft charge-density along one line, spin component           1
         0         1         2         3         4         5         6         7         8         9
 total charge-density along one line

 soft charge-density along one line, spin component           2
         0         1         2         3         4         5         6         7         8         9
 total charge-density along one line

------------------------ aborting loop because EDIFF is reached ----------------------------------------

  FORCE on cell =-STRESS in cart. coord.  units (eV):
  Direction    XX          YY          ZZ          XY          YZ          ZX
  Alpha Z   210.94457   210.94457   210.94457
  Ewald   -1169.11897 -2298.78263  -933.34792    -0.00021  -171.08367     0.00026
  Hartree   670.46192  -391.37862   809.79791    -0.00002    -1.52769    -0.00002
  E(xc)    -921.61270  -917.84382  -901.90904     0.00005     9.55810    -0.00002
  Local   -1717.35981   382.45327 -2339.56264    -0.00010   174.48235     0.00008
  n-local  2455.32670  2486.96653  2445.04570    -0.17325   -93.75769    -0.41390
  augment  -456.56628  -481.49507  -529.44593    -0.00009     8.89740     0.00004
  Kinetic  1454.42588  1455.74476  1427.36321    -0.69870    20.19716     0.51204
  Fock        0.00000     0.00000     0.00000     0.00000     0.00000     0.00000
  Total     526.50131   446.60899   188.88587     0.00000   -53.23404     0.00000
  in kB     617.39929   523.71394   221.49613     0.00000   -62.42465     0.00000

 VOLUME and BASIS-vectors are now :
  energy-cutoff  :      700.00
  volume of cell :     1366.29
      direct lattice vectors                 reciprocal lattice vectors
     9.177114487  0.000000000  0.000000000     0.108966713  0.000000000  0.000000000
     0.000000000 19.467601776  0.000000000     0.000000000  0.051367396  0.000000000
     0.000000000  0.000000000  7.647602558     0.000000000  0.000000000  0.130759933

  length of vectors
     9.177114487 19.467601776  7.647602558     0.108966713  0.051367396  0.130759933

 FORCES acting on ions
    electron-ion (+dipol)            ewald-force                    non-local-force                 convergence-correction
   0.111E+02 0.420E+02 -.123E+02   -.109E+02 -.386E+02 0.973E+01   -.225E+01 -.192E+01 0.207E+01   -.582E-04 0.491E-03 -.191E-03
   0.874E+01 0.274E+02 0.928E+01   -.384E+02 -.390E+01 -.988E+01   -.259E+02 0.217E+02 0.896E-01   -.219E-03 0.105E-03 0.878E-04
   -.607E+01 0.106E+03 0.268E+02   0.339E+02 -.131E+03 -.248E+02   0.234E+02 -.258E+02 -.179E+01   0.332E-05 0.391E-03 0.303E-03
   0.317E+02 -.628E+02 0.170E+02   -.290E+02 0.627E+02 -.154E+02   -.382E+01 0.157E+01 -.184E+01   0.361E-03 -.185E-03 0.202E-03
   -.196E+01 0.126E+03 -.356E+02   -.273E+02 -.150E+03 0.335E+02   -.181E+02 -.334E+02 0.886E+01   -.211E-03 0.296E-03 -.309E-03
   0.142E+02 0.219E+02 -.124E+02   -.143E+02 -.190E+02 0.117E+02   -.154E+01 -.186E+01 -.271E+00   -.576E-04 0.251E-03 -.673E-04
   0.411E+01 -.411E+02 0.233E+02   -.355E+01 0.440E+02 -.193E+02   -.621E+00 -.345E+01 -.544E+01   -.118E-03 -.104E-03 -.140E-04
   -.196E+01 -.126E+03 0.356E+02   -.273E+02 0.150E+03 -.335E+02   -.181E+02 0.334E+02 -.886E+01   -.211E-03 -.298E-03 0.309E-03
   -.629E+02 0.409E+02 -.183E+02   0.910E+02 -.166E+02 0.176E+02   0.296E+02 0.201E+02 0.842E+00   -.358E-03 0.139E-03 -.207E-03
   -.607E+01 -.106E+03 -.268E+02   0.339E+02 0.131E+03 0.248E+02   0.234E+02 0.258E+02 0.179E+01   0.324E-05 -.393E-03 -.303E-03
   0.137E+02 -.604E+02 -.109E+02   -.114E+02 0.615E+02 0.960E+01   -.260E+01 -.100E+01 0.133E+01   0.271E-03 -.110E-03 -.209E-03
   0.111E+02 -.420E+02 0.123E+02   -.109E+02 0.386E+02 -.973E+01   -.225E+01 0.192E+01 -.207E+01   -.583E-04 -.493E-03 0.191E-03
   0.142E+02 -.219E+02 0.124E+02   -.143E+02 0.190E+02 -.117E+02   -.154E+01 0.186E+01 0.271E+00   -.576E-04 -.249E-03 0.673E-04
   -.195E+02 0.804E+02 0.543E+01   0.471E+02 -.107E+03 -.524E+01   0.237E+02 -.228E+02 0.152E+01   -.275E-05 0.110E-03 0.588E-04
   0.317E+02 0.628E+02 -.170E+02   -.290E+02 -.627E+02 0.154E+02   -.382E+01 -.157E+01 0.184E+01   0.361E-03 0.183E-03 -.202E-03
   -.104E+02 0.808E+01 0.496E+01   0.110E+02 -.762E+01 -.533E+01   0.105E+01 0.136E+01 -.151E+01   0.284E-04 -.231E-04 0.106E-04
   0.874E+01 -.274E+02 -.928E+01   -.384E+02 0.390E+01 0.988E+01   -.259E+02 -.217E+02 -.896E-01   -.218E-03 -.107E-03 -.878E-04
   -.135E+02 -.320E+02 0.167E+02   0.140E+02 0.314E+02 -.196E+02   0.439E+00 -.425E+00 -.173E-02   0.416E-04 -.558E-04 0.108E-05
   -.135E+02 0.320E+02 -.167E+02   0.140E+02 -.314E+02 0.196E+02   0.439E+00 0.425E+00 0.173E-02   0.415E-04 0.535E-04 -.109E-05
   0.137E+02 0.604E+02 0.109E+02   -.114E+02 -.615E+02 -.960E+01   -.260E+01 0.100E+01 -.133E+01   0.271E-03 0.111E-03 0.209E-03
   -.104E+02 -.808E+01 -.496E+01   0.110E+02 0.762E+01 0.533E+01   0.105E+01 -.136E+01 0.151E+01   0.284E-04 0.255E-04 -.106E-04
   -.629E+02 -.409E+02 0.183E+02   0.910E+02 0.166E+02 -.176E+02   0.296E+02 -.201E+02 -.842E+00   -.358E-03 -.141E-03 0.207E-03
   -.195E+02 -.804E+02 -.543E+01   0.471E+02 0.107E+03 0.524E+01   0.237E+02 0.228E+02 -.152E+01   -.265E-05 -.111E-03 -.588E-04
   0.411E+01 0.411E+02 -.233E+02   -.355E+01 -.440E+02 0.193E+02   -.621E+00 0.345E+01 0.544E+01   -.118E-03 0.106E-03 0.140E-04
   0.540E+02 -.417E+02 -.311E+02   -.821E+02 0.176E+02 0.289E+02   -.294E+02 -.202E+02 0.574E+01   0.312E-03 -.301E-03 -.370E-03
   0.411E+01 -.411E+02 0.233E+02   -.355E+01 0.440E+02 -.193E+02   -.621E+00 -.345E+01 -.544E+01   -.118E-03 -.104E-03 -.140E-04
   0.149E+02 -.429E+02 -.190E+02   -.163E+02 0.417E+02 0.195E+02   -.553E+00 0.132E+01 0.129E+01   -.113E-03 -.293E-04 0.358E-04
   0.430E+01 0.243E+02 0.178E+02   -.236E+01 -.228E+02 -.187E+02   0.653E+00 0.154E+01 -.184E+01   0.169E-03 0.863E-04 0.155E-05
   -.669E+01 0.433E+02 -.431E+01   0.695E+01 -.426E+02 0.448E+01   0.381E+00 -.885E+00 -.883E+00   0.816E-04 0.688E-04 0.633E-04
   0.659E+01 -.640E+01 0.290E+01   -.728E+01 0.666E+01 -.227E+01   -.113E+01 -.201E+01 0.123E+01   0.508E-04 0.593E-05 0.914E-05
   0.111E+02 0.420E+02 -.123E+02   -.109E+02 -.386E+02 0.973E+01   -.225E+01 -.192E+01 0.207E+01   -.582E-04 0.491E-03 -.191E-03
   -.669E+01 -.433E+02 0.431E+01   0.695E+01 0.426E+02 -.448E+01   0.381E+00 0.885E+00 0.883E+00   0.815E-04 -.678E-04 -.633E-04
   -.955E+01 -.231E+02 -.703E+01   0.109E+02 0.216E+02 0.740E+01   0.661E+00 -.261E+01 0.522E+00   -.182E-03 -.127E-03 -.993E-04
   0.149E+02 0.429E+02 0.190E+02   -.163E+02 -.417E+02 -.195E+02   -.553E+00 -.132E+01 -.129E+01   -.113E-03 0.304E-04 -.358E-04
   0.228E+00 -.380E+02 0.268E+01   -.667E+00 0.373E+02 -.300E+01   -.229E+00 -.225E+00 -.133E+00   0.717E-06 -.766E-04 0.610E-04
   0.540E+02 0.417E+02 0.311E+02   -.821E+02 -.176E+02 -.289E+02   -.294E+02 0.202E+02 -.574E+01   0.312E-03 0.299E-03 0.370E-03
   0.659E+01 0.640E+01 -.290E+01   -.728E+01 -.666E+01 0.227E+01   -.113E+01 0.201E+01 -.123E+01   0.508E-04 -.350E-05 -.915E-05
   -.906E+01 -.948E+01 -.750E+01   0.101E+02 0.914E+01 0.851E+01   0.585E+00 -.164E+01 0.718E+00   -.314E-04 -.318E-04 -.407E-05
   0.430E+01 -.243E+02 -.178E+02   -.236E+01 0.228E+02 0.187E+02   0.653E+00 -.154E+01 0.184E+01   0.169E-03 -.886E-04 -.153E-05
   -.595E+01 0.445E+02 0.177E+02   0.611E+01 -.438E+02 -.194E+02   -.115E+00 -.897E+00 0.667E+00   0.744E-04 0.695E-04 -.696E-04
   0.411E+01 0.411E+02 -.233E+02   -.355E+01 -.440E+02 0.193E+02   -.621E+00 0.345E+01 0.544E+01   -.118E-03 0.106E-03 0.140E-04
   -.288E+02 0.504E+02 0.734E+01   0.271E+02 -.511E+02 -.599E+01   0.432E+01 0.995E+00 -.910E+00   -.251E-03 0.114E-04 0.172E-03
   -.288E+02 -.504E+02 -.734E+01   0.271E+02 0.511E+02 0.599E+01   0.432E+01 -.995E+00 0.910E+00   -.251E-03 -.107E-04 -.172E-03
   0.228E+00 0.380E+02 -.268E+01   -.667E+00 -.373E+02 0.300E+01   -.229E+00 0.225E+00 0.133E+00   0.718E-06 0.771E-04 -.609E-04
   -.595E+01 -.445E+02 -.177E+02   0.611E+01 0.438E+02 0.194E+02   -.115E+00 0.897E+00 -.667E+00   0.744E-04 -.685E-04 0.696E-04
   -.955E+01 0.231E+02 0.703E+01   0.109E+02 -.216E+02 -.740E+01   0.661E+00 0.261E+01 -.522E+00   -.182E-03 0.125E-03 0.993E-04
   -.906E+01 0.948E+01 0.750E+01   0.101E+02 -.914E+01 -.851E+01   0.585E+00 0.164E+01 -.718E+00   -.314E-04 0.342E-04 0.407E-05
   0.111E+02 -.420E+02 0.123E+02   -.109E+02 0.386E+02 -.973E+01   -.225E+01 0.192E+01 -.207E+01   -.583E-04 -.493E-03 0.191E-03
   0.877E+01 -.268E-02 -.733E-03   0.480E-13 0.284E-13 -.497E-13   -.875E+01 0.400E-14 0.000E+00   -.772E-03 -.707E-05 -.641E-07

 POSITION                                       TOTAL-FORCE (eV/Angst)
      1.77590     14.51244      2.29428        -2.112478      1.409002     -0.452716
      5.10694     13.97167      7.64760       -55.564528     45.215909     -0.513179
      1.77590     12.89014      0.00000        51.196970    -50.440649      0.144060
      8.65874     17.75704      0.00000        -1.192924      1.486376     -0.240091
      2.81266     12.89014      3.82380       -47.369625    -56.884742      6.744649
      4.07018      6.94170      3.05904        -1.608832      1.017141     -1.048609
      4.07018      2.61557      1.52952        -0.061696     -0.507232     -1.412665
      2.81266     18.83857      7.64760       -47.369625     56.884742     -6.744649
      4.07018     13.97167      3.82380        57.642317     44.468422      0.143188
      1.77590     18.83857      3.82380        51.196970     50.440649     -0.144060
      1.77590      2.07480      3.05904        -0.211203      0.075022      0.022138
      1.77590     17.21627      1.52952        -2.112478     -1.409002      0.452716
      4.07018      5.31940      0.76476        -1.608832     -1.017141      1.048609
      6.36446     12.89014      0.00000        51.287050    -49.383038      1.710374
      8.65873     13.97167      3.82380        -1.192924     -1.486376      0.240091
      0.51838      6.94170      6.88284         1.696661      1.818065     -1.879658
      5.10693     17.75704      3.82380       -55.564528    -45.215909      0.513179
      6.36446     17.21627      1.52952         0.874099     -0.955825     -2.893690
      6.36446     14.51244      2.29428         0.874099      0.955825      2.893690
      1.77590     10.18631      0.76476        -0.211203     -0.075022     -0.022138
      0.51838      5.31940      4.58856         1.696661     -1.818065      1.879658
      4.07018     17.75704      0.00000        57.642317    -44.468422     -0.143188
      6.36446     18.83857      3.82380        51.287050     49.383038     -1.710374
      4.07018      9.64553      2.29428        -0.061696      0.507232      1.412665
      0.51838     17.75704      3.82380       -57.432722    -44.369010      3.592544
      4.07018      2.61557      1.52952        -0.061696     -0.507232     -1.412665
      5.10694      2.61557      5.35332        -1.982259      0.139562      1.709879
      7.40121     14.51244      6.11808         2.593946      3.034508     -2.741900
      8.65874      9.64553      2.29428         0.635918     -0.133100     -0.711978
      8.65874      5.31940      0.76476        -1.825059     -1.746221      1.859873
      1.77590     14.51244      2.29428        -2.112478      1.409002     -0.452716
      8.65874      2.61557      1.52952         0.635918      0.133100      0.711978
      2.81266     17.21627      5.35332         1.966474     -4.116509      0.888602
      5.10694      9.64553      6.11808        -1.982259     -0.139562     -1.709879
      7.40121      2.07480      6.88284        -0.668144     -0.942347     -0.454891
      0.51838     13.97167      7.64760       -57.432722     44.369010     -3.592544
      8.65873      6.94170      3.05904        -1.825059      1.746221     -1.859873
      5.10694      5.31940      4.58856         1.658272     -1.980147      1.722831
      7.40121     17.21627      5.35332         2.593946     -3.034508      2.741900
      0.51838      9.64553      6.11808         0.047325     -0.207855     -1.069975
      4.07018      9.64553      2.29428        -0.061696      0.507232      1.412665
      6.36446     10.18631      0.76476         2.604612      0.268339      0.440329
      6.36446      2.07480      3.05904         2.604612     -0.268339     -0.440329
      7.40121     10.18631      4.58856        -0.668144      0.942347      0.454891
      0.51838      2.61557      5.35332         0.047325      0.207855      1.069975
      2.81266     14.51244      6.11808         1.966474      4.116509     -0.888602
      5.10694      6.94170      6.88284         1.658272      1.980147     -1.722831
      1.77590     17.21627      1.52952        -2.112478     -1.409002      0.452716
    total drift:                                0.023789     -0.002690     -0.000733

  FREE ENERGIE OF THE ION-ELECTRON SYSTEM (eV)
  free  energy   TOTEN  =      -493.92281117 eV

  energy  without entropy=     -493.92068909  energy(sigma->0) =     -493.92175013