 vasp.6.4.3 19Mar24 (build Oct 22 2024 11:23:12) complex

 executed on             LinuxIFC date 2025.04.30  05:48:58

 INCAR:
   SYSTEM = Si013 and Ge001 interface calculation
   ISTART = 0
   ICHARG = 2
   LWAVE = .FALSE.
   LREAL = AUTO
   ENCUT = 700
   ENAUG = 900
   ADDGRID = .TRUE.
   LMAXMIX = 6
   LASPH = .TRUE.
   LMIXTAU = .TRUE.
   NCORE = 16
   NELM = 100
   NBANDS = 144
   EDIFF = 1d-7
   AMIX = 0.6
   ISMEAR = 0
   SIGMA = 0.01
   NELECT = 240
   ISPIN = 2
   NUPDOWN = 1
   LVTOT = .FALSE.
   LVHAR = .TRUE.

 POTCAR:    PAW_PBE Si 05Jan2001
 POTCAR:    PAW_PBE Ge 05Jan2001
|           W    W    AA    RRRRR   N    N  II  N    N   GGGG   !!!           |
|           W    W   A  A   R    R  NN   N  II  NN   N  G    G  !!!           |
|           W    W  A    A  R    R  N N  N  II  N N  N  G       !!!           |
|           W WW W  AAAAAA  RRRRR   N  N N  II  N  N N  G  GGG   !            |
|           WW  WW  A    A  R   R   N   NN  II  N   NN  G    G                |
|           W    W  A    A  R    R  N    N  II  N    N   GGGG   !!!           |
|     You use a magnetic or noncollinear calculation, but did not specify     |
|     the initial magnetic moment with the MAGMOM tag. Note that a            |
|     default of 0.017 will be used for all atoms. This ferromagnetic         |
|     setup may break the symmetry of the crystal, in particular it may       |
|     rule out finding an antiferromagnetic solution. Thence, we              |
|     recommend setting the initial magnetic moment manually or verifying     |
|     carefully that this magnetic setup is desired.                          |

 POTCAR:    PAW_PBE Si 05Jan2001
   VRHFIN =Si: s2p2

   TITEL  = PAW_PBE Si 05Jan2001
   POMASS =   28.085; ZVAL   =    4.000    mass and valenz
   ENMAX  =  245.345; ENMIN  =  184.009 eV

 POTCAR:    PAW_PBE Ge 05Jan2001
   VRHFIN =Ge: s2p2

   TITEL  = PAW_PBE Ge 05Jan2001
   POMASS =   72.610; ZVAL   =    4.000    mass and valenz
   ENMAX  =  173.807; ENMIN  =  130.355 eV

 Optimization of the real space projectors (new method)

 maximal supplied QI-value         = 19.84
 optimisation between [QCUT,QGAM] = [ 13.49, 26.99] = [ 50.98,203.92] Ry
 Optimized for a Real-space Cutoff    1.07 Angstroem

   l    n(q)    QCUT    max X(q) W(low)/X(q) W(high)/X(q)  e(spline)
   0      9    13.493   159.560    0.22E-03    0.15E-03    0.72E-07
   0      9    13.493   115.863    0.21E-03    0.15E-03    0.71E-07
   1      8    13.493    88.339    0.15E-03    0.11E-03    0.13E-06
   1      8    13.493    48.592    0.15E-03    0.10E-03    0.13E-06
 Optimization of the real space projectors (new method)

 maximal supplied QI-value         = 16.25
 optimisation between [QCUT,QGAM] = [ 13.49, 26.98] = [ 50.95,203.80] Ry
 Optimized for a Real-space Cutoff    1.25 Angstroem

   l    n(q)    QCUT    max X(q) W(low)/X(q) W(high)/X(q)  e(spline)
   0     10    13.489    65.336    0.91E-04    0.11E-03    0.34E-06
   0     10    13.489    52.220    0.89E-04    0.11E-03    0.34E-06
   1     10    13.489    36.409    0.22E-03    0.27E-03    0.14E-06
   1     10    13.489    21.334    0.21E-03    0.27E-03    0.14E-06
   2      9    13.489     4.673    0.11E-03    0.12E-03    0.19E-06
  PAW_PBE Si 05Jan2001                  :
  PAW_PBE Ge 05Jan2001                  :

 POSCAR: fcc Si+fcc Ge
  positions in direct lattice

 exchange-correlation table for PE
   RHO(1)=    0.500       N(1)  =     2000
   RHO(2)=  100.500       N(2)  =     4000

 ion  position               nearest neighbor table
   1  0.000  0.000  0.000-  20 2.37  21 2.37  45 2.80  54 2.84
   2  0.500  0.150  0.056-  13 2.37  21 2.37  22 2.37
   3  0.000  0.300  0.112-  23 2.37  22 2.37  14 2.37  13 2.37
   4  0.500  0.450  0.169-  24 2.37  23 2.37  15 2.37  14 2.37
   5  0.000  0.600  0.225-  15 2.37  16 2.37  24 2.37
   6  0.500  0.750  0.281-  16 2.37  17 2.37  37 2.45
   7  0.000  0.500  0.000-  14 2.37  15 2.37  57 2.80  51 2.84
   8  0.500  0.650  0.056-  15 2.37  19 2.37  16 2.37
   9  0.000  0.800  0.112-  17 2.37  16 2.37  20 2.37  19 2.37
  10  0.500  0.950  0.169-  18 2.37  17 2.37  21 2.37  20 2.37
  11  0.000  0.100  0.225-  21 2.37  22 2.37  18 2.37
  12  0.500  0.250  0.281-  22 2.37  23 2.37  34 2.49
  13  0.250  0.250  0.000-  48 2.00   2 2.37   3 2.37
  14  0.750  0.400  0.056-   3 2.37   7 2.37   4 2.37  57 2.88
  15  0.250  0.550  0.112-   5 2.37   4 2.37   8 2.37   7 2.37
  16  0.750  0.700  0.169-   6 2.37   5 2.37   9 2.37   8 2.37
  17  0.250  0.850  0.225-   9 2.37  10 2.37   6 2.37
  18  0.750  0.000  0.281-  10 2.37  11 2.37  40 2.42
  19  0.250  0.750  0.000-   8 2.37   9 2.37
  20  0.750  0.900  0.056-   1 2.37   9 2.37  10 2.37
  21  0.250  0.050  0.112-  11 2.37  10 2.37   2 2.37   1 2.37
  22  0.750  0.200  0.169-  12 2.37  11 2.37   3 2.37   2 2.37
  23  0.250  0.350  0.225-   3 2.37   4 2.37  12 2.37
  24  0.750  0.500  0.281-   4 2.37   5 2.37  28 2.42
  25  0.000  0.169  0.411-  43 2.44  58 2.44
  26  0.000  0.002  0.595-  49 2.44  59 2.44  58 2.44  44 2.44
  27  0.000  0.835  0.778-  45 2.44  59 2.44  50 2.44  60 2.44
  28  0.000  0.502  0.411-  24 2.42  52 2.44  46 2.44
  29  0.000  0.335  0.595-  47 2.44  52 2.44  43 2.44  53 2.44
  30  0.000  0.169  0.778-  48 2.44  53 2.44  44 2.44  54 2.44
  31  0.000  0.835  0.411-  49 2.44  55 2.44
  32  0.000  0.669  0.595-  50 2.44  55 2.44  46 2.44  56 2.44
  33  0.000  0.502  0.778-  47 2.44  57 2.44  56 2.44  51 2.44
  34  0.500  0.335  0.411-  52 2.44  43 2.44  12 2.49
  35  0.500  0.169  0.595-  43 2.44  53 2.44  44 2.44  58 2.44
  36  0.500  0.002  0.778-  45 2.44  59 2.44  54 2.44  44 2.44
  37  0.500  0.669  0.411-  55 2.44  46 2.44   6 2.45
  38  0.500  0.502  0.595-  47 2.44  52 2.44  46 2.44  56 2.44
  39  0.500  0.335  0.778-  47 2.44  57 2.44  53 2.44  48 2.44
  40  0.500  0.002  0.411-  18 2.42  49 2.44  58 2.44
  41  0.500  0.835  0.595-  49 2.44  59 2.44  55 2.44  50 2.44
  42  0.500  0.669  0.778-  50 2.44  60 2.44  56 2.44  51 2.44
  43  0.250  0.252  0.503-  25 2.44  35 2.44  34 2.44  29 2.44
  44  0.250  0.085  0.687-  30 2.44  35 2.44  26 2.44  36 2.44
  45  0.250  0.919  0.870-  36 2.44  27 2.44   1 2.80
  46  0.250  0.585  0.503-  32 2.44  37 2.44  28 2.44  38 2.44
  47  0.250  0.419  0.687-  33 2.44  38 2.44  29 2.44  39 2.44
  48  0.250  0.252  0.870-  13 2.00  30 2.44  39 2.44
  49  0.250  0.919  0.503-  26 2.44  40 2.44  31 2.44  41 2.44
  50  0.250  0.752  0.687-  32 2.44  42 2.44  41 2.44  27 2.44
  51  0.250  0.585  0.870-  42 2.44  33 2.44   7 2.84
  52  0.750  0.419  0.503-  28 2.44  38 2.44  34 2.44  29 2.44
  53  0.750  0.252  0.687-  30 2.44  35 2.44  29 2.44  39 2.44
  54  0.750  0.085  0.870-  30 2.44  36 2.44   1 2.84
  55  0.750  0.752  0.503-  32 2.44  37 2.44  31 2.44  41 2.44
  56  0.750  0.585  0.687-  32 2.44  42 2.44  38 2.44  33 2.44
  57  0.750  0.419  0.870-  33 2.44  39 2.44   7 2.80  14 2.88
  58  0.750  0.085  0.503-  25 2.44  35 2.44  26 2.44  40 2.44
  59  0.750  0.919  0.687-  26 2.44  36 2.44  27 2.44  41 2.44
  60  0.750  0.752  0.870-  42 2.44  27 2.44

  LATTYP: Found a simple orthorhombic cell.
 ALAT       =     5.4800000000
 B/A-ratio  =     2.8115548164
 C/A-ratio  =     3.1622776602

  Lattice vectors:

 A1 = (  -5.4800000000,   0.0000000000,   0.0000000000)
 A2 = (   0.0000000000,   0.0000000000,  15.4073203940)
 A3 = (   0.0000000000,  17.3292815780,   0.0000000000)

Analysis of symmetry for initial positions (statically):
 Subroutine PRICEL returns:
 Original cell was already a primitive cell.

 Routine SETGRP: Setting up the symmetry group for a
 simple orthorhombic supercell.

 Subroutine GETGRP returns: Found  1 space group operations
 (whereof  1 operations were pure point group operations)
 out of a pool of  8 trial point group operations.

The static configuration has the point symmetry C_1 .

Analysis of symmetry for dynamics (positions and initial velocities):
 Subroutine PRICEL returns:
 Original cell was already a primitive cell.

[...]

The dynamic configuration has the point symmetry C_1 .

Analysis of structural, dynamic, and magnetic symmetry:
 Subroutine PRICEL returns:
 Original cell was already a primitive cell.

 Routine SETGRP: Setting up the symmetry group for a
 simple orthorhombic supercell.

 Subroutine GETGRP returns: Found  1 space group operations
 (whereof  1 operations were pure point group operations)
 out of a pool of  8 trial point group operations.

The overall configuration has the point symmetry C_1 .

 Subroutine INISYM returns: Found  1 space group operations
 (whereof  1 operations are pure point group operations),
 and found     1 'primitive' translations

                                     Primitive cell

  volume of cell :    1463.1479

  direct lattice vectors                    reciprocal lattice vectors
     5.480000000  0.000000000  0.000000000     0.182481752  0.000000000  0.000000000
     0.000000000 17.329281578  0.000000000     0.000000000  0.057705797  0.000000000
     0.000000000  0.000000000 15.407320394     0.000000000  0.000000000  0.064904213

  length of vectors
     5.480000000 17.329281578 15.407320394     0.182481752  0.057705797  0.064904213

  position of ions in fractional coordinates (direct lattice)
     0.000000000  0.000000000  0.000000000
     0.500000000  0.150000000  0.056237169
     0.000000000  0.300000000  0.112474338
     0.500000000  0.450000000  0.168711507
     0.000000000  0.600000000  0.224948675
     0.500000000  0.750000000  0.281185844
     0.000000000  0.500000000  0.000000000
     0.500000000  0.650000000  0.056237169
     0.000000000  0.800000000  0.112474338
     0.500000000  0.950000000  0.168711507
     0.000000000  0.100000000  0.224948675
     0.500000000  0.250000000  0.281185844
     0.250000000  0.250000000  0.000000000
     0.750000000  0.400000000  0.056237169
     0.250000000  0.550000000  0.112474338
     0.750000000  0.700000000  0.168711507
     0.250000000  0.850000000  0.224948675
     0.750000000  0.000000000  0.281185844
     0.250000000  0.750000000  0.000000000
     0.750000000  0.900000000  0.056237169
     0.250000000  0.050000000  0.112474338
     0.750000000  0.200000000  0.168711507
     0.250000000  0.350000000  0.224948675
     0.750000000  0.500000000  0.281185844
     0.000000000  0.168604651  0.410994270
     0.000000000  0.001937984  0.594673192
     0.000000000  0.835271318  0.778352114
     0.000000000  0.501937984  0.410994270
     0.000000000  0.335271318  0.594673192
     0.000000000  0.168604651  0.778352114
     0.000000000  0.835271318  0.410994270
     0.000000000  0.668604651  0.594673192
     0.000000000  0.501937984  0.778352114
     0.500000000  0.335271318  0.410994270
     0.500000000  0.168604651  0.594673192
     0.500000000  0.001937984  0.778352114
     0.500000000  0.668604651  0.410994270
     0.500000000  0.501937984  0.594673192
     0.500000000  0.335271318  0.778352114
     0.500000000  0.001937984  0.410994270
     0.500000000  0.835271318  0.594673192
     0.500000000  0.668604651  0.778352114
     0.250000000  0.251937984  0.502833731
     0.250000000  0.085271318  0.686512653
     0.250000000  0.918604651  0.870191575
     0.250000000  0.585271318  0.502833731
[...]
     38      -3.5377      1.00000
     39      -3.5342      1.00000
     40      -3.4907      1.00000
     41      -3.3965      1.00000
     42      -3.3458      1.00000
     43      -3.3033      1.00000
     44      -3.1239      1.00000
     45      -2.9490      1.00000
     46      -2.8483      1.00000
     47      -2.6889      1.00000
     48      -2.5836      1.00000
     49      -2.4753      1.00000
     50      -2.3536      1.00000
     51      -2.2703      1.00000
     52      -2.2287      1.00000
     53      -2.1482      1.00000
     54      -1.9509      1.00000
     55      -1.8461      1.00000
     56      -1.8281      1.00000
     57      -1.4237      1.00000
     58      -1.3963      1.00000
     59      -1.2487      1.00000
     60      -1.0582      1.00000
[...]
    130       4.2797      0.00000
    131       4.3528      0.00000
    132       4.4664      0.00000
    133       4.6024      0.00000
    134       4.6454      0.00000
    135       4.8195      0.00000
    136       4.8275      0.00000
    137       4.8798      0.00000
    138       5.0276      0.00000
    139       5.1131      0.00000
    140       5.1727      0.00000
    141       5.2681      0.00000
    142       5.3191      0.00000
    143       5.3656      0.00000
    144       5.5581      0.00000

 soft charge-density along one line, spin component           1
         0         1         2         3         4         5         6         7         8         9
 total charge-density along one line

 soft charge-density along one line, spin component           2
         0         1         2         3         4         5         6         7         8         9
 total charge-density along one line

------------------------ aborting loop because EDIFF is reached ----------------------------------------

  FORCE on cell =-STRESS in cart. coord.  units (eV):
  Direction    XX          YY          ZZ          XY          YZ          ZX
  Alpha Z   315.29329   315.29329   315.29329
  Ewald   -2173.13499 -1994.74431 -2074.46033   220.51876   -73.38489    -0.00000
  Hartree   221.57717   277.68781   135.29858    57.99781   -22.48693     0.03181
  E(xc)    -785.29594  -786.07550  -785.57887    -1.90587     0.19399     0.00051
  Local    -830.82393 -1068.70715  -830.60082  -280.78497   101.57835     0.50664
  n-local  1623.00183  1638.87818  1640.87129    20.19220    -8.51673    -0.31173
  augment  -101.44406  -102.45312  -101.19246    -1.03677     0.98739     0.05665
  Kinetic  1738.68074  1722.62821  1712.15685    -4.93471     0.65513     1.84829
  Fock        0.00000     0.00000     0.00000     0.00000     0.00000     0.00000
  Total       7.85411     2.50742    11.78752    10.04644    -0.97369     2.13218
  in kB       8.60041     2.74568    12.90758    11.00107    -1.06621     2.33478

 VOLUME and BASIS-vectors are now :
  energy-cutoff  :      700.00
  volume of cell :     1463.15
      direct lattice vectors                 reciprocal lattice vectors
     5.480000000  0.000000000  0.000000000     0.182481752  0.000000000  0.000000000
     0.000000000 17.329281578  0.000000000     0.000000000  0.057705797  0.000000000
     0.000000000  0.000000000 15.407320394     0.000000000  0.000000000  0.064904213

  length of vectors
     5.480000000 17.329281578 15.407320394     0.182481752  0.057705797  0.064904213

 FORCES acting on ions
    electron-ion (+dipol)            ewald-force                    non-local-force                 convergence-correction
   0.531E+00 -.102E+02 0.225E+02   -.101E+01 0.887E+01 -.211E+02   0.188E+00 0.865E+00 -.310E+01   -.153E-04 -.687E-06 -.272E-04
   -.150E+02 0.808E+01 0.266E+02   0.141E+02 -.744E+01 -.256E+02   0.933E+00 -.597E+00 -.173E+01   -.460E-04 0.293E-03 -.115E-03
   0.971E+00 -.555E+00 0.460E+01   -.104E+01 0.962E+00 -.442E+01   0.874E-01 -.254E+00 -.421E+00   0.218E-04 0.207E-03 -.217E-03
   0.320E+00 -.192E+00 -.560E+01   -.798E+00 -.230E+00 0.501E+01   0.146E+00 0.560E-01 0.660E+00   0.651E-05 0.864E-04 -.180E-03
   -.159E+02 -.114E+02 -.272E+02   0.148E+02 0.101E+02 0.259E+02   0.111E+01 0.118E+01 0.985E+00   0.701E-05 -.826E-04 -.111E-03
   0.328E+01 0.603E-01 -.180E+02   -.183E+01 0.177E+01 0.166E+02   -.158E+01 -.185E+01 0.119E+01   -.438E-05 -.233E-03 -.818E-04
   -.255E+00 -.889E+01 0.193E+02   -.241E+00 0.878E+01 -.178E+02   0.551E+00 0.622E+00 -.139E+01   -.363E-05 -.584E-04 -.123E-04
   -.171E+02 0.821E+01 0.266E+02   0.161E+02 -.766E+01 -.249E+02   0.995E+00 -.631E+00 -.193E+01   -.199E-04 -.202E-03 -.626E-05
   0.596E+00 -.683E+00 0.459E+01   -.127E+00 0.658E+00 -.465E+01   -.587E+00 0.350E+00 0.151E+00   -.183E-04 -.223E-03 -.357E-04
   0.124E+01 0.150E+01 -.403E+01   -.367E+00 -.139E+01 0.393E+01   -.609E+00 -.224E+00 0.583E-01   0.175E-04 -.119E-03 -.621E-04
   -.174E+02 -.506E+01 -.260E+02   0.154E+02 0.498E+01 0.238E+02   0.170E+01 0.440E+00 0.313E+01   -.914E-05 0.119E-03 -.732E-04
   -.261E+01 0.182E+02 -.186E+02   0.572E+00 -.188E+02 0.177E+02   0.179E+01 0.642E+00 0.104E+01   0.340E-05 0.206E-03 -.126E-03
   -.632E+00 -.904E+01 -.511E+01   0.671E+00 0.806E+01 0.472E+01   0.291E+00 0.847E+00 0.717E+01   -.397E-05 0.268E-03 -.663E-04
   0.169E+02 0.104E+02 0.222E+02   -.150E+02 -.893E+01 -.205E+02   -.184E+01 -.135E+01 -.236E+01   0.249E-04 0.107E-03 -.125E-03
   -.186E+01 -.251E+00 0.314E+01   0.742E+00 0.291E+00 -.367E+01   0.123E+01 0.277E+00 0.797E+00   -.232E-04 -.389E-04 -.861E-04
   -.144E+01 0.112E+00 -.437E+01   0.119E+01 -.934E+00 0.459E+01   0.471E+00 0.634E+00 -.210E+00   0.395E-06 -.241E-03 -.498E-04
   0.132E+02 -.864E+01 -.266E+02   -.124E+02 0.760E+01 0.246E+02   -.118E+01 0.647E+00 0.258E+01   0.362E-04 -.237E-03 -.641E-04
   -.122E+02 0.101E+02 -.178E+02   0.116E+02 -.997E+01 0.163E+02   0.345E+00 -.660E+00 0.151E+01   -.470E-04 -.407E-04 0.867E-05
   -.989E+00 -.982E+01 0.272E+02   0.583E+00 0.892E+01 -.273E+02   0.463E+00 0.839E+00 -.766E+00   0.137E-04 -.264E-03 0.499E-04
   0.162E+02 0.705E+01 0.290E+02   -.152E+02 -.705E+01 -.279E+02   -.112E+01 -.598E-01 -.116E+01   0.136E-04 -.157E-03 -.103E-04
   0.622E-02 -.105E+01 0.528E+01   0.422E+00 0.116E+01 -.519E+01   -.225E+00 0.715E-02 -.359E-01   0.212E-04 0.769E-04 -.102E-03
   -.187E+00 0.901E+00 -.404E+01   -.304E-01 -.525E+00 0.442E+01   0.327E+00 -.492E+00 -.362E+00   -.444E-05 0.266E-03 -.176E-03
   0.191E+02 -.894E+01 -.261E+02   -.178E+02 0.823E+01 0.248E+02   -.113E+01 0.549E+00 0.147E+01   0.480E-05 0.168E-03 -.202E-03
   0.106E+02 0.972E+01 -.168E+02   -.103E+02 -.769E+01 0.162E+02   0.360E+00 -.112E+01 0.786E+00   0.290E-04 0.924E-04 -.171E-03
   -.349E+01 -.164E+01 0.284E+02   0.240E+01 0.239E+01 -.296E+02   0.860E+00 -.772E+00 -.336E+00   0.251E-05 0.109E-03 -.257E-04
   -.628E+00 0.195E+00 0.745E+01   0.321E+00 -.316E-01 -.744E+01   0.303E+00 -.324E-01 0.545E-01   0.123E-04 0.337E-05 0.373E-04
   0.546E+00 -.126E+00 -.185E+02   -.995E+00 0.362E-01 0.188E+02   0.225E+00 0.229E+00 -.354E+00   -.334E-05 -.164E-03 0.953E-04
   -.140E+02 0.107E+01 0.177E+02   0.138E+02 -.222E+01 -.184E+02   -.230E+00 0.410E+00 -.114E+00   -.131E-05 0.600E-04 -.121E-03
   0.337E-02 0.191E+00 0.780E+01   0.168E-01 -.160E-02 -.779E+01   -.101E+00 -.281E+00 0.949E-01   0.824E-06 0.144E-03 0.112E-03
   0.144E+01 0.322E+00 -.193E+02   -.157E+01 -.362E+00 0.194E+02   0.170E+00 0.173E+00 0.203E+00   0.129E-04 0.201E-03 0.148E-03
   0.231E+01 -.347E+00 0.310E+02   -.185E+01 0.920E-01 -.322E+02   -.251E+00 0.476E+00 -.481E+00   0.936E-05 -.145E-03 -.659E-04
   -.357E+00 0.852E-01 0.789E+01   0.840E-01 0.334E-01 -.771E+01   0.155E+00 -.165E-01 -.753E-01   0.101E-04 -.146E-03 0.474E-04
   0.387E+00 0.793E-01 -.154E+02   -.308E-01 0.327E+00 0.158E+02   -.290E+00 -.293E+00 -.544E+00   0.842E-06 -.441E-04 0.202E-03
   -.233E+01 -.998E+01 0.159E+02   0.185E+01 0.999E+01 -.172E+02   0.365E+00 -.435E-01 0.320E+00   -.241E-05 0.152E-03 -.702E-04
   0.168E+00 0.297E+00 0.744E+01   -.840E-01 -.202E+00 -.726E+01   0.508E-01 -.496E-01 -.193E+00   -.785E-05 0.126E-03 0.829E-04
   -.139E+00 -.811E-01 -.202E+02   0.308E-01 -.764E-01 0.205E+02   0.183E+00 0.603E-01 -.413E-01   -.169E-05 0.346E-04 0.756E-04
   0.345E+01 0.112E+02 0.203E+02   -.240E+01 -.115E+02 -.207E+02   -.665E+00 0.267E+00 -.427E+00   -.158E-05 -.129E-03 -.145E-03
   0.573E+00 -.184E+00 0.772E+01   -.321E+00 0.203E-01 -.728E+01   -.246E+00 0.739E-01 -.502E+00   -.361E-05 0.149E-05 0.872E-04
   -.652E+00 -.612E+00 -.199E+02   0.995E+00 0.981E+00 0.200E+02   -.459E+00 -.430E+00 0.120E+00   -.891E-05 0.156E-03 0.206E-03
   0.138E+02 -.228E+00 0.190E+02   -.138E+02 0.124E+01 -.199E+02   0.292E+00 -.477E+00 0.216E+00   -.511E-05 -.239E-04 -.367E-04
   0.125E+00 -.241E+00 0.727E+01   -.168E-01 0.181E+00 -.714E+01   -.830E-01 0.654E-01 -.633E-01   -.151E-04 -.124E-03 0.320E-04
   -.132E+01 0.999E+00 -.188E+02   0.157E+01 -.904E+00 0.190E+02   -.121E+00 -.534E-01 -.400E+00   -.135E-05 -.178E-03 0.142E-03
   0.215E+01 0.360E+00 0.180E+02   -.206E+01 -.286E+00 -.182E+02   -.250E-01 0.250E-01 0.153E+00   -.534E-05 0.157E-03 0.180E-04
   -.323E+00 -.955E-01 -.764E+01   0.180E+00 -.156E-01 0.730E+01   0.106E+00 0.502E-01 0.329E+00   -.228E-04 0.997E-04 0.922E-04
   -.850E+01 0.368E+01 -.272E+02   0.817E+01 -.345E+01 0.283E+02   0.305E-01 -.802E-01 0.682E+00   -.537E-05 -.792E-04 0.505E-04
   0.262E-02 0.296E+00 0.210E+02   -.174E-01 0.313E-01 -.208E+02   -.977E-01 -.524E-02 -.495E+00   0.241E-04 -.442E-04 -.486E-04
   -.604E+00 0.290E-01 -.734E+01   0.256E+00 -.263E-01 0.739E+01   0.225E+00 -.150E-01 -.103E+00   0.139E-04 0.543E-04 0.159E-03
   0.735E+00 -.249E+01 0.251E+01   -.402E+00 0.229E+01 -.308E+01   -.426E+00 0.637E+00 -.536E+01   -.108E-04 0.226E-03 0.193E-03
   0.716E-03 -.953E+00 0.203E+02   -.588E+00 0.263E+00 -.204E+02   0.491E+00 0.567E+00 -.132E+00   0.152E-04 -.467E-04 -.311E-04
   0.153E+00 -.793E-01 -.715E+01   -.168E-01 0.419E-01 0.698E+01   -.108E+00 -.887E-02 0.142E+00   0.756E-05 -.179E-03 0.893E-04
   -.427E+01 -.146E+01 -.235E+02   0.445E+01 0.131E+01 0.248E+02   -.381E+00 -.145E+00 0.132E+00   0.146E-04 -.161E-03 0.153E-03
   -.109E+00 0.160E+01 0.178E+02   0.588E+00 -.142E+01 -.182E+02   -.159E+00 -.218E+00 0.421E+00   0.118E-05 0.881E-04 0.166E-04
   -.795E-01 0.341E-01 -.800E+01   0.168E-01 -.115E-01 0.773E+01   0.559E-01 -.185E-02 0.244E+00   0.171E-04 0.180E-03 0.167E-03
   0.435E+01 -.548E+01 -.284E+02   -.445E+01 0.545E+01 0.290E+02   0.323E+00 -.218E+00 0.159E+01   0.142E-04 0.167E-03 0.414E-04
   -.207E+01 -.261E+00 0.179E+02   0.206E+01 0.164E+00 -.184E+02   -.918E-01 -.642E-01 0.316E+00   -.299E-04 -.190E-03 -.686E-04
   0.468E+00 -.117E+00 -.753E+01   -.180E+00 0.171E+00 0.768E+01   -.309E+00 -.563E-01 -.229E+00   -.182E-04 -.101E-03 0.124E-03
   0.824E+01 0.504E+01 -.209E+02   -.817E+01 -.504E+01 0.215E+02   -.252E-01 -.126E+00 0.691E+00   0.272E-05 0.566E-04 0.182E-03
   0.197E+00 -.134E+01 0.170E+02   0.174E-01 0.125E+01 -.176E+02   -.147E+00 -.757E-01 0.473E+00   -.715E-05 0.294E-04 -.170E-04
   0.465E+00 -.497E-02 -.760E+01   -.256E+00 -.159E+00 0.753E+01   -.493E-01 0.186E+00 0.329E-01   0.382E-05 -.578E-04 0.527E-04
   -.148E+00 0.141E+00 -.300E+02   0.402E+00 -.316E+00 0.319E+02   -.115E+00 0.515E-01 -.248E+00   -.977E-05 -.218E-03 0.884E-04
   -.217E+01 -.431E+00 -.418E+01   -.349E-13 0.400E-14 -.355E-13   0.216E+01 0.521E+00 0.416E+01   0.629E-05 0.762E-05 0.262E-04

 POSITION                                       TOTAL-FORCE (eV/Angst)
      0.00000      0.00000      0.00000        -0.293513     -0.465043     -1.677553
      2.74000      2.59939      0.86646         0.043569      0.046679     -0.696539
      0.00000      5.19878      1.73293         0.021067      0.151162     -0.240136
      2.74000      7.79818      2.59939        -0.332242     -0.367012      0.071300
      0.00000     10.39757      3.46586        -0.052105     -0.093760     -0.349650
      2.74000     12.99696      4.33232        -0.131328     -0.019851     -0.182172
      0.00000      8.66464      0.00000         0.054447      0.514630      0.140414
      2.74000     11.26403      0.86646        -0.028237     -0.086085     -0.196126
      0.00000     13.86343      1.73293        -0.117651      0.322575      0.091890
      2.74000     16.46282      2.59939         0.261274     -0.118047     -0.038606
      0.00000      1.73293      3.46586        -0.257657      0.362207      0.919506
      2.74000      4.33232      4.33232        -0.247528      0.106000      0.073426
      1.37000      4.33232      0.00000         0.329107     -0.130077      6.769862
      4.11000      6.93171      0.86646         0.141032      0.096250     -0.675872
      1.37000      9.53110      1.73293         0.118632      0.315951      0.259091
      4.11000     12.13050      2.59939         0.230098     -0.189965      0.005135
      1.37000     14.72989      3.46586        -0.376234     -0.397890      0.631226
      4.11000      0.00000      4.33232        -0.288727     -0.529269      0.043331
      1.37000     12.99696      0.00000         0.057211     -0.061702     -0.799783
      4.11000     15.59635      0.86646        -0.138201     -0.066948     -0.086647
      1.37000      0.86646      1.73293         0.203313      0.111597      0.050170
      4.11000      3.46586      2.59939         0.110148     -0.117844      0.020131
      1.37000      6.06525      3.46586         0.118483     -0.153255      0.205003
      4.11000      8.66464      4.33232         0.591544      0.903731      0.140521
      0.00000      2.92180      6.33232        -0.231776     -0.021982     -1.557213
      0.00000      0.03358      9.16232        -0.003604      0.129107      0.063838
      0.00000     14.47465     11.99232        -0.224077      0.136693      0.007479
      0.00000      8.69822      6.33232        -0.465407     -0.738662     -0.762905
      0.00000      5.81001      9.16232        -0.081052     -0.092889      0.106010
      0.00000      2.92180     11.99232         0.034953      0.132093      0.293719
      0.00000     14.47465      6.33232         0.213055      0.219174     -1.650275
      0.00000     11.58644      9.16232        -0.117830      0.100429      0.108587
      0.00000      8.69822     11.99232         0.066421      0.111854     -0.169240
      2.74000      5.81001      6.33232        -0.112955     -0.037854     -0.955927
      2.74000      2.92180      9.16232         0.135214      0.043538     -0.011159
      2.74000      0.03358     11.99232         0.075103     -0.098726      0.226091
      2.74000     11.58644      6.33232         0.383610     -0.040989     -0.843283
      2.74000      8.69822      9.16232         0.006477     -0.091787     -0.060169
      2.74000      5.81001     11.99232        -0.115345     -0.062190      0.181580
      2.74000      0.03358      6.33232         0.318847      0.531406     -0.706373
      2.74000     14.47465      9.16232         0.024926      0.004540      0.065814
      2.74000     11.58644     11.99232         0.130016      0.040647     -0.161984
      1.37000      4.36590      7.74732         0.060112      0.098445     -0.090666
      1.37000      1.47769     10.57732        -0.037280     -0.062325     -0.003851
      1.37000     15.91876     13.40732        -0.297803      0.144778      1.714651
      1.37000     10.14233      7.74732        -0.112368      0.320112     -0.285178
      1.37000      7.25412     10.57732        -0.124088     -0.013736     -0.044220
      1.37000      4.36590     13.40732        -0.092823      0.435123     -5.935054
      1.37000     15.91876      7.74732        -0.095810     -0.124135     -0.222310
      1.37000     13.03055     10.57732         0.028010     -0.047898     -0.022304
      1.37000     10.14233     13.40732        -0.200667     -0.300758      1.406595
      4.11000      7.25412      7.74732         0.319570     -0.041228      0.054856
      4.11000      4.36590     10.57732        -0.006684      0.019499     -0.018091
      4.11000      1.47769     13.40732         0.226111     -0.254054      2.160844
      4.11000     13.03055      7.74732        -0.103757     -0.162833     -0.096533
      4.11000     10.14233     10.57732        -0.021421     -0.004605     -0.078820
      4.11000      7.25412     13.40732         0.038645     -0.133231      1.312040
      4.11000      1.47769      7.74732         0.067475     -0.167367     -0.103874
      4.11000     15.91876     10.57732         0.160490      0.020352     -0.038145
      4.11000     13.03055     13.40732         0.139206     -0.124574      1.637552
    total drift:                               -0.005404      0.090034     -0.017040

  FREE ENERGIE OF THE ION-ELECTRON SYSTEM (eV)
  free  energy   TOTEN  =      -265.11277859 eV

  energy  without entropy=     -265.11158171  energy(sigma->0) =     -265.11218015