 vasp.6.4.3 19Mar24 (build Oct 22 2024 11:23:12) complex

 executed on             LinuxIFC date 2025.06.09  01:59:13

 INCAR:
   SYSTEM = Si and Ge interface calculation
   ISTART = 0
   ICHARG = 2
   LWAVE = .FALSE.
   LREAL = AUTO
   ENCUT = 700
   ENAUG = 900
   ADDGRID = .TRUE.
   LMAXMIX = 6
   LASPH = .TRUE.
   LMIXTAU = .TRUE.
   NCORE = 16
   NELM = 100
   NBANDS = 404
   EDIFF = 1d-7
   AMIX = 0.6
   ISMEAR = 0
   SIGMA = 0.01
   NELECT = 672
   ISPIN = 2
   NUPDOWN = 1
   LVTOT = .FALSE.
   LVHAR = .TRUE.

 POTCAR:    PAW_PBE Ge 05Jan2001
 POTCAR:    PAW_PBE Sn 08Apr2002
|           W    W    AA    RRRRR   N    N  II  N    N   GGGG   !!!           |
|           W    W   A  A   R    R  NN   N  II  NN   N  G    G  !!!           |
|           W    W  A    A  R    R  N N  N  II  N N  N  G       !!!           |
|           W WW W  AAAAAA  RRRRR   N  N N  II  N  N N  G  GGG   !            |
|           WW  WW  A    A  R   R   N   NN  II  N   NN  G    G                |
|           W    W  A    A  R    R  N    N  II  N    N   GGGG   !!!           |
|     You use a magnetic or noncollinear calculation, but did not specify     |
|     the initial magnetic moment with the MAGMOM tag. Note that a            |
|     default of 5.952e-3 will be used for all atoms. This ferromagnetic      |
|     setup may break the symmetry of the crystal, in particular it may       |
|     rule out finding an antiferromagnetic solution. Thence, we              |
|     recommend setting the initial magnetic moment manually or verifying     |
|     carefully that this magnetic setup is desired.                          |

 POTCAR:    PAW_PBE Ge 05Jan2001
   VRHFIN =Ge: s2p2

   TITEL  = PAW_PBE Ge 05Jan2001
   POMASS =   72.610; ZVAL   =    4.000    mass and valenz
   ENMAX  =  173.807; ENMIN  =  130.355 eV

 POTCAR:    PAW_PBE Sn 08Apr2002
   VRHFIN =Sn: s2p2

   TITEL  = PAW_PBE Sn 08Apr2002
   POMASS =  118.710; ZVAL   =    4.000    mass and valenz
   ENMAX  =  103.236; ENMIN  =   77.427 eV

 Optimization of the real space projectors (new method)

 maximal supplied QI-value         = 16.25
 optimisation between [QCUT,QGAM] = [ 13.49, 26.98] = [ 50.95,203.80] Ry
 Optimized for a Real-space Cutoff    1.25 Angstroem

   l    n(q)    QCUT    max X(q) W(low)/X(q) W(high)/X(q)  e(spline)
   0     10    13.489    65.336    0.91E-04    0.11E-03    0.34E-06
   0     10    13.489    52.220    0.89E-04    0.11E-03    0.34E-06
   1     10    13.489    36.409    0.22E-03    0.27E-03    0.14E-06
   1     10    13.489    21.334    0.21E-03    0.27E-03    0.14E-06
   2      9    13.489     4.673    0.11E-03    0.12E-03    0.19E-06
 Optimization of the real space projectors (new method)

 maximal supplied QI-value         = 12.47
 optimisation between [QCUT,QGAM] = [ 12.47, 27.06] = [ 43.56,205.12] Ry
 Optimized for a Real-space Cutoff    1.58 Angstroem

   l    n(q)    QCUT    max X(q) W(low)/X(q) W(high)/X(q)  e(spline)
   0     13    12.472    14.688    0.45E-04    0.45E-04    0.25E-05
   0     13    12.472     7.308    0.94E-04    0.11E-03    0.61E-05
   1     12    12.472    45.102    0.34E-03    0.14E-03    0.21E-05
   1     12    12.472    30.691    0.31E-03    0.13E-03    0.20E-05
   2     12    12.472     7.156    0.86E-04    0.11E-03    0.17E-05
 WARNING: PSMAXN for non-local potential too small
          PSMAXN should be >   13.5545592237991       NTYP=           2
  PAW_PBE Ge 05Jan2001                  :
  PAW_PBE Sn 08Apr2002                  :

 POSCAR: Ge+Sn
  positions in direct lattice

 exchange-correlation table for PE
   RHO(1)=    0.500       N(1)  =     2000
   RHO(2)=  100.500       N(2)  =     4000

 ion  position               nearest neighbor table
   1  0.311  0.311  0.322-  67 2.45  46 2.45  88 2.45  24 2.45
   2  0.978  0.978  0.000-  68 2.45  47 2.45  89 2.45 108 2.63
   3  0.644  0.644  0.161-  48 2.45  69 2.45  23 2.45  90 2.45
   4  0.811  0.311  0.322-  70 2.45  43 2.45  21 2.45  85 2.45
   5  0.478  0.978  0.000-  71 2.45  86 2.45  44 2.45 144 2.63
   6  0.144  0.644  0.161-  72 2.45  45 2.45  20 2.45  87 2.45
   7  0.311  0.811  0.322-  61 2.45  94 2.45  18 2.45  40 2.45
   8  0.978  0.478  0.000-  62 2.45  95 2.45  41 2.45 132 2.63
   9  0.644  0.144  0.161-  63 2.45  96 2.45  17 2.45  42 2.45
  10  0.811  0.811  0.322-  64 2.45  15 2.45  91 2.45  37 2.45
  11  0.478  0.478  0.000-  65 2.45  38 2.45  92 2.45 168 2.63
  12  0.144  0.144  0.161-  66 2.45  14 2.45  39 2.45  93 2.45
  13  0.478  0.478  0.362-  73 2.45  49 2.45  25 2.45 157 2.63
  14  0.144  0.144  0.040-  74 2.45  12 2.45  50 2.45  26 2.45
  15  0.811  0.811  0.201-  75 2.45  10 2.45  27 2.45  51 2.45
  16  0.978  0.478  0.362-  76 2.45  52 2.45  28 2.45 121 2.63
  17  0.644  0.144  0.040-  77 2.45  53 2.45   9 2.45  29 2.45
  18  0.311  0.811  0.201-  78 2.45  30 2.45  54 2.45   7 2.45
  19  0.478  0.978  0.362-  55 2.45  79 2.45  31 2.45 133 2.63
  20  0.144  0.644  0.040-  56 2.45  80 2.45   6 2.45  32 2.45
  21  0.811  0.311  0.201-  57 2.45  33 2.45   4 2.45  81 2.45
  22  0.978  0.978  0.362-  58 2.45  82 2.45  34 2.45  97 2.63
  23  0.644  0.644  0.040-  59 2.45  35 2.45   3 2.45  83 2.45
  24  0.311  0.311  0.201-  60 2.45  84 2.45   1 2.45  36 2.45
  25  0.561  0.561  0.322-  61 2.45  85 2.45  48 2.45  13 2.45
  26  0.228  0.228  0.000-  62 2.45  86 2.45  14 2.45 162 2.64
  27  0.894  0.894  0.161-  63 2.45  15 2.45  87 2.45  47 2.45
  28  0.061  0.561  0.322-  88 2.45  64 2.45  45 2.45  16 2.45
  29  0.728  0.228  0.000-  65 2.45  89 2.45  17 2.45 126 2.64
  30  0.394  0.894  0.161-  66 2.45  90 2.45  18 2.45  44 2.45
  31  0.561  0.061  0.322-  91 2.45  67 2.45  42 2.45  19 2.45
  32  0.228  0.728  0.000-  68 2.45  92 2.45  20 2.45 147 2.64
  33  0.894  0.394  0.161-  21 2.45  69 2.45  41 2.45  93 2.45
  34  0.061  0.061  0.322-  94 2.45  70 2.45  39 2.45  22 2.45
  35  0.728  0.728  0.000-  95 2.45  23 2.45  71 2.45 111 2.64
  36  0.394  0.394  0.161-  96 2.45  72 2.45  24 2.45  38 2.45
  37  0.728  0.728  0.362-  79 2.45  52 2.45  10 2.45 100 2.64
  38  0.394  0.394  0.040-  53 2.45  80 2.45  11 2.45  36 2.45
  39  0.061  0.061  0.201-  81 2.45  54 2.45  34 2.45  12 2.45
  40  0.228  0.728  0.362-  82 2.45  49 2.45   7 2.45 136 2.64
  41  0.894  0.394  0.040-  50 2.45  83 2.45  33 2.45   8 2.45
  42  0.561  0.061  0.201-  84 2.45  51 2.45  31 2.45   9 2.45
  43  0.728  0.228  0.362-  73 2.45   4 2.45  58 2.45 115 2.64
  44  0.394  0.894  0.040-  74 2.45   5 2.45  59 2.45  30 2.45
  45  0.061  0.561  0.201-  75 2.45   6 2.45  60 2.45  28 2.45
  46  0.228  0.228  0.362-  76 2.45  55 2.45   1 2.45 151 2.64
  47  0.894  0.894  0.040-   2 2.45  56 2.45  77 2.45  27 2.45
  48  0.561  0.561  0.201-   3 2.45  78 2.45  57 2.45  25 2.45
  49  0.311  0.561  0.322-  40 2.45  13 2.45  72 2.45  88 2.45
  50  0.978  0.228  0.000-  41 2.45  89 2.45  14 2.45
  51  0.644  0.894  0.161-  90 2.45  42 2.45  15 2.45  71 2.45
  52  0.811  0.561  0.322-  37 2.45  16 2.45  85 2.45  69 2.45
  53  0.478  0.228  0.000-  38 2.45  17 2.45  86 2.45
  54  0.144  0.894  0.161-  87 2.45  39 2.45  18 2.45  68 2.45
  55  0.311  0.061  0.322-  19 2.45  46 2.45  66 2.45  94 2.45
  56  0.978  0.728  0.000-  20 2.45  47 2.45  95 2.45
  57  0.644  0.394  0.161-  96 2.45  21 2.45  48 2.45  65 2.45
  58  0.811  0.061  0.322-  22 2.45  91 2.45  63 2.45  43 2.45
  59  0.478  0.728  0.000-  92 2.45  23 2.45  44 2.45
  60  0.144  0.394  0.161-  93 2.45  24 2.45  62 2.45  45 2.45
[...]
 154  0.808  0.896  0.473-  91 2.61 127 2.83 109 2.83 142 2.83
 155  0.141  0.896  0.658- 163 2.81 128 2.83 143 2.83 110 2.83
 156  0.475  0.896  0.842- 164 2.81 129 2.83 111 2.83 144 2.83
 157  0.475  0.563  0.473-  13 2.63 130 2.83 145 2.83 112 2.83
 158  0.808  0.563  0.658- 166 2.81 146 2.83 113 2.83 131 2.83
 159  0.141  0.563  0.842- 167 2.81 147 2.83 114 2.83 132 2.83
 160  0.475  0.230  0.520- 152 2.81 103 2.83 133 2.83 115 2.83  67 3.20
 161  0.808  0.230  0.704- 153 2.81 104 2.83 116 2.83 134 2.83
 162  0.141  0.230  0.889-  26 2.64 105 2.83 135 2.83 117 2.83
 163  0.141  0.896  0.520- 155 2.81 136 2.83 118 2.83  97 2.83
 164  0.475  0.896  0.704- 156 2.81 119 2.83 137 2.83  98 2.83
 165  0.808  0.896  0.889-  77 2.61 120 2.83  99 2.83 138 2.83
 166  0.808  0.563  0.520- 158 2.81 139 2.83 100 2.83 121 2.83
 167  0.141  0.563  0.704- 159 2.81 101 2.83 140 2.83 122 2.83
 168  0.475  0.563  0.889-  11 2.63 102 2.83 141 2.83 123 2.83

  LATTYP: Found a hexagonal cell.
 ALAT       =    16.0026765650
 C/A-ratio  =     1.2687885190

  Lattice vectors:

 A1 = (  -8.0013380050, -13.8587245940,   0.0000000000)
 A2 = (  16.0026760100,   0.0000000000,   0.0000000000)
 A3 = (   0.0000000000,   0.0000000000,  20.3040122990)

Analysis of symmetry for initial positions (statically):
 Subroutine PRICEL returns following result:

[...]

   4 primitive cells build up your supercell.

 Routine SETGRP: Setting up the symmetry group for a
 hexagonal supercell.

 Subroutine GETGRP returns: Found  1 space group operations
 (whereof  1 operations were pure point group operations)
 out of a pool of 24 trial point group operations.

The static configuration has the point symmetry C_1 .

Analysis of symmetry for dynamics (positions and initial velocities):
 Subroutine PRICEL returns following result:

[...]

The dynamic configuration has the point symmetry C_1 .

Analysis of structural, dynamic, and magnetic symmetry:
 Subroutine PRICEL returns following result:

  LATTYP: Found a hexagonal cell.
 ALAT       =     8.0013373383
 C/A-ratio  =     2.5375773374

  Lattice vectors:

 A1 = (  -4.0006685304,  -6.9293614793,  -0.0000012182)
 A2 = (   8.0013380050,   0.0000000000,   0.0000012182)
 A3 = (   0.0000000000,   0.0000000000,  20.3040122990)

   4 primitive cells build up your supercell.

 Routine SETGRP: Setting up the symmetry group for a
 hexagonal supercell.

 Subroutine GETGRP returns: Found  1 space group operations
 (whereof  1 operations were pure point group operations)
 out of a pool of 24 trial point group operations.

The overall configuration has the point symmetry C_1 .

 Subroutine INISYM returns: Found  1 space group operations
 (whereof  1 operations are pure point group operations),
 and found     4 'primitive' translations

                                     Primitive cell

  volume of cell :    1125.7390

  direct lattice vectors                    reciprocal lattice vectors
    -4.000668530 -6.929361479 -0.000001218     0.000000000 -0.144313441  0.000000000
     8.001338005  0.000000000  0.000001218     0.124979097 -0.072156712  0.000000000
     0.000000000  0.000000000 20.304012299    -0.000000007 -0.000000004  0.049251349

  length of vectors
     8.001337338  8.001338005 20.304012299     0.144313441  0.144313429  0.049251349

  position of ions in fractional coordinates (direct lattice)
     0.378233599  0.621766448  0.321762278
     0.044899887  0.955100000  0.999999885
     0.711566832  0.288433134  0.160881142
     0.044900423  0.955099582  0.361982558
     0.711566742  0.288433372  0.040220296
     0.378233419  0.621766328  0.201101377
     0.878233634  0.121766328  0.321762278
     0.544899916  0.455100030  0.999999980
[...]
     0.000000000  0.000000000 20.304012299     0.000000000  0.000000000  0.049251349

  length of vectors
    16.002676010 16.002676565 20.304012299     0.072156715  0.072156712  0.049251349

 FORCES acting on ions
    electron-ion (+dipol)            ewald-force                    non-local-force                 convergence-correction
   0.145E+01 0.253E+01 -.560E+02   -.105E+01 -.188E+01 0.555E+02   -.480E+00 -.470E+00 0.149E+00   0.428E-04 -.530E-04 -.883E-05
   0.309E+01 0.543E+01 0.781E+02   -.272E+01 -.523E+01 -.778E+02   -.182E+00 -.788E-01 0.848E-01   0.164E-05 0.168E-04 -.525E-04
   -.627E-01 -.334E+00 0.783E+01   -.224E-01 -.422E-01 -.809E+01   0.240E-01 0.103E+00 0.413E+00   -.417E-05 -.213E-04 -.574E-04
   0.145E+01 0.253E+01 -.560E+02   -.105E+01 -.188E+01 0.555E+02   -.480E+00 -.470E+00 0.149E+00   0.372E-04 -.436E-04 -.212E-04
   0.309E+01 0.543E+01 0.781E+02   -.272E+01 -.523E+01 -.778E+02   -.182E+00 -.788E-01 0.848E-01   -.466E-05 0.894E-05 -.598E-04
   -.626E-01 -.334E+00 0.783E+01   -.225E-01 -.423E-01 -.809E+01   0.240E-01 0.103E+00 0.413E+00   0.155E-04 -.117E-04 -.561E-04
   0.145E+01 0.253E+01 -.560E+02   -.105E+01 -.188E+01 0.555E+02   -.480E+00 -.470E+00 0.149E+00   -.303E-04 0.414E-04 -.516E-04
   0.309E+01 0.543E+01 0.781E+02   -.272E+01 -.523E+01 -.778E+02   -.182E+00 -.788E-01 0.848E-01   -.456E-05 -.296E-04 -.567E-04
   -.626E-01 -.334E+00 0.783E+01   -.225E-01 -.423E-01 -.809E+01   0.240E-01 0.103E+00 0.413E+00   0.639E-05 0.154E-04 -.273E-04
   0.145E+01 0.253E+01 -.560E+02   -.105E+01 -.188E+01 0.555E+02   -.480E+00 -.470E+00 0.149E+00   -.687E-04 0.588E-04 -.660E-04
   0.309E+01 0.543E+01 0.781E+02   -.272E+01 -.523E+01 -.778E+02   -.182E+00 -.788E-01 0.848E-01   0.144E-04 -.204E-04 -.551E-04
   -.626E-01 -.334E+00 0.783E+01   -.225E-01 -.422E-01 -.809E+01   0.240E-01 0.103E+00 0.413E+00   -.351E-05 0.718E-05 -.230E-04
   0.349E+01 0.720E+01 -.794E+02   -.375E+01 -.673E+01 0.794E+02   0.178E+00 -.206E+00 -.222E+00   -.204E-04 -.572E-04 -.441E-04
   0.785E+00 0.239E+01 0.556E+02   -.760E+00 -.146E+01 -.551E+02   -.219E-01 -.744E+00 -.181E-01   -.343E-04 0.307E-04 -.475E-04
   -.628E-01 -.333E+00 -.809E+01   -.269E-01 -.486E-01 0.810E+01   0.749E-02 0.978E-01 -.219E+00   0.212E-05 0.231E-04 -.747E-04
   0.349E+01 0.720E+01 -.794E+02   -.375E+01 -.673E+01 0.794E+02   0.178E+00 -.206E+00 -.222E+00   -.444E-04 -.747E-04 -.459E-04
   0.784E+00 0.239E+01 0.556E+02   -.759E+00 -.146E+01 -.551E+02   -.219E-01 -.744E+00 -.181E-01   -.315E-04 0.374E-04 -.474E-04
   -.628E-01 -.333E+00 -.809E+01   -.269E-01 -.487E-01 0.810E+01   0.749E-02 0.978E-01 -.219E+00   0.991E-05 0.144E-04 -.610E-04
   0.349E+01 0.720E+01 -.794E+02   -.375E+01 -.673E+01 0.794E+02   0.178E+00 -.206E+00 -.222E+00   -.173E-06 0.608E-04 -.416E-04
   0.784E+00 0.239E+01 0.556E+02   -.760E+00 -.146E+01 -.551E+02   -.219E-01 -.744E+00 -.181E-01   -.183E-04 0.278E-05 -.563E-04
   -.628E-01 -.333E+00 -.809E+01   -.268E-01 -.487E-01 0.810E+01   0.749E-02 0.978E-01 -.219E+00   0.110E-04 -.195E-04 -.300E-04
   0.349E+01 0.720E+01 -.794E+02   -.375E+01 -.673E+01 0.794E+02   0.178E+00 -.206E+00 -.222E+00   0.239E-04 0.817E-04 -.500E-04
   0.785E+00 0.239E+01 0.556E+02   -.760E+00 -.146E+01 -.551E+02   -.219E-01 -.744E+00 -.181E-01   -.469E-04 0.328E-05 -.668E-04
   -.629E-01 -.333E+00 -.809E+01   -.268E-01 -.487E-01 0.810E+01   0.749E-02 0.978E-01 -.219E+00   0.181E-04 -.290E-04 -.352E-04
   -.293E+01 0.600E-01 -.561E+02   0.214E+01 -.211E-01 0.556E+02   0.631E+00 -.196E+00 0.157E+00   0.271E-05 -.639E-04 -.564E-04
   -.621E+01 0.414E+00 0.783E+02   0.581E+01 -.181E+00 -.780E+02   0.118E+00 -.120E+00 0.379E-01   0.374E-05 0.369E-05 -.522E-04
   0.325E+00 0.105E+00 0.786E+01   0.475E-01 -.123E-02 -.809E+01   -.104E+00 -.264E-01 0.392E+00   0.460E-05 0.401E-04 -.505E-04
   -.293E+01 0.600E-01 -.561E+02   0.214E+01 -.211E-01 0.556E+02   0.631E+00 -.196E+00 0.157E+00   -.224E-05 -.100E-03 -.684E-04
   -.621E+01 0.414E+00 0.783E+02   0.581E+01 -.181E+00 -.780E+02   0.118E+00 -.120E+00 0.379E-01   0.560E-05 0.140E-04 -.475E-04
   0.325E+00 0.105E+00 0.786E+01   0.475E-01 -.122E-02 -.809E+01   -.104E+00 -.264E-01 0.392E+00   -.593E-05 0.260E-04 -.433E-04
   -.293E+01 0.599E-01 -.561E+02   0.214E+01 -.211E-01 0.556E+02   0.631E+00 -.196E+00 0.157E+00   0.422E-06 0.738E-04 -.146E-04
   -.621E+01 0.413E+00 0.783E+02   0.581E+01 -.181E+00 -.780E+02   0.118E+00 -.120E+00 0.379E-01   0.173E-04 -.755E-06 -.600E-04
   0.325E+00 0.105E+00 0.786E+01   0.476E-01 -.119E-02 -.809E+01   -.104E+00 -.264E-01 0.392E+00   -.130E-04 -.256E-04 -.328E-04
   -.293E+01 0.598E-01 -.561E+02   0.214E+01 -.210E-01 0.556E+02   0.631E+00 -.196E+00 0.157E+00   0.451E-05 0.700E-04 -.170E-04
   -.621E+01 0.413E+00 0.783E+02   0.581E+01 -.181E+00 -.780E+02   0.118E+00 -.120E+00 0.379E-01   -.106E-04 -.581E-05 -.645E-04
   0.325E+00 0.105E+00 0.786E+01   0.475E-01 -.117E-02 -.809E+01   -.104E+00 -.264E-01 0.392E+00   0.106E-04 -.204E-04 -.379E-04
   -.789E+01 -.355E+00 -.796E+02   0.765E+01 -.786E-01 0.796E+02   0.577E-01 0.242E+00 -.207E+00   -.205E-04 -.675E-05 -.491E-04
   -.245E+01 -.373E+00 0.556E+02   0.163E+01 -.497E-01 -.552E+02   0.658E+00 0.340E+00 -.127E-01   0.126E-04 -.553E-04 -.575E-04
   0.321E+00 0.100E+00 -.807E+01   0.554E-01 -.655E-03 0.810E+01   -.124E+00 -.369E-01 -.228E+00   0.622E-07 0.433E-04 -.200E-04
   -.789E+01 -.355E+00 -.796E+02   0.765E+01 -.786E-01 0.796E+02   0.577E-01 0.242E+00 -.207E+00   0.285E-04 0.218E-05 -.531E-04
   -.245E+01 -.373E+00 0.556E+02   0.163E+01 -.497E-01 -.552E+02   0.658E+00 0.340E+00 -.127E-01   -.502E-05 -.531E-04 -.517E-04
   0.321E+00 0.100E+00 -.807E+01   0.555E-01 -.669E-03 0.810E+01   -.124E+00 -.369E-01 -.228E+00   -.710E-06 0.448E-04 -.260E-04
   -.789E+01 -.355E+00 -.796E+02   0.765E+01 -.787E-01 0.796E+02   0.577E-01 0.242E+00 -.207E+00   0.852E-05 -.126E-04 -.423E-04
   -.245E+01 -.373E+00 0.556E+02   0.163E+01 -.498E-01 -.552E+02   0.658E+00 0.340E+00 -.127E-01   -.780E-06 -.360E-04 -.585E-04
   0.321E+00 0.100E+00 -.807E+01   0.554E-01 -.743E-03 0.810E+01   -.124E+00 -.369E-01 -.228E+00   0.101E-05 -.209E-04 -.782E-04
   -.789E+01 -.355E+00 -.796E+02   0.765E+01 -.787E-01 0.796E+02   0.577E-01 0.242E+00 -.207E+00   -.212E-05 -.276E-04 -.356E-04
   -.245E+01 -.373E+00 0.556E+02   0.163E+01 -.497E-01 -.552E+02   0.658E+00 0.340E+00 -.127E-01   0.547E-05 -.782E-05 -.493E-04
   0.321E+00 0.100E+00 -.807E+01   0.554E-01 -.751E-03 0.810E+01   -.124E+00 -.369E-01 -.228E+00   -.946E-06 -.203E-04 -.712E-04
   0.412E-01 -.236E-01 -.571E+02   -.196E-01 0.164E-01 0.567E+02   -.449E-01 -.776E-02 0.196E+00   0.166E-04 -.375E-04 -.563E-04
   0.182E+00 -.139E+00 0.857E+02   -.162E+00 0.147E+00 -.874E+02   -.224E-01 -.157E-01 0.716E+00   -.297E-05 0.297E-05 -.789E-04
   -.743E-02 -.124E-02 0.810E+01   -.118E-02 0.112E-02 -.815E+01   0.334E-03 0.226E-02 0.170E+00   -.635E-05 0.299E-04 -.444E-04
   0.412E-01 -.236E-01 -.571E+02   -.195E-01 0.165E-01 0.567E+02   -.449E-01 -.776E-02 0.196E+00   -.145E-04 -.484E-04 -.549E-04
   0.182E+00 -.139E+00 0.857E+02   -.162E+00 0.147E+00 -.874E+02   -.224E-01 -.157E-01 0.716E+00   0.222E-05 0.192E-05 -.844E-04
   -.739E-02 -.124E-02 0.810E+01   -.124E-02 0.112E-02 -.815E+01   0.334E-03 0.226E-02 0.170E+00   0.409E-05 0.284E-04 -.400E-04
   0.413E-01 -.237E-01 -.571E+02   -.197E-01 0.165E-01 0.567E+02   -.449E-01 -.776E-02 0.196E+00   -.845E-05 0.329E-04 -.469E-04
   0.182E+00 -.139E+00 0.857E+02   -.162E+00 0.147E+00 -.874E+02   -.224E-01 -.157E-01 0.716E+00   0.251E-06 0.219E-06 -.735E-04
   -.732E-02 -.122E-02 0.810E+01   -.130E-02 0.117E-02 -.815E+01   0.334E-03 0.226E-02 0.170E+00   0.493E-05 -.248E-04 -.495E-04
   0.412E-01 -.238E-01 -.571E+02   -.196E-01 0.166E-01 0.567E+02   -.449E-01 -.776E-02 0.196E+00   0.316E-05 0.530E-04 -.529E-04
   0.182E+00 -.139E+00 0.857E+02   -.162E+00 0.147E+00 -.874E+02   -.224E-01 -.157E-01 0.716E+00   -.109E-05 -.961E-05 -.875E-04
   -.735E-02 -.128E-02 0.810E+01   -.127E-02 0.125E-02 -.815E+01   0.334E-03 0.226E-02 0.170E+00   -.565E-05 -.306E-04 -.506E-04
[...]
   0.575E-02 0.565E-02 -.124E+02   0.267E-03 -.213E-03 0.118E+02   -.109E-01 -.964E-02 0.723E+00   0.963E-05 0.283E-04 0.740E-04
   0.780E+00 0.167E+01 0.799E+02   -.282E+00 -.801E+00 -.803E+02   -.414E+00 -.722E+00 0.214E+00   -.123E-04 -.934E-05 0.118E-03
   -.170E+01 -.503E+01 -.971E+02   0.122E+01 0.448E+01 0.975E+02   0.178E+00 0.191E+00 0.173E+00   -.785E-05 -.456E-04 -.631E-04
   -.615E-02 -.691E-02 -.126E+02   0.111E-03 -.936E-04 0.119E+02   0.520E-02 0.707E-02 0.808E+00   -.103E-04 -.246E-04 0.771E-04
   0.106E+01 -.143E+01 0.799E+02   -.578E+00 0.595E+00 -.802E+02   -.390E+00 0.698E+00 0.170E+00   -.210E-05 -.506E-05 0.121E-03
   0.606E-01 -.575E-01 -.811E+02   -.469E-01 0.438E-01 0.820E+02   -.225E-01 0.275E-01 -.168E+01   -.749E-06 -.262E-05 -.113E-03
   -.350E-01 -.486E-01 0.122E+02   0.625E-02 0.103E-02 -.119E+02   0.150E+00 0.293E-01 -.594E+00   0.546E-05 0.176E-05 0.991E-04
   0.436E+01 -.110E+01 0.969E+02   -.437E+01 0.116E+01 -.973E+02   -.102E+00 0.238E-01 -.988E-01   -.313E-04 0.109E-05 0.628E-04
   -.293E-01 0.558E-01 -.792E+02   0.312E-01 -.283E-01 0.792E+02   0.805E-02 -.146E-01 0.569E+00   0.124E-04 0.490E-04 -.557E-04
   -.371E-01 0.667E-01 0.123E+02   -.247E-02 -.558E-02 -.119E+02   -.302E-01 -.161E+00 -.599E+00   0.444E-05 0.265E-04 0.119E-03
   -.152E+01 0.459E+01 0.976E+02   0.144E+01 -.457E+01 -.979E+02   0.762E-01 -.198E+00 -.329E+00   0.585E-05 -.602E-05 0.553E-04
   -.353E-01 0.286E-01 -.798E+02   0.116E-01 -.117E-01 0.798E+02   0.139E-01 -.180E-01 0.629E+00   -.156E-04 -.414E-04 -.509E-04
   0.749E-01 -.180E-01 0.123E+02   -.379E-02 0.454E-02 -.119E+02   -.117E+00 0.123E+00 -.597E+00   0.159E-04 -.375E-04 0.123E-03
   -.291E+01 -.343E+01 0.972E+02   0.297E+01 0.338E+01 -.976E+02   0.105E+00 0.969E-01 -.148E+00   0.249E-04 0.139E-04 0.678E-04
   -.440E+00 0.427E+00 -.587E+01   0.577E-13 -.306E-13 -.682E-12   -.161E+00 -.793E+00 0.601E+01   -.361E-05 0.232E-05 -.189E-02

 POSITION                                       TOTAL-FORCE (eV/Angst)
      7.46244      4.30844      6.53307        -0.073207      0.187813     -0.338368
     23.46512     13.54760      0.00000         0.194048      0.118131      0.345925
     15.46378      8.92802      3.26653        -0.057535     -0.271098      0.154220
     15.46378      4.30844      6.53307        -0.073207      0.187813     -0.338368
     15.46379     13.54760      0.00000         0.194048      0.118131      0.345925
      7.46245      8.92802      3.26653        -0.057535     -0.271098      0.154220
     11.46311     11.23781      6.53307        -0.073207      0.187813     -0.338368
     19.46446      6.61823      0.00000         0.194048      0.118131      0.345925
     11.46312      1.99866      3.26653        -0.057535     -0.271098      0.154220
     19.46445     11.23781      6.53307        -0.073207      0.187813     -0.338368
     11.46312      6.61823      0.00000         0.194048      0.118131      0.345925
      3.46178      1.99866      3.26653        -0.057535     -0.271098      0.154220
     11.46311      6.61823      7.34970        -0.073091      0.268845     -0.219876
      3.46178      1.99866      0.81663         0.006674      0.186617      0.435188
     19.46445     11.23781      4.08317        -0.078602     -0.281810     -0.209866
     19.46445      6.61823      7.34970        -0.073091      0.268845     -0.219876
     11.46312      1.99866      0.81663         0.006674      0.186617      0.435188
     11.46312     11.23781      4.08317        -0.078602     -0.281810     -0.209866
     15.46378     13.54759      7.34970        -0.073091      0.268845     -0.219876
      7.46245      8.92802      0.81663         0.006674      0.186617      0.435188
     15.46378      4.30845      4.08317        -0.078602     -0.281810     -0.209866
     23.46512     13.54759      7.34970        -0.073091      0.268845     -0.219876
     15.46378      8.92802      0.81663         0.006674      0.186617      0.435188
      7.46244      4.30845      4.08317        -0.078602     -0.281810     -0.209866
     13.46345      7.77313      6.53307        -0.154152     -0.155309     -0.337075
      5.46211      3.15355      0.00000        -0.277472      0.114423      0.300836
     21.46479     12.39270      3.26653         0.272004      0.079852      0.158993
      5.46211      7.77313      6.53307        -0.154152     -0.155309     -0.337075
     13.46345      3.15355      0.00000        -0.277472      0.114423      0.300836
     13.46345     12.39270      3.26653         0.272004      0.079852      0.158993
      9.46278      0.84376      6.53307        -0.154152     -0.155309     -0.337075
      9.46278     10.08291      0.00000        -0.277472      0.114423      0.300836
     17.46412      5.46334      3.26653         0.272004      0.079852      0.158993
      1.46144      0.84376      6.53307        -0.154152     -0.155309     -0.337075
     17.46412     10.08291      0.00000        -0.277472      0.114423      0.300836
      9.46278      5.46334      3.26653         0.272004      0.079852      0.158993
     17.46412     10.08291      7.34970        -0.186823     -0.189525     -0.159186
      9.46278      5.46334      0.81663        -0.155875     -0.080272      0.428228
      1.46144      0.84376      4.08317         0.256268      0.064868     -0.198170
      9.46278     10.08291      7.34970        -0.186823     -0.189525     -0.159186
     17.46412      5.46334      0.81663        -0.155875     -0.080272      0.428228
      9.46278      0.84376      4.08317         0.256268      0.064868     -0.198170
     13.46345      3.15355      7.34970        -0.186823     -0.189525     -0.159186
     13.46345     12.39270      0.81663        -0.155875     -0.080272      0.428228
      5.46211      7.77313      4.08317         0.256268      0.064868     -0.198170
      5.46211      3.15355      7.34970        -0.186823     -0.189525     -0.159186
     21.46479     12.39270      0.81663        -0.155875     -0.080272      0.428228
     13.46345      7.77313      4.08317         0.256268      0.064868     -0.198170
      9.46278      7.77313      6.53307        -0.019694     -0.012786     -0.235701
     17.46412      3.15355      0.00000         0.001109     -0.005571     -0.983351
     17.46412     12.39270      3.26653        -0.004712      0.004359      0.121081
     17.46412      7.77313      6.53307        -0.019694     -0.012786     -0.235701
      9.46278      3.15355      0.00000         0.001109     -0.005571     -0.983351
      9.46278     12.39270      3.26653        -0.004712      0.004359      0.121081
      5.46211      0.84376      6.53307        -0.019694     -0.012786     -0.235701
     21.46479     10.08291      0.00000         0.001109     -0.005571     -0.983351
     13.46345      5.46334      3.26653        -0.004712      0.004359      0.121081
     13.46345      0.84376      6.53307        -0.019694     -0.012786     -0.235701
     13.46345     10.08291      0.00000         0.001109     -0.005571     -0.983351
      5.46211      5.46334      3.26653        -0.004712      0.004359      0.121081
[...]
     20.10128     12.42055      9.61200        -0.131698      0.409479      0.692790
      9.43283     12.42055     13.35854        -0.001281     -0.002003      0.143756
     14.76706     12.42055     17.10508         0.087169      0.149928     -0.174721
     12.09994      7.80098      9.61200        -0.302792     -0.359134      0.550386
     17.43417      7.80098     13.35854         0.002732      0.002227      0.104456
      6.76572      7.80098     17.10508         0.097220     -0.139172     -0.192069
      9.43283      3.18141     10.54863        -0.005242      0.015921     -0.772701
     14.76705      3.18141     14.29517         0.124837     -0.016019     -0.205621
      4.09860      3.18141     18.04172        -0.110310      0.076695     -0.466330
      9.43283     12.42056     10.54863         0.013626      0.015122      0.503719
     14.76706     12.42056     14.29517        -0.066191     -0.097942     -0.198832
     20.10128     12.42056     18.04172         0.008047     -0.174987     -0.652981
     17.43417      7.80098     10.54863        -0.006285      0.001091      0.656511
      6.76572      7.80098     14.29517        -0.041840      0.111215     -0.192220
     12.09994      7.80098     18.04172         0.163406      0.045126     -0.536409
    total drift:                               -0.600989     -0.366245      0.137968

  FREE ENERGIE OF THE ION-ELECTRON SYSTEM (eV)
  free  energy   TOTEN  =      -683.29143422 eV

  energy  without entropy=     -683.28743662  energy(sigma->0) =     -683.28943542