 vasp.6.4.3 19Mar24 (build Oct 22 2024 11:23:12) complex

 executed on             LinuxIFC date 2025.06.04  08:22:16

 INCAR:
   SYSTEM = Si and Ge interface calculation
   ISTART = 0
   ICHARG = 2
   LWAVE = .FALSE.
   LREAL = AUTO
   ENCUT = 700
   ENAUG = 900
   ADDGRID = .TRUE.
   LMAXMIX = 6
   LASPH = .TRUE.
   LMIXTAU = .TRUE.
   NCORE = 16
   NELM = 100
   NBANDS = 231
   EDIFF = 1d-7
   AMIX = 0.6
   ISMEAR = 0
   SIGMA = 0.01
   NELECT = 384
   ISPIN = 2
   NUPDOWN = 1
   LVTOT = .FALSE.
   LVHAR = .TRUE.

 POTCAR:    PAW_PBE Ge 05Jan2001
|           W    W    AA    RRRRR   N    N  II  N    N   GGGG   !!!           |
|           W    W   A  A   R    R  NN   N  II  NN   N  G    G  !!!           |
|           W    W  A    A  R    R  N N  N  II  N N  N  G       !!!           |
|           W WW W  AAAAAA  RRRRR   N  N N  II  N  N N  G  GGG   !            |
|           WW  WW  A    A  R   R   N   NN  II  N   NN  G    G                |
|           W    W  A    A  R    R  N    N  II  N    N   GGGG   !!!           |
|     You use a magnetic or noncollinear calculation, but did not specify     |
|     the initial magnetic moment with the MAGMOM tag. Note that a            |
|     default of 0.01 will be used for all atoms. This ferromagnetic          |
|     setup may break the symmetry of the crystal, in particular it may       |
|     rule out finding an antiferromagnetic solution. Thence, we              |
|     recommend setting the initial magnetic moment manually or verifying     |
|     carefully that this magnetic setup is desired.                          |

 POTCAR:    PAW_PBE Ge 05Jan2001
   VRHFIN =Ge: s2p2

   TITEL  = PAW_PBE Ge 05Jan2001
   POMASS =   72.610; ZVAL   =    4.000    mass and valenz
   ENMAX  =  173.807; ENMIN  =  130.355 eV

 Optimization of the real space projectors (new method)

 maximal supplied QI-value         = 16.25
 optimisation between [QCUT,QGAM] = [ 13.49, 26.98] = [ 50.95,203.80] Ry
 Optimized for a Real-space Cutoff    1.25 Angstroem

   l    n(q)    QCUT    max X(q) W(low)/X(q) W(high)/X(q)  e(spline)
   0     10    13.489    65.336    0.91E-04    0.11E-03    0.34E-06
   0     10    13.489    52.220    0.89E-04    0.11E-03    0.34E-06
   1     10    13.489    36.409    0.22E-03    0.27E-03    0.14E-06
   1     10    13.489    21.334    0.21E-03    0.27E-03    0.14E-06
   2      9    13.489     4.673    0.11E-03    0.12E-03    0.19E-06
  PAW_PBE Ge 05Jan2001                  :

 POSCAR: Ge+Ge
  positions in direct lattice

 exchange-correlation table for PE
   RHO(1)=    0.500       N(1)  =     2000
   RHO(2)=  100.500       N(2)  =     4000

 ion  position               nearest neighbor table
   1  0.812  0.188  0.476-  68 0.65  11 2.45  43 2.45  31 2.45  74 2.45  86 2.45
   2  0.023  0.977  0.000-  21 2.45  44 2.45  32 2.45  85 2.45  73 2.45  55 2.75
   3  0.181  0.819  0.095-  22 2.45  45 2.45  33 2.45
   4  0.339  0.661  0.190-  23 2.45  46 2.45  34 2.45   8 2.45
   5  0.496  0.504  0.286-  24 2.45  47 2.45   9 2.45  35 2.45
   6  0.654  0.346  0.381-  19 2.45  10 2.45  48 2.45  36 2.45
   7  0.102  0.898  0.500-  18 2.45  25 2.45  37 2.45  92 2.45  80 2.45  50 2.75
   8  0.312  0.688  0.024-  61 0.65  38 2.45  26 2.45   4 2.45  79 2.45  91 2.45
   9  0.470  0.530  0.119-  14 2.45  39 2.45  27 2.45   5 2.45
  10  0.628  0.372  0.214-  15 2.45  40 2.45  28 2.45   6 2.45
  11  0.786  0.214  0.310-  16 2.45   1 2.45  41 2.45  29 2.45
  12  0.944  0.056  0.405-  17 2.45  42 2.45  30 2.45
  13  0.312  0.688  0.476-  56 0.65  23 2.45  43 2.45  74 2.45  31 2.45  86 2.45
  14  0.523  0.477  0.000-   9 2.45  44 2.45  32 2.45  73 2.45  85 2.45  67 2.75
  15  0.681  0.319  0.095-  10 2.45  45 2.45  33 2.45
  16  0.839  0.161  0.190-  11 2.45  20 2.45  46 2.45  34 2.45
  17  0.996  0.004  0.286-  12 2.45  47 2.45  21 2.45  35 2.45
  18  0.154  0.846  0.381-   7 2.45  22 2.45  48 2.45  36 2.45
  19  0.602  0.398  0.500-   6 2.45  37 2.45  25 2.45  92 2.45  80 2.45  62 2.75
  20  0.812  0.188  0.024-  49 0.65  16 2.45  38 2.45  26 2.45  79 2.45  91 2.45
  21  0.970  0.030  0.119-   2 2.45  39 2.45  27 2.45  17 2.45
  22  0.128  0.872  0.214-   3 2.45  18 2.45  40 2.45  28 2.45
  23  0.286  0.714  0.310-  13 2.45   4 2.45  41 2.45  29 2.45
  24  0.444  0.556  0.405-   5 2.45  42 2.45  30 2.45
  25  0.312  0.188  0.476-  80 0.65  35 2.45   7 2.45  19 2.45  50 2.45  62 2.45
  26  0.523  0.977  0.000-  45 2.45   8 2.45  20 2.45  49 2.45  61 2.45  91 2.75
  27  0.681  0.819  0.095-  46 2.45  21 2.45   9 2.45
  28  0.839  0.661  0.190-  47 2.45  32 2.45  22 2.45  10 2.45
  29  0.996  0.504  0.286-  48 2.45  33 2.45  23 2.45  11 2.45
  30  0.154  0.346  0.381-  43 2.45  34 2.45  24 2.45  12 2.45
  31  0.602  0.898  0.500-  42 2.45   1 2.45  13 2.45  68 2.45  56 2.45  86 2.75
  32  0.812  0.688  0.024-  73 0.65  28 2.45  55 2.45   2 2.45  14 2.45  67 2.45
  33  0.970  0.530  0.119-  38 2.45  29 2.45   3 2.45  15 2.45
  34  0.128  0.372  0.214-  39 2.45  30 2.45   4 2.45  16 2.45
  35  0.286  0.214  0.310-  40 2.45  25 2.45   5 2.45  17 2.45
  36  0.444  0.056  0.405-  41 2.45   6 2.45  18 2.45
  37  0.812  0.688  0.476-  92 0.65  19 2.45   7 2.45  47 2.45  50 2.45  62 2.45
  38  0.023  0.477  0.000-  33 2.45   8 2.45  20 2.45  61 2.45  49 2.45  79 2.75
  39  0.181  0.319  0.095-  34 2.45  21 2.45   9 2.45
  40  0.339  0.161  0.190-  35 2.45  22 2.45  10 2.45  44 2.45
  41  0.496  0.004  0.286-  36 2.45  45 2.45  11 2.45  23 2.45
  42  0.654  0.846  0.381-  31 2.45  46 2.45  24 2.45  12 2.45
  43  0.102  0.398  0.500-  30 2.45   1 2.45  13 2.45  56 2.45  68 2.45  74 2.75
  44  0.312  0.188  0.024-  85 0.65  40 2.45   2 2.45  14 2.45  67 2.45  55 2.45
  45  0.470  0.030  0.119-  26 2.45  41 2.45   3 2.45  15 2.45
  46  0.628  0.872  0.214-  27 2.45  42 2.45   4 2.45  16 2.45
  47  0.786  0.714  0.310-  28 2.45  37 2.45  17 2.45   5 2.45
  48  0.944  0.556  0.405-  29 2.45   6 2.45  18 2.45
  49  0.812  0.188  0.976-  20 0.65  59 2.45  79 2.45  91 2.45  38 2.45  26 2.45
  50  0.023  0.977  0.500-  69 2.45  80 2.45  92 2.45  25 2.45  37 2.45   7 2.75
  51  0.181  0.819  0.595-  70 2.45  81 2.45  93 2.45
  52  0.339  0.661  0.690-  71 2.45  56 2.45  82 2.45  94 2.45
  53  0.496  0.504  0.786-  72 2.45  83 2.45  57 2.45  95 2.45
  54  0.654  0.346  0.881-  67 2.45  84 2.45  58 2.45  96 2.45
  55  0.102  0.898  1.000-  66 2.45  73 2.45  85 2.45  32 2.45  44 2.45   2 2.75
  56  0.312  0.688  0.524-  13 0.65  74 2.45  52 2.45  86 2.45  43 2.45  31 2.45
  57  0.470  0.530  0.619-  62 2.45  75 2.45  87 2.45  53 2.45
  58  0.628  0.372  0.714-  63 2.45  76 2.45  88 2.45  54 2.45
  59  0.786  0.214  0.810-  64 2.45  49 2.45  77 2.45  89 2.45
  60  0.944  0.056  0.905-  65 2.45  78 2.45  90 2.45
[...]
  82  0.628  0.872  0.714-  87 2.45  78 2.45  52 2.45  64 2.45
  83  0.786  0.714  0.810-  88 2.45  73 2.45  65 2.45  53 2.45
  84  0.944  0.556  0.905-  89 2.45  54 2.45  66 2.45
  85  0.312  0.188  0.976-  44 0.65  95 2.45  55 2.45  67 2.45   2 2.45  14 2.45
  86  0.523  0.977  0.500-  81 2.45  68 2.45  56 2.45  13 2.45   1 2.45  31 2.75
  87  0.681  0.819  0.595-  82 2.45  57 2.45  69 2.45
  88  0.839  0.661  0.690-  92 2.45  83 2.45  58 2.45  70 2.45
  89  0.996  0.504  0.786-  84 2.45  93 2.45  71 2.45  59 2.45
  90  0.154  0.346  0.881-  94 2.45  79 2.45  60 2.45  72 2.45
  91  0.602  0.898  0.000-  78 2.45  49 2.45  61 2.45   8 2.45  20 2.45  26 2.75
  92  0.812  0.688  0.524-  37 0.65  88 2.45  50 2.45   7 2.45  19 2.45  62 2.45
  93  0.970  0.530  0.619-  74 2.45  89 2.45  51 2.45  63 2.45
  94  0.128  0.372  0.714-  75 2.45  90 2.45  52 2.45  64 2.45
  95  0.286  0.214  0.810-  76 2.45  85 2.45  53 2.45  65 2.45
  96  0.444  0.056  0.905-  77 2.45  54 2.45  66 2.45

  LATTYP: Found a base centered orthorhombic cell.
 ALAT       =     8.0013379485
 B/A-ratio  =     4.3588986951
 C/A-ratio  =     1.7033263844

  Lattice vectors:

 A1 = (  17.8915348050,   0.0000000000,   0.0000000000)
 A2 = ( -16.1023807530,   7.7987394330,   0.0000000000)
 A3 = (   0.0000002790,  -0.0000000640,  13.6288900380)

Analysis of symmetry for initial positions (statically):
 Subroutine PRICEL returns following result:

[...]

   8 primitive cells build up your supercell.

 Routine SETGRP: Setting up the symmetry group for a
 base centered orthorhombic supercell.

 Subroutine GETGRP returns: Found  4 space group operations
 (whereof  2 operations were pure point group operations)
 out of a pool of  8 trial point group operations.

The static configuration has the point symmetry C_1h.
 The point group associated with its full space group is C_2h.

Analysis of symmetry for dynamics (positions and initial velocities):
 Subroutine PRICEL returns following result:

[...]

The dynamic configuration has the point symmetry C_1h.
 The point group associated with its full space group is C_2h.

Analysis of structural, dynamic, and magnetic symmetry:
 Subroutine PRICEL returns following result:

  LATTYP: Found a base centered orthorhombic cell.
 ALAT       =     4.0006688542
 B/A-ratio  =     4.3588981459
 C/A-ratio  =     1.7033262992

  Lattice vectors:

 A1 = (   8.9457662753,  -0.0000000000,   0.0000000136)
 A2 = (  -8.0511887663,   3.8993694825,   0.0000000545)
 A3 = (   0.0000001395,  -0.0000000320,   6.8144444738)

   8 primitive cells build up your supercell.

 Routine SETGRP: Setting up the symmetry group for a
 base centered orthorhombic supercell.

 Subroutine GETGRP returns: Found  4 space group operations
 (whereof  2 operations were pure point group operations)
 out of a pool of  8 trial point group operations.

The overall configuration has the point symmetry C_1h.
 The point group associated with its full space group is C_2h.

 Subroutine INISYM returns: Found  4 space group operations
 (whereof  2 operations are pure point group operations),
 and found     8 'primitive' translations

                                     Primitive cell

  volume of cell :     237.7072

  direct lattice vectors                    reciprocal lattice vectors
     8.945766275 -0.000000000  0.000000014     0.111784722  0.230806520 -0.000000001
    -8.051188766  3.899369483  0.000000055    -0.000000000  0.256451717  0.000000001
     0.000000139 -0.000000032  6.814444474    -0.000000000 -0.000000003  0.146747105

  length of vectors
     8.945766275  8.945765641  6.814444474     0.256451699  0.256451717  0.146747105

  position of ions in fractional coordinates (direct lattice)
     0.624575057  0.375425123  0.952380668
     0.045626395  0.954373477  0.000000004
     0.361416193  0.638583698  0.190476027
     0.677205853  0.322793919  0.380952225
     0.992995870  0.007004308  0.571428340
     0.308785278  0.691214841  0.761904591
     0.203522495  0.796477724  0.000000011
     0.624574223  0.375425899  0.047619420
     0.940363763  0.059636162  0.238095379
     0.256153291  0.743846461  0.428571330
     0.571943308  0.428056832  0.619047505
     0.887733088  0.112267107  0.809523642

  ion indices of the primitive-cell ions
   primitive index   ion index
                 1           1
                 2          50
                 3          63
                 4          64
                 5          17
[...]
     0.000000279 -0.000000064 13.628890038     0.000000000  0.000000000  0.073373547

  length of vectors
    17.891534805 17.891534385 13.628890038     0.128225848  0.128225851  0.073373547

 FORCES acting on ions
    electron-ion (+dipol)            ewald-force                    non-local-force                 convergence-correction
   -.546E+01 0.125E+01 0.364E+02   0.569E+01 -.131E+01 -.542E+03   0.971E-01 -.223E-01 -.136E+02   -.341E-05 0.733E-06 0.213E-03
   0.536E+02 -.123E+02 -.415E+01   -.551E+02 0.126E+02 0.356E+01   -.197E+01 0.452E+00 0.808E+00   0.451E-03 -.104E-03 -.718E-05
   -.419E+01 0.960E+00 -.408E+01   0.417E+01 -.956E+00 0.359E+01   0.118E-01 -.272E-02 0.166E+00   -.844E-05 0.199E-05 0.332E-04
   -.109E+02 0.251E+01 -.262E+02   0.111E+02 -.255E+01 0.268E+02   -.113E+00 0.260E-01 0.778E-01   -.121E-03 0.278E-04 -.192E-03
   0.183E+02 -.419E+01 0.138E+02   -.187E+02 0.430E+01 -.142E+02   0.565E+00 -.130E+00 0.534E+00   0.832E-04 -.190E-04 0.491E-04
   -.116E+02 0.265E+01 0.141E+02   0.119E+02 -.272E+01 -.148E+02   0.107E-01 -.245E-02 0.716E+00   -.620E-04 0.142E-04 0.934E-05
   -.536E+02 0.123E+02 0.415E+01   0.551E+02 -.126E+02 -.356E+01   0.197E+01 -.452E+00 -.808E+00   -.446E-03 0.102E-03 0.670E-05
   0.546E+01 -.125E+01 -.364E+02   -.569E+01 0.131E+01 0.542E+03   -.971E-01 0.223E-01 0.136E+02   -.100E-05 0.345E-06 -.211E-03
   0.116E+02 -.265E+01 -.141E+02   -.119E+02 0.272E+01 0.148E+02   -.107E-01 0.245E-02 -.716E+00   0.629E-04 -.143E-04 0.588E-05
   -.183E+02 0.419E+01 -.138E+02   0.187E+02 -.430E+01 0.142E+02   -.565E+00 0.130E+00 -.534E+00   -.798E-04 0.183E-04 -.266E-04
   0.109E+02 -.251E+01 0.262E+02   -.111E+02 0.255E+01 -.268E+02   0.113E+00 -.260E-01 -.778E-01   0.116E-03 -.267E-04 0.211E-03
   0.418E+01 -.960E+00 0.408E+01   -.417E+01 0.956E+00 -.359E+01   -.118E-01 0.272E-02 -.166E+00   0.828E-05 -.198E-05 -.201E-04
   -.546E+01 0.125E+01 0.364E+02   0.569E+01 -.131E+01 -.542E+03   0.971E-01 -.223E-01 -.136E+02   -.337E-05 0.824E-06 0.213E-03
   0.536E+02 -.123E+02 -.415E+01   -.551E+02 0.126E+02 0.356E+01   -.197E+01 0.452E+00 0.808E+00   0.452E-03 -.104E-03 -.718E-05
   -.419E+01 0.960E+00 -.408E+01   0.417E+01 -.956E+00 0.359E+01   0.118E-01 -.272E-02 0.166E+00   -.849E-05 0.189E-05 0.333E-04
   -.109E+02 0.251E+01 -.262E+02   0.111E+02 -.255E+01 0.268E+02   -.113E+00 0.260E-01 0.778E-01   -.121E-03 0.276E-04 -.192E-03
   0.183E+02 -.419E+01 0.138E+02   -.187E+02 0.430E+01 -.142E+02   0.565E+00 -.130E+00 0.534E+00   0.832E-04 -.191E-04 0.491E-04
   -.116E+02 0.265E+01 0.141E+02   0.119E+02 -.272E+01 -.148E+02   0.107E-01 -.245E-02 0.716E+00   -.620E-04 0.143E-04 0.937E-05
   -.536E+02 0.123E+02 0.415E+01   0.551E+02 -.126E+02 -.356E+01   0.197E+01 -.452E+00 -.808E+00   -.446E-03 0.102E-03 0.672E-05
   0.546E+01 -.125E+01 -.364E+02   -.569E+01 0.131E+01 0.542E+03   -.971E-01 0.223E-01 0.136E+02   -.948E-06 0.102E-06 -.210E-03
   0.116E+02 -.265E+01 -.141E+02   -.119E+02 0.272E+01 0.148E+02   -.107E-01 0.245E-02 -.716E+00   0.628E-04 -.145E-04 0.588E-05
   -.183E+02 0.419E+01 -.138E+02   0.187E+02 -.430E+01 0.142E+02   -.565E+00 0.130E+00 -.534E+00   -.798E-04 0.183E-04 -.265E-04
   0.109E+02 -.251E+01 0.262E+02   -.111E+02 0.255E+01 -.268E+02   0.113E+00 -.260E-01 -.778E-01   0.116E-03 -.265E-04 0.211E-03
   0.418E+01 -.960E+00 0.408E+01   -.417E+01 0.956E+00 -.359E+01   -.118E-01 0.272E-02 -.166E+00   0.829E-05 -.183E-05 -.200E-04
   -.546E+01 0.125E+01 0.364E+02   0.569E+01 -.131E+01 -.542E+03   0.971E-01 -.223E-01 -.136E+02   0.269E-05 -.622E-06 0.215E-03
   0.536E+02 -.123E+02 -.415E+01   -.551E+02 0.126E+02 0.356E+01   -.197E+01 0.452E+00 0.808E+00   0.450E-03 -.103E-03 -.533E-05
   -.419E+01 0.960E+00 -.408E+01   0.417E+01 -.956E+00 0.359E+01   0.118E-01 -.272E-02 0.166E+00   -.155E-04 0.369E-05 0.324E-04
   -.109E+02 0.251E+01 -.262E+02   0.111E+02 -.255E+01 0.268E+02   -.113E+00 0.260E-01 0.778E-01   -.114E-03 0.260E-04 -.191E-03
   0.183E+02 -.419E+01 0.138E+02   -.187E+02 0.430E+01 -.142E+02   0.565E+00 -.130E+00 0.534E+00   0.841E-04 -.193E-04 0.486E-04
   -.116E+02 0.265E+01 0.141E+02   0.119E+02 -.272E+01 -.148E+02   0.107E-01 -.245E-02 0.716E+00   -.690E-04 0.158E-04 0.847E-05
   -.536E+02 0.123E+02 0.415E+01   0.551E+02 -.126E+02 -.356E+01   0.197E+01 -.452E+00 -.808E+00   -.453E-03 0.104E-03 0.541E-05
   0.546E+01 -.125E+01 -.364E+02   -.569E+01 0.131E+01 0.542E+03   -.971E-01 0.223E-01 0.136E+02   0.389E-05 -.894E-06 -.212E-03
   0.116E+02 -.265E+01 -.141E+02   -.119E+02 0.272E+01 0.148E+02   -.107E-01 0.245E-02 -.716E+00   0.672E-04 -.155E-04 0.696E-05
   -.183E+02 0.419E+01 -.138E+02   0.187E+02 -.430E+01 0.142E+02   -.565E+00 0.130E+00 -.534E+00   -.879E-04 0.201E-04 -.276E-04
   0.109E+02 -.251E+01 0.262E+02   -.111E+02 0.255E+01 -.268E+02   0.113E+00 -.260E-01 -.778E-01   0.120E-03 -.275E-04 0.213E-03
   0.418E+01 -.960E+00 0.408E+01   -.417E+01 0.956E+00 -.359E+01   -.118E-01 0.272E-02 -.166E+00   0.133E-04 -.299E-05 -.203E-04
   -.546E+01 0.125E+01 0.364E+02   0.569E+01 -.131E+01 -.542E+03   0.971E-01 -.223E-01 -.136E+02   0.270E-05 -.614E-06 0.215E-03
   0.536E+02 -.123E+02 -.415E+01   -.551E+02 0.126E+02 0.356E+01   -.197E+01 0.452E+00 0.808E+00   0.450E-03 -.103E-03 -.528E-05
   -.419E+01 0.960E+00 -.408E+01   0.417E+01 -.956E+00 0.358E+01   0.118E-01 -.272E-02 0.166E+00   -.155E-04 0.341E-05 0.325E-04
   -.109E+02 0.251E+01 -.262E+02   0.111E+02 -.255E+01 0.268E+02   -.113E+00 0.260E-01 0.778E-01   -.114E-03 0.261E-04 -.191E-03
   0.183E+02 -.419E+01 0.138E+02   -.187E+02 0.430E+01 -.142E+02   0.565E+00 -.130E+00 0.534E+00   0.840E-04 -.192E-04 0.486E-04
   -.116E+02 0.265E+01 0.141E+02   0.119E+02 -.272E+01 -.148E+02   0.107E-01 -.245E-02 0.716E+00   -.690E-04 0.158E-04 0.842E-05
   -.536E+02 0.123E+02 0.415E+01   0.551E+02 -.126E+02 -.356E+01   0.197E+01 -.452E+00 -.808E+00   -.453E-03 0.104E-03 0.537E-05
   0.546E+01 -.125E+01 -.364E+02   -.569E+01 0.131E+01 0.542E+03   -.971E-01 0.223E-01 0.136E+02   0.391E-05 -.895E-06 -.212E-03
   0.116E+02 -.265E+01 -.141E+02   -.119E+02 0.272E+01 0.148E+02   -.107E-01 0.245E-02 -.716E+00   0.673E-04 -.154E-04 0.698E-05
   -.183E+02 0.419E+01 -.138E+02   0.187E+02 -.430E+01 0.142E+02   -.565E+00 0.130E+00 -.534E+00   -.878E-04 0.202E-04 -.276E-04
   0.109E+02 -.251E+01 0.262E+02   -.111E+02 0.255E+01 -.268E+02   0.113E+00 -.260E-01 -.778E-01   0.120E-03 -.274E-04 0.213E-03
   0.418E+01 -.960E+00 0.408E+01   -.417E+01 0.956E+00 -.359E+01   -.118E-01 0.272E-02 -.166E+00   0.132E-04 -.310E-05 -.203E-04
   -.546E+01 0.125E+01 0.364E+02   0.569E+01 -.131E+01 -.542E+03   0.971E-01 -.223E-01 -.136E+02   -.381E-05 0.741E-06 0.216E-03
   0.536E+02 -.123E+02 -.415E+01   -.551E+02 0.126E+02 0.356E+01   -.197E+01 0.452E+00 0.808E+00   0.453E-03 -.104E-03 -.960E-05
   -.419E+01 0.960E+00 -.408E+01   0.417E+01 -.956E+00 0.359E+01   0.118E-01 -.272E-02 0.166E+00   -.107E-04 0.253E-05 0.167E-04
   -.109E+02 0.251E+01 -.262E+02   0.111E+02 -.255E+01 0.268E+02   -.113E+00 0.260E-01 0.778E-01   -.119E-03 0.275E-04 -.213E-03
   0.183E+02 -.419E+01 0.138E+02   -.187E+02 0.430E+01 -.142E+02   0.565E+00 -.130E+00 0.534E+00   0.832E-04 -.190E-04 0.285E-04
   -.116E+02 0.265E+01 0.141E+02   0.119E+02 -.272E+01 -.148E+02   0.107E-01 -.245E-02 0.716E+00   -.621E-04 0.142E-04 -.447E-05
   -.536E+02 0.123E+02 0.415E+01   0.551E+02 -.126E+02 -.356E+01   0.197E+01 -.452E+00 -.808E+00   -.448E-03 0.103E-03 0.958E-05
   0.546E+01 -.125E+01 -.364E+02   -.569E+01 0.131E+01 0.542E+03   -.971E-01 0.223E-01 0.136E+02   -.310E-06 0.129E-06 -.220E-03
   0.116E+02 -.265E+01 -.141E+02   -.119E+02 0.272E+01 0.148E+02   -.107E-01 0.245E-02 -.716E+00   0.630E-04 -.144E-04 -.107E-04
   -.183E+02 0.419E+01 -.138E+02   0.187E+02 -.430E+01 0.142E+02   -.565E+00 0.130E+00 -.534E+00   -.805E-04 0.184E-04 -.509E-04
   0.109E+02 -.251E+01 0.262E+02   -.111E+02 0.255E+01 -.268E+02   0.113E+00 -.260E-01 -.778E-01   0.116E-03 -.267E-04 0.194E-03
   0.419E+01 -.960E+00 0.408E+01   -.417E+01 0.956E+00 -.358E+01   -.118E-01 0.272E-02 -.166E+00   0.922E-05 -.234E-05 -.299E-04
[...]
   0.109E+02 -.251E+01 0.262E+02   -.111E+02 0.255E+01 -.268E+02   0.113E+00 -.260E-01 -.778E-01   0.119E-03 -.273E-04 0.193E-03
   0.419E+01 -.960E+00 0.408E+01   -.417E+01 0.956E+00 -.358E+01   -.118E-01 0.272E-02 -.166E+00   0.141E-04 -.324E-05 -.297E-04
   -.546E+01 0.125E+01 0.364E+02   0.569E+01 -.131E+01 -.542E+03   0.971E-01 -.223E-01 -.136E+02   0.935E-06 -.218E-06 0.214E-03
   0.536E+02 -.123E+02 -.415E+01   -.551E+02 0.126E+02 0.356E+01   -.197E+01 0.452E+00 0.808E+00   0.449E-03 -.103E-03 -.115E-04
   -.419E+01 0.960E+00 -.408E+01   0.417E+01 -.956E+00 0.359E+01   0.118E-01 -.272E-02 0.166E+00   -.149E-04 0.339E-05 0.176E-04
   -.109E+02 0.251E+01 -.262E+02   0.111E+02 -.255E+01 0.268E+02   -.113E+00 0.260E-01 0.778E-01   -.113E-03 0.260E-04 -.214E-03
   0.183E+02 -.419E+01 0.138E+02   -.187E+02 0.430E+01 -.142E+02   0.565E+00 -.130E+00 0.534E+00   0.831E-04 -.190E-04 0.291E-04
   -.116E+02 0.265E+01 0.141E+02   0.119E+02 -.272E+01 -.148E+02   0.107E-01 -.245E-02 0.716E+00   -.679E-04 0.154E-04 -.367E-05
   -.536E+02 0.123E+02 0.415E+01   0.551E+02 -.126E+02 -.356E+01   0.197E+01 -.452E+00 -.808E+00   -.454E-03 0.104E-03 0.109E-04
   0.546E+01 -.125E+01 -.364E+02   -.569E+01 0.131E+01 0.542E+03   -.971E-01 0.223E-01 0.136E+02   0.561E-05 -.130E-05 -.218E-03
   0.116E+02 -.265E+01 -.141E+02   -.119E+02 0.272E+01 0.148E+02   -.107E-01 0.245E-02 -.716E+00   0.645E-04 -.148E-04 -.119E-04
   -.183E+02 0.419E+01 -.138E+02   0.187E+02 -.430E+01 0.142E+02   -.565E+00 0.130E+00 -.534E+00   -.858E-04 0.196E-04 -.498E-04
   0.109E+02 -.251E+01 0.262E+02   -.111E+02 0.255E+01 -.268E+02   0.113E+00 -.260E-01 -.778E-01   0.119E-03 -.273E-04 0.193E-03
   0.418E+01 -.960E+00 0.408E+01   -.417E+01 0.956E+00 -.359E+01   -.118E-01 0.272E-02 -.166E+00   0.142E-04 -.326E-05 -.297E-04
   -.163E-01 0.609E-02 0.697E-02   0.702E-13 0.933E-13 0.594E-12   -.270E-14 -.144E-14 0.292E-13   0.560E-05 -.128E-05 -.152E-05

 POSITION                                       TOTAL-FORCE (eV/Angst)
     11.51045      1.46392      6.48995         0.328013     -0.075251   -518.963096
    -15.32687      7.62082      0.00000        -3.475691      0.797378      0.222010
     -9.95940      6.38944      1.29799        -0.006095      0.001398     -0.328938
     -4.59194      5.15806      2.59598         0.052369     -0.012014      0.613003
      0.77552      3.92668      3.89397         0.103787     -0.023810      0.222003
      6.14299      2.69530      5.19196         0.292686     -0.067147      0.039800
    -12.64312      7.00513      6.81444         3.475691     -0.797378     -0.222010
     -5.48652      5.36329      0.32450        -0.328013      0.075251    518.963096
     -0.11906      4.13191      1.62249        -0.292686      0.067147     -0.039800
      5.24841      2.90053      2.92048        -0.103787      0.023810     -0.222003
     10.61587      1.66915      4.21846        -0.052369      0.012014     -0.613003
     15.98334      0.43777      5.51645         0.006095     -0.001398      0.328938
     -5.48651      5.36329      6.48994         0.328013     -0.075251   -518.963096
      1.67009      3.72145      0.00000        -3.475691      0.797378      0.222010
      7.03755      2.49007      1.29799        -0.006095      0.001398     -0.328938
     12.40502      1.25869      2.59598         0.052369     -0.012014      0.613003
     17.77248      0.02731      3.89397         0.103787     -0.023810      0.222003
    -10.85397      6.59467      5.19196         0.292686     -0.067147      0.039800
      4.35384      3.10576      6.81444         3.475691     -0.797378     -0.222010
     11.51044      1.46392      0.32450        -0.328013      0.075251    518.963096
     16.87790      0.23254      1.62249        -0.292686      0.067147     -0.039800
    -11.74855      6.79990      2.92048        -0.103787      0.023810     -0.222003
     -6.38109      5.56852      4.21847        -0.052369      0.012014     -0.613003
     -1.01362      4.33714      5.51646         0.006095     -0.001398      0.328938
      2.56468      1.46392      6.48995         0.328013     -0.075251   -518.963096
     -6.38110      7.62082      0.00000        -3.475691      0.797378      0.222010
     -1.01364      6.38944      1.29799        -0.006095      0.001398     -0.328938
      4.35383      5.15806      2.59598         0.052369     -0.012014      0.613003
      9.72129      3.92668      3.89397         0.103787     -0.023810      0.222003
     -2.80278      2.69530      5.19196         0.292686     -0.067147      0.039800
     -3.69735      7.00513      6.81444         3.475691     -0.797378     -0.222010
      3.45925      5.36329      0.32450        -0.328013      0.075251    518.963096
      8.82672      4.13191      1.62249        -0.292686      0.067147     -0.039800
     -3.69736      2.90053      2.92048        -0.103787      0.023810     -0.222003
      1.67011      1.66915      4.21847        -0.052369      0.012014     -0.613003
      7.03757      0.43777      5.51646         0.006095     -0.001398      0.328938
      3.45926      5.36329      6.48995         0.328013     -0.075251   -518.963096
     -7.27567      3.72145      0.00000        -3.475691      0.797378      0.222010
     -1.90821      2.49007      1.29799        -0.006095      0.001398     -0.328938
      3.45925      1.25869      2.59598         0.052369     -0.012014      0.613003
      8.82671      0.02731      3.89397         0.103787     -0.023810      0.222003
     -1.90820      6.59467      5.19196         0.292686     -0.067147      0.039800
     -4.59193      3.10576      6.81444         3.475691     -0.797378     -0.222010
      2.56467      1.46392      0.32450        -0.328013      0.075251    518.963096
      7.93213      0.23254      1.62249        -0.292686      0.067147     -0.039800
     -2.80278      6.79990      2.92048        -0.103787      0.023810     -0.222003
      2.56468      5.56852      4.21847        -0.052369      0.012014     -0.613003
      7.93214      4.33714      5.51646         0.006095     -0.001398      0.328938
     11.51045      1.46392     13.30439         0.328013     -0.075251   -518.963096
    -15.32687      7.62082      6.81444        -3.475691      0.797378      0.222010
     -9.95940      6.38944      8.11243        -0.006095      0.001398     -0.328938
     -4.59194      5.15806      9.41042         0.052369     -0.012014      0.613003
      0.77552      3.92668     10.70841         0.103787     -0.023810      0.222003
      6.14299      2.69530     12.00640         0.292686     -0.067147      0.039800
    -12.64312      7.00513     13.62889         3.475691     -0.797378     -0.222010
     -5.48652      5.36329      7.13894        -0.328013      0.075251    518.963096
     -0.11906      4.13191      8.43693        -0.292686      0.067147     -0.039800
      5.24841      2.90053      9.73492        -0.103787      0.023810     -0.222003
     10.61587      1.66915     11.03291        -0.052369      0.012014     -0.613003
     15.98333      0.43777     12.33090         0.006095     -0.001398      0.328938
[...]
     -2.80278      6.79990      9.73492        -0.103787      0.023810     -0.222003
      2.56468      5.56852     11.03291        -0.052369      0.012014     -0.613003
      7.93214      4.33714     12.33090         0.006095     -0.001398      0.328938
      2.56468      1.46392     13.30439         0.328013     -0.075251   -518.963096
     -6.38110      7.62082      6.81444        -3.475691      0.797378      0.222010
     -1.01364      6.38944      8.11243        -0.006095      0.001398     -0.328938
      4.35383      5.15806      9.41042         0.052369     -0.012014      0.613003
      9.72129      3.92668     10.70841         0.103787     -0.023810      0.222003
     -2.80278      2.69530     12.00640         0.292686     -0.067147      0.039800
     -3.69735      7.00513      0.00000         3.475691     -0.797378     -0.222010
      3.45925      5.36329      7.13894        -0.328013      0.075251    518.963096
      8.82672      4.13191      8.43693        -0.292686      0.067147     -0.039800
     -3.69736      2.90053      9.73492        -0.103787      0.023810     -0.222003
      1.67011      1.66915     11.03291        -0.052369      0.012014     -0.613003
      7.03757      0.43777     12.33090         0.006095     -0.001398      0.328938
    total drift:                               -0.016327      0.006093      0.006967

  FREE ENERGIE OF THE ION-ELECTRON SYSTEM (eV)
  free  energy   TOTEN  =      1203.72118127 eV

  energy  without entropy=     1203.72342016  energy(sigma->0) =     1203.72230071