 vasp.6.4.3 19Mar24 (build Oct 22 2024 11:23:12) complex

 executed on             LinuxIFC date 2025.04.30  08:09:16

 INCAR:
   SYSTEM = Si011 and Ge011 interface calculation
   ISTART = 0
   ICHARG = 2
   LWAVE = .FALSE.
   LREAL = AUTO
   ENCUT = 700
   ENAUG = 900
   ADDGRID = .TRUE.
   LMAXMIX = 6
   LASPH = .TRUE.
   LMIXTAU = .TRUE.
   NCORE = 16
   NELM = 100
   NBANDS = 346
   EDIFF = 1d-7
   AMIX = 0.6
   ISMEAR = 0
   SIGMA = 0.01
   NELECT = 576
   ISPIN = 2
   NUPDOWN = 1
   LVTOT = .FALSE.
   LVHAR = .TRUE.

 POTCAR:    PAW_PBE Si 05Jan2001
 POTCAR:    PAW_PBE Ge 05Jan2001
|           W    W    AA    RRRRR   N    N  II  N    N   GGGG   !!!           |
|           W    W   A  A   R    R  NN   N  II  NN   N  G    G  !!!           |
|           W    W  A    A  R    R  N N  N  II  N N  N  G       !!!           |
|           W WW W  AAAAAA  RRRRR   N  N N  II  N  N N  G  GGG   !            |
|           WW  WW  A    A  R   R   N   NN  II  N   NN  G    G                |
|           W    W  A    A  R    R  N    N  II  N    N   GGGG   !!!           |
|     You use a magnetic or noncollinear calculation, but did not specify     |
|     the initial magnetic moment with the MAGMOM tag. Note that a            |
|     default of 6.944e-3 will be used for all atoms. This ferromagnetic      |
|     setup may break the symmetry of the crystal, in particular it may       |
|     rule out finding an antiferromagnetic solution. Thence, we              |
|     recommend setting the initial magnetic moment manually or verifying     |
|     carefully that this magnetic setup is desired.                          |

 POTCAR:    PAW_PBE Si 05Jan2001
   VRHFIN =Si: s2p2

   TITEL  = PAW_PBE Si 05Jan2001
   POMASS =   28.085; ZVAL   =    4.000    mass and valenz
   ENMAX  =  245.345; ENMIN  =  184.009 eV

 POTCAR:    PAW_PBE Ge 05Jan2001
   VRHFIN =Ge: s2p2

   TITEL  = PAW_PBE Ge 05Jan2001
   POMASS =   72.610; ZVAL   =    4.000    mass and valenz
   ENMAX  =  173.807; ENMIN  =  130.355 eV

 Optimization of the real space projectors (new method)

 maximal supplied QI-value         = 19.84
 optimisation between [QCUT,QGAM] = [ 13.49, 26.99] = [ 50.98,203.92] Ry
 Optimized for a Real-space Cutoff    1.07 Angstroem

   l    n(q)    QCUT    max X(q) W(low)/X(q) W(high)/X(q)  e(spline)
   0      9    13.493   159.560    0.22E-03    0.15E-03    0.72E-07
   0      9    13.493   115.863    0.21E-03    0.15E-03    0.71E-07
   1      8    13.493    88.339    0.15E-03    0.11E-03    0.13E-06
   1      8    13.493    48.592    0.15E-03    0.10E-03    0.13E-06
 Optimization of the real space projectors (new method)

 maximal supplied QI-value         = 16.25
 optimisation between [QCUT,QGAM] = [ 13.49, 26.98] = [ 50.95,203.80] Ry
 Optimized for a Real-space Cutoff    1.25 Angstroem

   l    n(q)    QCUT    max X(q) W(low)/X(q) W(high)/X(q)  e(spline)
   0     10    13.489    65.336    0.91E-04    0.11E-03    0.34E-06
   0     10    13.489    52.220    0.89E-04    0.11E-03    0.34E-06
   1     10    13.489    36.409    0.22E-03    0.27E-03    0.14E-06
   1     10    13.489    21.334    0.21E-03    0.27E-03    0.14E-06
   2      9    13.489     4.673    0.11E-03    0.12E-03    0.19E-06
  PAW_PBE Si 05Jan2001                  :
  PAW_PBE Ge 05Jan2001                  :

 POSCAR: fcc Si+fcc Ge
  positions in direct lattice

 exchange-correlation table for PE
   RHO(1)=    0.500       N(1)  =     2000
   RHO(2)=  100.500       N(2)  =     4000

 ion  position               nearest neighbor table
   1  0.000  0.000  0.000-  49 2.37  38 2.37  55 2.37  96 2.53  13 2.61
   2  0.000  0.750  0.080-  39 2.37  50 2.37  55 2.37  56 2.37
   3  0.000  0.500  0.161-  56 2.37  51 2.37  40 2.37 132 2.37
   4  0.000  0.250  0.241-  52 2.37  41 2.37 132 2.37 127 2.37
   5  0.000  0.000  0.322-  53 2.37  42 2.37 127 2.37  59 2.37
   6  0.000  0.750  0.402-  54 2.37  59 2.37  60 2.37  91 2.53  18 2.61
   7  0.333  0.333  0.000-  61 2.37  37 2.37  44 2.37 138 2.71
   8  0.333  0.083  0.080-  45 2.37  78 2.37  38 2.37  61 2.37
   9  0.333  0.833  0.161-  78 2.37  63 2.37  39 2.37  46 2.37
  10  0.333  0.583  0.241-  64 2.37  40 2.37  63 2.37  73 2.37
  11  0.333  0.333  0.322-  65 2.37  41 2.37  64 2.37  48 2.37
  12  0.333  0.083  0.402-  66 2.37  42 2.37  65 2.37 133 2.71
  13  0.105  0.075  0.909-  19 2.37  96 2.37  77 2.43   1 2.61
  14  0.667  0.417  0.080-  51 2.37  44 2.37  67 2.37  68 2.37
  15  0.667  0.167  0.161-  68 2.37  45 2.37  52 2.37  69 2.37
  16  0.667  0.917  0.241-  46 2.37  53 2.37  69 2.37  70 2.37
  17  0.667  0.667  0.322-  73 2.37  70 2.37  54 2.37  71 2.37
  18  0.105  0.825  0.493-  24 2.37  91 2.37  92 2.43   6 2.61
  19  0.355  0.075  0.909- 138 2.37  13 2.37 137 2.43  61 2.59
  20  0.000  0.250  0.080- 132 2.37  68 2.37  37 2.37  38 2.37
  21  0.000  0.000  0.161-  38 2.37  69 2.37 127 2.37  39 2.37
  22  0.000  0.750  0.241-  70 2.37  59 2.37  39 2.37  40 2.37
  23  0.000  0.500  0.322-  71 2.37  60 2.37  40 2.37  41 2.37
  24  0.355  0.825  0.493- 133 2.37  18 2.37 116 2.43  66 2.59
  25  0.771  0.158  0.826-  77 2.37 107 2.37  88 2.43 108 2.43
  26  0.333  0.583  0.080-  63 2.37  44 2.37  56 2.37  43 2.37
  27  0.333  0.333  0.161-  44 2.37  45 2.37 132 2.37  64 2.37
  28  0.333  0.083  0.241-  46 2.37 127 2.37  65 2.37  45 2.37
  29  0.333  0.833  0.322-  73 2.37  59 2.37  66 2.37  46 2.37
  30  0.771  0.908  0.576-  92 2.37  86 2.37  87 2.43 103 2.43
  31  0.771  0.408  0.909-  62 2.37 108 2.37  89 2.43  67 2.53
  32  0.667  0.917  0.080-  69 2.37  78 2.37  49 2.37  50 2.37
  33  0.667  0.667  0.161-  50 2.37  63 2.37  70 2.37  51 2.37
  34  0.667  0.417  0.241-  64 2.37  51 2.37  71 2.37  52 2.37
  35  0.667  0.167  0.322-  65 2.37  52 2.37  72 2.37  53 2.37
  36  0.771  0.158  0.493-  47 2.37 103 2.37 104 2.43  72 2.53
  37  0.083  0.333  0.000-   7 2.37  20 2.37  84 2.37  62 2.49
  38  0.083  0.083  0.080-  21 2.37   8 2.37   1 2.37  20 2.37
  39  0.083  0.833  0.161-   2 2.37   9 2.37  22 2.37  21 2.37
  40  0.083  0.583  0.241-  10 2.37   3 2.37  23 2.37  22 2.37
  41  0.083  0.333  0.322-  11 2.37   4 2.37  79 2.37  23 2.37
  42  0.083  0.083  0.402-  12 2.37   5 2.37  79 2.37  47 2.49
  43  0.417  0.667  0.000- 125 2.37 114 2.37  26 2.37 120 2.43 102 2.59
  44  0.417  0.417  0.080-  27 2.37  26 2.37  14 2.37   7 2.37
  45  0.417  0.167  0.161-   8 2.37  27 2.37  15 2.37  28 2.37
  46  0.417  0.917  0.241-  28 2.37  16 2.37   9 2.37  29 2.37
  47  0.021  0.158  0.493-  36 2.37  58 2.37 110 2.43  42 2.49  79 2.53
  48  0.417  0.417  0.402- 140 2.37 109 2.37  11 2.37 115 2.43  97 2.59
  49  0.750  0.000  0.000-   1 2.37  32 2.37 126 2.37 144 2.53
  50  0.750  0.750  0.080-  33 2.37   2 2.37 114 2.37  32 2.37
  51  0.750  0.500  0.161-  14 2.37   3 2.37  34 2.37  33 2.37
  52  0.750  0.250  0.241-   4 2.37  15 2.37  35 2.37  34 2.37
  53  0.750  0.000  0.322-   5 2.37  16 2.37 121 2.37  35 2.37
  54  0.750  0.750  0.402-   6 2.37  17 2.37 121 2.37 139 2.53
  55  0.083  0.833  0.000- 125 2.37   2 2.37   1 2.37  96 2.49
  56  0.083  0.583  0.080-   3 2.37  26 2.37  84 2.37   2 2.37
  57  0.105  0.575  0.909- 102 2.37  62 2.37  95 2.43  84 2.61
  58  0.105  0.325  0.493-  97 2.37  47 2.37  74 2.43  79 2.61
  59  0.083  0.833  0.322-  29 2.37  22 2.37   6 2.37   5 2.37
  60  0.083  0.583  0.402- 140 2.37  23 2.37   6 2.37  91 2.49
[...]
 130  0.105  0.075  0.743- 100 2.37  76 2.37  77 2.43  93 2.43
 131  0.105  0.325  0.826- 101 2.37  77 2.37  94 2.43  62 2.43
 132  0.083  0.333  0.161-  20 2.37  27 2.37   4 2.37   3 2.37
 133  0.438  0.991  0.493-  24 2.37 103 2.37  80 2.43  66 2.43  12 2.71
 134  0.438  0.241  0.576-  80 2.37 104 2.37  97 2.43  81 2.43
 135  0.438  0.491  0.660-  81 2.37 105 2.37  98 2.43  82 2.43
 136  0.438  0.741  0.743-  82 2.37 106 2.37  83 2.43  99 2.43
 137  0.438  0.991  0.826-  83 2.37 107 2.37 100 2.43  19 2.43
 138  0.438  0.241  0.909-  19 2.37 108 2.37 101 2.43  61 2.43   7 2.71
 139  0.771  0.658  0.493-  91 2.37  85 2.37  86 2.43  54 2.53
 140  0.333  0.583  0.402-  48 2.37  60 2.37  73 2.37 115 2.71
 141  0.771  0.158  0.660-  93 2.37  87 2.37  88 2.43 104 2.43
 142  0.771  0.408  0.743-  94 2.37  88 2.37  89 2.43 105 2.43
 143  0.771  0.658  0.826-  95 2.37  89 2.37 106 2.43  90 2.43
 144  0.771  0.908  0.909-  96 2.37  90 2.37 107 2.43  49 2.53

  LATTYP: Found a simple orthorhombic cell.
 ALAT       =     9.4916384250
 B/A-ratio  =     1.4142135624
 C/A-ratio  =     2.5383314005

  Lattice vectors:

 A1 = (   9.4916384250,   0.0000000000,   0.0000000000)
 A2 = (   0.0000000000,  13.4232037900,   0.0000000000)
 A3 = (   0.0000000000,   0.0000000000,  24.0929238560)

Analysis of symmetry for initial positions (statically):
 Subroutine PRICEL returns:
 Original cell was already a primitive cell.

 Routine SETGRP: Setting up the symmetry group for a
 simple orthorhombic supercell.

 Subroutine GETGRP returns: Found  1 space group operations
 (whereof  1 operations were pure point group operations)
 out of a pool of  8 trial point group operations.

The static configuration has the point symmetry C_1 .

Analysis of symmetry for dynamics (positions and initial velocities):
 Subroutine PRICEL returns:
 Original cell was already a primitive cell.

[...]

The dynamic configuration has the point symmetry C_1 .

Analysis of structural, dynamic, and magnetic symmetry:
 Subroutine PRICEL returns:
 Original cell was already a primitive cell.

 Routine SETGRP: Setting up the symmetry group for a
 simple orthorhombic supercell.

 Subroutine GETGRP returns: Found  1 space group operations
 (whereof  1 operations were pure point group operations)
 out of a pool of  8 trial point group operations.

The overall configuration has the point symmetry C_1 .

 Subroutine INISYM returns: Found  1 space group operations
 (whereof  1 operations are pure point group operations),
 and found     1 'primitive' translations

                                     Primitive cell

  volume of cell :    3069.6360

  direct lattice vectors                    reciprocal lattice vectors
     9.491638425  0.000000000  0.000000000     0.105355889  0.000000000  0.000000000
     0.000000000 13.423203790  0.000000000     0.000000000  0.074497863  0.000000000
     0.000000000  0.000000000 24.092923856     0.000000000  0.000000000  0.041505963

  length of vectors
     9.491638425 13.423203790 24.092923856     0.105355889  0.074497863  0.041505963

  position of ions in fractional coordinates (direct lattice)
     0.000000000  0.000000000  0.000000000
     0.000000000  0.750000000  0.080416665
     0.000000000  0.500000000  0.160833329
     0.000000000  0.250000000  0.241249994
     0.000000000  0.000000000  0.321666659
     0.000000000  0.750000000  0.402083324
     0.333333333  0.333333333  0.000000000
     0.333333333  0.083333333  0.080416665
     0.333333333  0.833333333  0.160833329
     0.333333333  0.583333333  0.241249994
     0.333333333  0.333333333  0.321666659
     0.333333333  0.083333333  0.402083324
     0.104609929  0.074561404  0.908686882
     0.666666667  0.416666667  0.080416665
     0.666666667  0.166666667  0.160833329
     0.666666667  0.916666667  0.241249994
[...]
     0.000000000  0.000000000 24.092923856     0.000000000  0.000000000  0.041505963

  length of vectors
     9.491638425 13.423203790 24.092923856     0.105355889  0.074497863  0.041505963

 FORCES acting on ions
    electron-ion (+dipol)            ewald-force                    non-local-force                 convergence-correction
   -.411E+01 -.205E+02 0.712E+01   0.327E+01 0.196E+02 -.424E+01   0.123E+01 0.253E+01 -.159E+01   0.352E-04 -.160E-04 0.162E-03
   -.155E-01 0.889E+00 0.183E+02   -.410E+00 -.171E+01 -.173E+02   0.188E+00 0.683E+00 -.108E+01   0.306E-04 0.367E-04 -.683E-05
   -.284E+00 0.217E+00 0.437E+01   0.394E-01 0.174E+00 -.444E+01   0.379E-01 0.143E+00 0.682E-01   0.342E-04 -.311E-04 -.105E-03
   -.467E+00 -.465E-01 -.391E+01   0.394E-01 0.174E+00 0.444E+01   0.388E-01 0.146E+00 -.837E-01   0.457E-04 -.303E-04 -.183E-03
   -.196E+00 0.595E+00 -.180E+02   -.410E+00 -.171E+01 0.173E+02   0.188E+00 0.746E+00 0.115E+01   0.234E-04 0.428E-04 -.210E-03
   -.412E+01 -.205E+02 -.712E+01   0.327E+01 0.196E+02 0.424E+01   0.124E+01 0.253E+01 0.158E+01   -.312E-04 0.380E-04 -.220E-03
   -.542E+01 -.215E+02 0.268E+02   0.404E+01 0.209E+02 -.247E+02   0.127E+01 0.207E+00 -.277E+01   0.395E-04 -.217E-04 0.205E-03
   0.635E+00 0.268E+01 0.138E+02   -.376E+00 -.172E+01 -.145E+02   -.434E+00 -.617E+00 0.759E+00   0.507E-04 -.206E-04 -.173E-04
   -.151E+00 -.416E+00 0.520E+01   0.370E-01 0.178E+00 -.476E+01   -.886E-01 -.141E+00 -.747E-01   0.139E-04 0.625E-04 -.175E-03
   -.925E-01 -.388E+00 -.517E+01   0.370E-01 0.178E+00 0.476E+01   -.138E+00 -.181E+00 0.438E-01   -.223E-04 -.188E-04 -.258E-03
   0.792E+00 0.218E+01 -.138E+02   -.376E+00 -.172E+01 0.145E+02   -.414E+00 -.667E+00 -.752E+00   -.301E-04 -.119E-03 -.318E-03
   -.542E+01 -.215E+02 -.267E+02   0.404E+01 0.209E+02 0.247E+02   0.127E+01 0.196E+00 0.276E+01   -.176E-04 -.165E-04 -.308E-03
   0.463E+01 -.239E+02 -.172E+01   -.295E+01 0.233E+02 0.105E+01   -.142E+01 0.519E+00 0.182E+01   0.719E-04 0.329E-05 0.322E-03
   0.144E+01 -.322E+00 0.160E+02   -.174E+01 0.771E-01 -.158E+02   0.272E+00 0.127E+00 -.263E+00   -.665E-04 -.245E-04 -.384E-05
   -.403E+00 -.122E+00 0.467E+01   0.165E+00 -.586E-02 -.460E+01   0.181E+00 0.747E-01 -.767E-01   -.333E-04 -.839E-05 -.125E-03
   -.383E+00 -.118E+00 -.468E+01   0.165E+00 -.586E-02 0.460E+01   0.158E+00 0.695E-01 0.703E-01   -.837E-05 0.281E-04 -.172E-03
   0.195E+01 -.289E+00 -.160E+02   -.174E+01 0.771E-01 0.158E+02   0.308E+00 0.103E+00 0.262E+00   0.542E-04 0.390E-04 -.225E-03
   0.463E+01 -.239E+02 0.172E+01   -.295E+01 0.233E+02 -.105E+01   -.141E+01 0.532E+00 -.182E+01   -.300E-04 0.287E-04 -.210E-03
   -.554E+01 0.249E+02 -.536E+00   0.413E+01 -.247E+02 0.449E+00   0.728E+00 -.226E+00 0.145E+01   0.647E-04 -.229E-04 0.349E-03
   -.198E+00 0.602E+00 0.180E+02   -.410E+00 -.171E+01 -.173E+02   0.190E+00 0.736E+00 -.115E+01   0.626E-04 0.242E-04 0.187E-04
   -.315E+00 -.554E+00 0.392E+01   0.394E-01 0.174E+00 -.444E+01   0.664E-01 0.135E+00 0.806E-01   0.485E-04 0.741E-05 -.766E-04
   -.120E+00 -.297E+00 -.438E+01   0.394E-01 0.174E+00 0.444E+01   0.529E-01 0.134E+00 -.744E-01   0.844E-05 0.240E-04 -.192E-03
   -.601E-02 0.917E+00 -.183E+02   -.410E+00 -.171E+01 0.173E+02   0.175E+00 0.656E+00 0.106E+01   -.229E-04 -.101E-04 -.245E-03
   -.555E+01 0.250E+02 0.569E+00   0.413E+01 -.247E+02 -.449E+00   0.729E+00 -.229E+00 -.147E+01   0.657E-05 0.346E-04 -.206E-03
   0.630E+00 -.292E+01 -.279E+01   0.134E+00 0.208E+01 0.237E+01   -.910E+00 0.993E+00 0.468E+00   -.312E-04 -.365E-04 0.298E-03
   0.800E+00 0.219E+01 0.138E+02   -.376E+00 -.172E+01 -.145E+02   -.420E+00 -.678E+00 0.754E+00   0.150E-04 -.505E-04 0.765E-05
   0.643E+00 -.206E+00 0.479E+01   0.370E-01 0.178E+00 -.476E+01   -.147E+00 -.897E-01 -.130E+00   -.183E-04 -.576E-05 -.167E-03
   0.583E+00 -.183E+00 -.477E+01   0.370E-01 0.178E+00 0.476E+01   -.846E-01 -.113E+00 0.982E-01   -.258E-04 0.176E-04 -.166E-03
   0.664E+00 0.264E+01 -.138E+02   -.376E+00 -.172E+01 0.145E+02   -.459E+00 -.598E+00 -.725E+00   -.587E-05 0.103E-03 -.214E-03
   0.633E+00 -.292E+01 0.280E+01   0.134E+00 0.208E+01 -.237E+01   -.918E+00 0.980E+00 -.468E+00   0.145E-04 -.251E-04 -.102E-03
   0.169E+02 -.150E+01 0.388E+01   -.152E+02 0.116E+01 -.393E+01   -.161E+01 0.104E+01 0.685E+00   -.430E-04 0.176E-05 0.307E-03
   0.195E+01 -.292E+00 0.160E+02   -.174E+01 0.771E-01 -.158E+02   0.307E+00 0.104E+00 -.253E+00   -.920E-04 0.115E-04 -.130E-04
   -.383E+00 -.113E+00 0.467E+01   0.165E+00 -.586E-02 -.460E+01   0.159E+00 0.712E-01 -.717E-01   -.210E-04 0.176E-04 -.127E-03
   -.404E+00 -.104E+00 -.466E+01   0.165E+00 -.586E-02 0.460E+01   0.173E+00 0.638E-01 0.561E-01   0.517E-05 -.184E-04 -.207E-03
   0.144E+01 -.327E+00 -.160E+02   -.174E+01 0.771E-01 0.158E+02   0.268E+00 0.132E+00 0.270E+00   -.671E-05 -.364E-04 -.213E-03
   0.169E+02 -.151E+01 -.387E+01   -.152E+02 0.116E+01 0.393E+01   -.161E+01 0.106E+01 -.692E+00   0.229E-04 -.410E-04 -.240E-03
   0.315E+01 0.259E+02 0.188E+02   -.193E+01 -.251E+02 -.183E+02   -.536E+00 -.888E+00 -.147E+01   0.117E-03 -.173E-04 0.207E-03
   -.450E+00 -.271E+01 0.141E+02   0.455E-01 0.215E+01 -.150E+02   0.456E+00 0.691E+00 0.834E+00   0.680E-04 0.157E-05 0.194E-04
   0.636E-01 0.314E+00 0.476E+01   -.855E-02 -.219E+00 -.469E+01   0.802E-02 0.381E-01 -.198E+00   0.474E-04 0.312E-04 -.122E-03
   0.651E-01 0.255E+00 -.479E+01   -.855E-02 -.219E+00 0.469E+01   0.118E-01 0.981E-01 0.206E+00   -.498E-05 -.176E-04 -.207E-03
   -.231E+00 -.240E+01 -.147E+02   0.455E-01 0.215E+01 0.150E+02   0.455E+00 0.659E+00 -.743E+00   -.283E-04 -.731E-04 -.256E-03
   0.315E+01 0.259E+02 -.188E+02   -.193E+01 -.251E+02 0.183E+02   -.542E+00 -.883E+00 0.147E+01   0.363E-04 -.105E-04 -.297E-03
   0.915E+01 0.156E+02 0.349E+01   -.875E+01 -.149E+02 -.695E+00   -.101E+01 -.249E+01 -.928E+00   0.568E-05 0.647E-04 0.123E-03
   -.701E+00 -.502E+00 0.183E+02   0.789E+00 0.113E+01 -.174E+02   0.150E+00 -.588E+00 -.887E+00   -.680E-04 -.717E-04 -.425E-04
   -.286E-01 0.264E+00 0.439E+01   -.799E-01 -.118E+00 -.442E+01   0.140E+00 -.141E+00 0.219E-01   -.398E-04 -.115E-04 -.140E-03
   -.192E-01 0.236E+00 -.439E+01   -.799E-01 -.118E+00 0.442E+01   0.128E+00 -.112E+00 -.494E-01   -.189E-04 0.414E-04 -.220E-03
   -.804E+01 0.179E+02 -.181E+02   0.715E+01 -.169E+02 0.197E+02   0.105E+01 -.229E+01 -.433E+00   -.222E-04 -.433E-04 -.261E-03
   0.927E+01 0.157E+02 -.354E+01   -.875E+01 -.149E+02 0.695E+00   -.109E+01 -.255E+01 0.100E+01   0.437E-04 -.997E-04 -.379E-03
   0.166E+02 0.143E+01 0.201E+02   -.153E+02 -.114E+01 -.191E+02   -.955E+00 -.897E+00 -.138E+01   -.665E-04 0.963E-05 0.152E-03
   -.116E+01 0.403E+00 0.157E+02   0.160E+01 0.819E-01 -.151E+02   -.155E+00 -.159E+00 -.228E+00   -.262E-04 0.139E-04 -.708E-05
   0.381E+00 0.136E+00 0.477E+01   -.155E+00 -.914E-02 -.469E+01   -.158E+00 -.672E-01 -.966E-01   -.658E-05 -.145E-04 -.115E-03
   0.417E+00 0.146E+00 -.476E+01   -.155E+00 -.914E-02 0.469E+01   -.187E+00 -.766E-01 0.893E-01   0.102E-04 -.263E-04 -.181E-03
   -.112E+01 0.379E+00 -.157E+02   0.160E+01 0.819E-01 0.151E+02   -.199E+00 -.135E+00 0.220E+00   0.280E-05 -.299E-05 -.196E-03
   0.166E+02 0.143E+01 -.201E+02   -.153E+02 -.114E+01 0.191E+02   -.956E+00 -.894E+00 0.138E+01   0.303E-04 0.582E-04 -.217E-03
   0.261E+01 0.265E+02 0.193E+02   -.193E+01 -.251E+02 -.183E+02   -.678E+00 -.982E+00 -.149E+01   0.781E-04 0.126E-04 0.191E-03
   -.213E+00 -.239E+01 0.147E+02   0.455E-01 0.215E+01 -.150E+02   0.448E+00 0.660E+00 0.776E+00   0.277E-04 -.233E-04 0.664E-05
   0.410E+01 -.245E+02 -.219E+01   -.295E+01 0.233E+02 0.105E+01   -.156E+01 0.619E+00 0.187E+01   0.382E-04 0.120E-04 0.313E-03
   0.410E+01 -.246E+02 0.219E+01   -.295E+01 0.233E+02 -.105E+01   -.156E+01 0.641E+00 -.188E+01   -.115E-03 -.458E-04 -.233E-03
   -.439E+00 -.271E+01 -.141E+02   0.455E-01 0.215E+01 0.150E+02   0.453E+00 0.690E+00 -.857E+00   -.209E-04 0.524E-04 -.211E-03
   0.263E+01 0.265E+02 -.193E+02   -.193E+01 -.251E+02 0.183E+02   -.695E+00 -.968E+00 0.148E+01   -.991E-04 0.460E-04 -.255E-03
[...]
   0.897E+00 0.340E+00 -.647E+00   -.124E+01 0.237E+00 0.163E+01   -.128E+00 -.941E-01 -.555E+00   0.137E-04 -.113E-04 0.290E-03
   0.414E-01 0.285E+00 0.471E+01   -.855E-02 -.219E+00 -.469E+01   0.256E-01 0.623E-01 -.147E+00   0.528E-04 -.179E-04 -.119E-03
   0.589E+01 -.197E+02 -.172E+02   -.595E+01 0.196E+02 0.186E+02   -.898E+00 0.200E+01 0.183E+00   0.205E-04 -.276E-04 -.281E-03
   0.107E+01 -.126E+01 0.468E+01   -.911E+00 0.713E+00 -.409E+01   -.216E+00 0.786E+00 -.451E+00   0.657E-04 -.519E-04 -.335E-04
   0.150E+01 -.222E+01 0.118E+00   -.145E+01 0.212E+01 -.163E+00   -.261E+00 0.514E+00 0.442E-01   0.442E-04 0.399E-04 0.122E-03
   0.151E+01 -.225E+01 -.117E+00   -.145E+01 0.212E+01 0.163E+00   -.277E+00 0.503E+00 -.686E-01   0.392E-04 0.110E-04 0.213E-03
   0.979E+00 -.107E+01 -.434E+01   -.911E+00 0.713E+00 0.409E+01   -.246E+00 0.881E+00 0.554E+00   0.875E-05 0.442E-05 0.343E-03
   0.589E+01 -.197E+02 0.171E+02   -.595E+01 0.196E+02 -.186E+02   -.905E+00 0.200E+01 -.161E+00   -.111E-04 -.585E-04 0.421E-03
   0.154E+02 -.997E+00 -.425E+01   -.152E+02 0.116E+01 0.393E+01   -.904E+00 0.678E+00 -.401E+00   0.255E-04 0.421E-04 -.187E-03
   -.477E+01 -.212E+02 -.247E+02   0.404E+01 0.209E+02 0.247E+02   0.539E+00 0.860E-01 0.136E+01   -.764E-04 0.115E-03 -.283E-03
   0.179E+01 -.216E+01 0.396E+00   -.155E+01 0.198E+01 -.349E+00   -.454E+00 0.468E+00 -.110E-01   0.227E-04 -.173E-04 0.837E-04
   0.178E+01 -.215E+01 -.410E+00   -.155E+01 0.198E+01 0.349E+00   -.442E+00 0.477E+00 0.477E-01   0.296E-05 0.152E-04 0.190E-03
   0.197E+00 -.237E+01 -.258E+01   0.134E+00 0.208E+01 0.237E+01   -.515E+00 0.530E+00 0.248E+00   -.262E-04 0.115E-04 0.279E-03
   0.154E+02 -.998E+00 0.425E+01   -.152E+02 0.116E+01 -.393E+01   -.917E+00 0.697E+00 0.396E+00   -.571E-04 0.869E-05 0.297E-03
   0.731E+01 0.933E+00 0.148E+00   -.110E-12 0.639E-13 -.598E-12   -.724E+01 -.111E+01 -.659E-01   0.111E-03 0.275E-04 -.285E-03

 POSITION                                       TOTAL-FORCE (eV/Angst)
      0.00000      0.00000      0.00000         0.395251      1.592227      1.290068
      0.00000     10.06740      1.93747        -0.238313     -0.139885     -0.030439
      0.00000      6.71160      3.87495        -0.207458      0.535545     -0.001391
      0.00000      3.35580      5.81242        -0.389262      0.274954      0.444743
      0.00000      0.00000      7.74989        -0.418309     -0.371370      0.460811
      0.00000     10.06740      9.68736         0.392690      1.590741     -1.287880
      3.16388      4.47440      0.00000        -0.112713     -0.459782     -0.661646
      3.16388      1.11860      1.93747        -0.175743      0.339938     -0.020866
      3.16388     11.18600      3.87495        -0.203324     -0.377434      0.367344
      3.16388      7.83020      5.81242        -0.193775     -0.388952     -0.370446
      3.16388      4.47440      7.74989         0.001590     -0.207857      0.022751
      3.16388      1.11860      9.68736        -0.119211     -0.457355      0.670059
      0.99292      1.00085     21.89292         0.269453     -0.009661      1.147982
      6.32776      5.59300      1.93747        -0.029828     -0.116076     -0.071928
      6.32776      2.23720      3.87495        -0.057192     -0.052318     -0.006259
      6.32776     12.30460      5.81242        -0.060076     -0.053139     -0.007029
      6.32776      8.94880      7.74989         0.518875     -0.107716      0.077166
      0.99292     11.06826     11.88736         0.269100      0.002080     -1.146339
      3.36583      1.00085     21.89292        -0.680644     -0.030958      1.358371
      0.00000      3.35580      1.93747        -0.418274     -0.374149     -0.461396
      0.00000      0.00000      3.87495        -0.209857     -0.244060     -0.441726
      0.00000     10.06740      5.81242        -0.028193      0.012437     -0.015589
      0.00000      6.71160      7.74989        -0.240942     -0.139434      0.030098
      3.36583     11.06826     11.88736        -0.683713     -0.016590     -1.355260
      7.32068      2.11945     19.89181        -0.146906      0.156154      0.044857
      3.16388      7.83020      1.93747         0.002646     -0.202808     -0.025332
      3.16388      4.47440      3.87495         0.532643     -0.115849     -0.097232
      3.16388      1.11860      5.81242         0.535103     -0.116172      0.080136
      3.16388     11.18600      7.74989        -0.171305      0.327489      0.044218
      7.32068     12.18686     13.88848        -0.151007      0.148293     -0.042851
      7.32068      5.47525     21.89292         0.060878      0.705740      0.633250
      6.32776     12.30460      1.93747         0.519547     -0.109425     -0.070868
      6.32776      8.94880      3.87495        -0.058843     -0.046728     -0.002505
      6.32776      5.59300      5.81242        -0.065239     -0.044984     -0.004842
      6.32776      2.23720      7.74989        -0.027884     -0.116666      0.077986
      7.32068      2.11945     11.88736         0.059399      0.714169     -0.632073
      0.79097      4.47440      0.00000         0.679350     -0.127630     -0.995942
      0.79097      1.11860      1.93747         0.051732      0.133737     -0.092320
      0.79097     11.18600      3.87495         0.062670      0.133842     -0.131026
      0.79097      7.83020      5.81242         0.067809      0.135013      0.109531
      0.79097      4.47440      7.74989         0.269463      0.410451     -0.423781
      0.79097      1.11860      9.68736         0.677610     -0.124956      0.998846
      3.95485      8.94880      0.00000        -0.605955     -1.839309      1.862707
      3.95485      5.59300      1.93747         0.237476      0.036896     -0.016319
      3.95485      2.23720      3.87495         0.030863      0.006109     -0.005376
      3.95485     12.30460      5.81242         0.028152      0.007238     -0.019009
      0.20195      2.11945     11.88736         0.152862     -1.279944      1.117850
      3.95485      5.59300      9.68736        -0.580414     -1.839200     -1.844288
      7.11873      0.00000      0.00000         0.369038     -0.609576     -0.376054
      7.11873     10.06740      1.93747         0.287663      0.327225      0.389139
      7.11873      6.71160      3.87495         0.067431      0.060475     -0.019208
      7.11873      3.35580      5.81242         0.073672      0.061904      0.015814
      7.11873      0.00000      7.74989         0.283451      0.327522     -0.375389
      7.11873     10.06740      9.68736         0.368063     -0.608517      0.377334
      0.79097     11.18600      0.00000         0.002834      0.366716     -0.472679
      0.79097      7.83020      1.93747         0.279453      0.421254      0.425570
      0.99292      7.71245     21.89292        -0.404663     -0.566739      0.736008
      0.99292      4.35665     11.88736        -0.404540     -0.559175     -0.738321
      0.79097     11.18600      7.74989         0.058522      0.138156      0.099419
      0.79097      7.83020      9.68736         0.004251      0.361652      0.473880
[...]
      0.99292      1.00085     17.89070        -0.244710      0.226523      0.090351
      0.99292      4.35665     19.89181        -0.468685      0.483528      0.431134
      0.79097      4.47440      3.87495         0.058051      0.129448     -0.126689
      4.15680     13.30546     11.88736        -0.955068      1.894768      1.653461
      4.15680      3.23805     13.88848        -0.054161      0.242949      0.135638
      4.15680      6.59385     15.88959        -0.213046      0.409883     -0.000931
      4.15680      9.94966     17.89070        -0.225460      0.371919     -0.023471
      4.15680     13.30546     19.89181        -0.178348      0.529326      0.301125
      4.15680      3.23805     21.89292        -0.966290      1.906391     -1.644543
      7.32068      8.83106     11.88736        -0.751725      0.839368     -0.720662
      3.16388      7.83020      9.68736        -0.190812     -0.258238      1.349204
      7.32068      2.11945     15.88959        -0.209298      0.293979      0.035179
      7.32068      5.47525     17.89070        -0.211034      0.315629     -0.013887
      7.32068      8.83106     19.89181        -0.184442      0.244627      0.041314
      7.32068     12.18686     21.89292        -0.763754      0.856665      0.711413
    total drift:                                0.069744     -0.180169      0.082149

  FREE ENERGIE OF THE ION-ELECTRON SYSTEM (eV)
  free  energy   TOTEN  =      -688.54912140 eV

  energy  without entropy=     -688.54726085  energy(sigma->0) =     -688.54819113