 vasp.6.4.3 19Mar24 (build Nov 20 2024 16:33:01) complex
 executed on             LinuxGNU date 2025.06.03  11:58:46

 INCAR:
   SYSTEM = Si and Ge interface calculation
   ISTART = 0
   ICHARG = 2
   LWAVE = .FALSE.
   LREAL = AUTO
   ENCUT = 700
   ENAUG = 900
   ADDGRID = .TRUE.
   LMAXMIX = 6
   LASPH = .TRUE.
   LMIXTAU = .TRUE.
   NCORE = 16
   NELM = 100
   NBANDS = 20
   EDIFF = 1d-7
   AMIX = 0.6
   ISMEAR = 0
   SIGMA = 0.01
   NELECT = 32
   ISPIN = 2
   NUPDOWN = 1
   LVTOT = .FALSE.
   LVHAR = .TRUE.

 POTCAR:    PAW_PBE Ge 05Jan2001
|           W    W    AA    RRRRR   N    N  II  N    N   GGGG   !!!           |
|           W    W   A  A   R    R  NN   N  II  NN   N  G    G  !!!           |
|           W    W  A    A  R    R  N N  N  II  N N  N  G       !!!           |
|           W WW W  AAAAAA  RRRRR   N  N N  II  N  N N  G  GGG   !            |
|           WW  WW  A    A  R   R   N   NN  II  N   NN  G    G                |
|           W    W  A    A  R    R  N    N  II  N    N   GGGG   !!!           |
|     You use a magnetic or noncollinear calculation, but did not specify     |
|     the initial magnetic moment with the MAGMOM tag. Note that a            |
|     default of 0.125 will be used for all atoms. This ferromagnetic         |
|     setup may break the symmetry of the crystal, in particular it may       |
|     rule out finding an antiferromagnetic solution. Thence, we              |
|     recommend setting the initial magnetic moment manually or verifying     |
|     carefully that this magnetic setup is desired.                          |

 POTCAR:    PAW_PBE Ge 05Jan2001
   VRHFIN =Ge: s2p2

   TITEL  = PAW_PBE Ge 05Jan2001
   POMASS =   72.610; ZVAL   =    4.000    mass and valenz
   ENMAX  =  173.807; ENMIN  =  130.355 eV

 Optimization of the real space projectors (new method)

 maximal supplied QI-value         = 16.25
 optimisation between [QCUT,QGAM] = [ 13.49, 26.98] = [ 50.95,203.80] Ry
 Optimized for a Real-space Cutoff    1.25 Angstroem

   l    n(q)    QCUT    max X(q) W(low)/X(q) W(high)/X(q)  e(spline)
   0     10    13.489    65.336    0.91E-04    0.11E-03    0.34E-06
   0     10    13.489    52.220    0.89E-04    0.11E-03    0.34E-06
   1     10    13.489    36.409    0.22E-03    0.27E-03    0.14E-06
   1     10    13.489    21.334    0.21E-03    0.27E-03    0.14E-06
   2      9    13.489     4.673    0.11E-03    0.12E-03    0.19E-06
  PAW_PBE Ge 05Jan2001                  :

 POSCAR: Ge
  positions in direct lattice

 exchange-correlation table for PE
   RHO(1)=    0.500       N(1)  =     2000
   RHO(2)=  100.500       N(2)  =     4000

 ion  position               nearest neighbor table
   1  0.000  0.000  0.000-   2 2.45   4 2.45   6 2.45   8 2.45
   2  0.250  0.250  0.250-   1 2.45   3 2.45   5 2.45   7 2.45
   3  0.000  0.500  0.500-   2 2.45   4 2.45   6 2.45   8 2.45
   4  0.250  0.750  0.750-   1 2.45   3 2.45   5 2.45   7 2.45
   5  0.500  0.000  0.500-   2 2.45   4 2.45   6 2.45   8 2.45
   6  0.750  0.250  0.750-   1 2.45   3 2.45   5 2.45   7 2.45
   7  0.500  0.500  0.000-   2 2.45   4 2.45   6 2.45   8 2.45
   8  0.750  0.750  0.250-   1 2.45   3 2.45   5 2.45   7 2.45

  LATTYP: Found a simple cubic cell.
 ALAT       =     5.6600000000

  Lattice vectors:

 A1 = (   5.6600000000,   0.0000000000,   0.0000000000)
 A2 = (   0.0000000000,   5.6600000000,   0.0000000000)
 A3 = (   0.0000000000,   0.0000000000,   5.6600000000)

Analysis of symmetry for initial positions (statically):
 Subroutine PRICEL returns following result:

  LATTYP: Found a face centered cubic cell.
 ALAT       =     5.6600000000

[...]

   4 primitive cells build up your supercell.

 Routine SETGRP: Setting up the symmetry group for a
 simple cubic supercell.

 Subroutine GETGRP returns: Found 48 space group operations
 (whereof 24 operations were pure point group operations)
 out of a pool of 48 trial point group operations.

The static configuration has the point symmetry T_d .
 The point group associated with its full space group is O_h .

Analysis of symmetry for dynamics (positions and initial velocities):
 Subroutine PRICEL returns following result:

[...]

The dynamic configuration has the point symmetry T_d .
 The point group associated with its full space group is O_h .

Analysis of structural, dynamic, and magnetic symmetry:
 Subroutine PRICEL returns following result:

  LATTYP: Found a face centered cubic cell.
 ALAT       =     5.6600000000

  Lattice vectors:

 A1 = (   2.8300000000,  -2.8300000000,   0.0000000000)
 A2 = (   2.8300000000,   0.0000000000,   2.8300000000)
 A3 = (   0.0000000000,  -2.8300000000,   2.8300000000)

   4 primitive cells build up your supercell.

 Routine SETGRP: Setting up the symmetry group for a
 simple cubic supercell.

 Subroutine GETGRP returns: Found 48 space group operations
 (whereof 24 operations were pure point group operations)
 out of a pool of 48 trial point group operations.

The overall configuration has the point symmetry T_d .
 The point group associated with its full space group is O_h .

 Subroutine INISYM returns: Found 48 space group operations
 (whereof 24 operations are pure point group operations),
 and found     4 'primitive' translations

                                     Primitive cell

  volume of cell :      45.3304

  direct lattice vectors                    reciprocal lattice vectors
     2.830000000 -2.830000000  0.000000000     0.176678445 -0.176678445 -0.176678445
     2.830000000  0.000000000  2.830000000     0.176678445  0.176678445  0.176678445
     0.000000000 -2.830000000  2.830000000    -0.176678445 -0.176678445  0.176678445

  length of vectors
     4.002224382  4.002224382  4.002224382     0.306016044  0.306016044  0.306016044

  position of ions in fractional coordinates (direct lattice)
     0.000000000  0.000000000  0.000000000
     0.750000000  0.750000000  0.750000000

  ion indices of the primitive-cell ions
   primitive index   ion index
                 1           1
                 2           2

 KPOINTS: Automatic KPOINTS generated

Automatic generation of k-mesh.
 Grid dimensions read from file:
 generate k-points for:    6    6    6

 Generating k-lattice:

  Cartesian coordinates                     Fractional coordinates (reciprocal lattice)
     0.029446408  0.000000000  0.000000000     0.166666667  0.000000000  0.000000000
     0.000000000  0.029446408  0.000000000     0.000000000  0.166666667  0.000000000
     0.000000000  0.000000000  0.029446408     0.000000000  0.000000000  0.166666667

  Length of vectors
     0.029446408  0.029446408  0.029446408

  Shift w.r.t. Gamma in fractional coordinates (k-lattice)
     0.000000000  0.000000000  0.000000000

 Subroutine IBZKPT returns following result:

 Found     20 irreducible k-points:

 Following reciprocal coordinates:
            Coordinates               Weight
  0.000000  0.000000  0.000000      1.000000
  0.166667  0.000000  0.000000      6.000000
  0.333333  0.000000  0.000000      6.000000
  0.500000  0.000000  0.000000      3.000000
  0.166667  0.166667  0.000000     12.000000
  0.333333  0.166667  0.000000     24.000000
  0.500000  0.166667  0.000000     12.000000
  0.333333  0.333333  0.000000     12.000000
  0.500000  0.333333  0.000000     12.000000
  0.500000  0.500000  0.000000      3.000000
  0.166667  0.166667  0.166667      8.000000
  0.333333  0.166667  0.166667     24.000000
  0.500000  0.166667  0.166667     12.000000
  0.333333  0.333333  0.166667     24.000000
  0.500000  0.333333  0.166667     24.000000
  0.500000  0.500000  0.166667      6.000000
  0.333333  0.333333  0.333333      8.000000
  0.500000  0.333333  0.333333     12.000000
  0.500000  0.500000  0.333333      6.000000
  0.500000  0.500000  0.500000      1.000000

 Following cartesian coordinates:
            Coordinates               Weight
  0.000000  0.000000  0.000000      1.000000
  0.029446  0.000000  0.000000      6.000000
  0.058893  0.000000  0.000000      6.000000
  0.088339  0.000000  0.000000      3.000000
  0.029446  0.029446  0.000000     12.000000
  0.058893  0.029446  0.000000     24.000000
  0.088339  0.029446  0.000000     12.000000
  0.058893  0.058893  0.000000     12.000000
  0.088339  0.058893  0.000000     12.000000
  0.088339  0.088339  0.000000      3.000000
  0.029446  0.029446  0.029446      8.000000
  0.058893  0.029446  0.029446     24.000000
  0.088339  0.029446  0.029446     12.000000
  0.058893  0.058893  0.029446     24.000000
  0.088339  0.058893  0.029446     24.000000
  0.088339  0.088339  0.029446      6.000000
  0.058893  0.058893  0.058893      8.000000
  0.088339  0.058893  0.058893     12.000000
  0.088339  0.088339  0.058893      6.000000
  0.088339  0.088339  0.088339      1.000000

 SYSTEM =  Si and Ge interface calculation
 POSCAR =  Ge

 Startparameter for this run:
   NWRITE =      2    write-flag & timer
   PREC   = normal    normal or accurate (medium, high low for compatibility)
   ISTART =      0    job   : 0-new  1-cont  2-samecut
   ICHARG =      2    charge: 1-file 2-atom 10-const
   ISPIN  =      2    spin polarized calculation?
   LNONCOLLINEAR =      F non collinear calculations
   LSORBIT =      F    spin-orbit coupling
   INIWAV =      1    electr: 0-lowe 1-rand  2-diag
   LASPH  =      T    aspherical Exc in radial PAW
 Electronic Relaxation 1
   ENCUT  =  700.0 eV  51.45 Ry    7.17 a.u.  12.21 12.21 12.21*2*pi/ulx,y,z
   ENINI  =  700.0     initial cutoff
   ENAUG  =  900.0 eV  augmentation charge cutoff
   NELM   =    100;   NELMIN=  2; NELMDL= -5     # of ELM steps
   EDIFF  = 0.1E-06   stopping-criterion for ELM
   LREAL  =      T    real-space projection
   NLSPLINE    = F    spline interpolate recip. space projectors
   LCOMPAT=      F    compatible to vasp.4.4
   GGA_COMPAT  = T    GGA compatible to vasp.4.4-vasp.4.6
   LMAXPAW     = -100 max onsite density
   LMAXMIX     =    6 max onsite mixed and CHGCAR
   VOSKOWN=      0    Vosko Wilk Nusair interpolation
   ROPT   =   -0.00050
 Ionic relaxation
   EDIFFG = 0.1E-05   stopping-criterion for IOM
   NSW    =      0    number of steps for IOM
   NBLOCK =      1;   KBLOCK =      1    inner block; outer block
   IBRION =     -1    ionic relax: 0-MD 1-quasi-New 2-CG
   NFREE  =      0    steps in history (QN), initial steepest desc. (CG)
   ISIF   =      2    stress and relaxation
   IWAVPR =     10    prediction:  0-non 1-charg 2-wave 3-comb
   ISYM   =      2    0-nonsym 1-usesym 2-fastsym
   LCORR  =      T    Harris-Foulkes like correction to forces

   POTIM  = 0.5000    time-step for ionic-motion
   TEIN   =    0.0    initial temperature
   TEBEG  =    0.0;   TEEND  =   0.0 temperature during run
   SMASS  =  -3.00    Nose mass-parameter (am)
   estimated Nose-frequenzy (Omega)   =  0.10E-29 period in steps = 0.13E+47 mass=  -0.732E-27a.u.
   SCALEE = 1.0000    scale energy and forces
   NPACO  =    256;   APACO  = 10.0  distance and # of slots for P.C.
   PSTRESS=    0.0 pullay stress

  Mass of Ions in am
   POMASS =  72.61
  Ionic Valenz
   ZVAL   =   4.00
  Atomic Wigner-Seitz radii
  virtual crystal weights
   VCA    =   1.00
   NELECT =      32.0000    total number of electrons
[...]

 Random number generation:
   RANDOM_GENERATOR = DEFAULT
   PCG_SEED         = not used

 Static calculation
 charge density and potential will be updated during run
 spin polarized calculation
 Variant of blocked Davidson
 Davidson routine will perform the subspace rotation
 perform sub-space diagonalisation
    after iterative eigenvector-optimisation
 modified Broyden-mixing scheme, WC =      100.0
 initial mixing is a Kerker type mixing with AMIX =  0.6000 and BMIX =      1.0000
 Hartree-type preconditioning will be used
 using additional bands            4
 real space projection scheme for non local part
 use partial core corrections
 calculate Harris-corrections to forces   (improved forces if not selfconsistent)
 use gradient corrections
 use of overlap-Matrix (Vanderbilt PP)
 Gauss-broadening in eV      SIGMA  =   0.01

  energy-cutoff  :      700.00
  volume of cell :      181.32
      direct lattice vectors                 reciprocal lattice vectors
     5.660000000  0.000000000  0.000000000     0.176678445  0.000000000  0.000000000
     0.000000000  5.660000000  0.000000000     0.000000000  0.176678445  0.000000000
     0.000000000  0.000000000  5.660000000     0.000000000  0.000000000  0.176678445

[...]

 k-points in units of 2pi/SCALE and weight: Automatic KPOINTS generated
   0.00000000  0.00000000  0.00000000       0.005
   0.02944641  0.00000000  0.00000000       0.028
   0.05889282  0.00000000  0.00000000       0.028
   0.08833922  0.00000000  0.00000000       0.014
   0.02944641  0.02944641  0.00000000       0.056
   0.05889282  0.02944641  0.00000000       0.111
   0.08833922  0.02944641  0.00000000       0.056
   0.05889282  0.05889282  0.00000000       0.056
   0.08833922  0.05889282  0.00000000       0.056
   0.08833922  0.08833922  0.00000000       0.014
   0.02944641  0.02944641  0.02944641       0.037
   0.05889282  0.02944641  0.02944641       0.111
   0.08833922  0.02944641  0.02944641       0.056
   0.05889282  0.05889282  0.02944641       0.111
   0.08833922  0.05889282  0.02944641       0.111
   0.08833922  0.08833922  0.02944641       0.028
   0.05889282  0.05889282  0.05889282       0.037
   0.08833922  0.05889282  0.05889282       0.056
   0.08833922  0.08833922  0.05889282       0.028
   0.08833922  0.08833922  0.08833922       0.005

 k-points in reciprocal lattice and weights: Automatic KPOINTS generated
   0.00000000  0.00000000  0.00000000       0.005
   0.16666667  0.00000000  0.00000000       0.028
   0.33333333  0.00000000  0.00000000       0.028
   0.50000000  0.00000000  0.00000000       0.014
   0.16666667  0.16666667  0.00000000       0.056
   0.33333333  0.16666667  0.00000000       0.111
   0.50000000  0.16666667  0.00000000       0.056
   0.33333333  0.33333333  0.00000000       0.056
   0.50000000  0.33333333  0.00000000       0.056
   0.50000000  0.50000000  0.00000000       0.014
   0.16666667  0.16666667  0.16666667       0.037
   0.33333333  0.16666667  0.16666667       0.111
   0.50000000  0.16666667  0.16666667       0.056
   0.33333333  0.33333333  0.16666667       0.111
   0.50000000  0.33333333  0.16666667       0.111
   0.50000000  0.50000000  0.16666667       0.028
   0.33333333  0.33333333  0.33333333       0.037
   0.50000000  0.33333333  0.33333333       0.056
   0.50000000  0.50000000  0.33333333       0.028
   0.50000000  0.50000000  0.50000000       0.005

 position of ions in fractional coordinates (direct lattice)
   0.00000000  0.00000000  0.00000000
   0.25000000  0.25000000  0.25000000
   0.00000000  0.50000000  0.50000000
   0.25000000  0.75000000  0.75000000
   0.50000000  0.00000000  0.50000000
   0.75000000  0.25000000  0.75000000
   0.50000000  0.50000000  0.00000000
   0.75000000  0.75000000  0.25000000

 position of ions in cartesian coordinates  (Angst):
   0.00000000  0.00000000  0.00000000
   1.41500000  1.41500000  1.41500000
   0.00000000  2.83000000  2.83000000
   1.41500000  4.24500000  4.24500000
   2.83000000  0.00000000  2.83000000
   4.24500000  1.41500000  4.24500000
   2.83000000  2.83000000  0.00000000
   4.24500000  4.24500000  1.41500000

 k-point     1 :   0.0000 0.0000 0.0000  plane waves:    7689
 k-point     2 :   0.1667 0.0000 0.0000  plane waves:    7637
 k-point     3 :   0.3333 0.0000 0.0000  plane waves:    7624
 k-point     4 :   0.5000 0.0000 0.0000  plane waves:    7624
 k-point     5 :   0.1667 0.1667 0.0000  plane waves:    7643
 k-point     6 :   0.3333 0.1667 0.0000  plane waves:    7606
 k-point     7 :   0.5000 0.1667 0.0000  plane waves:    7616
 k-point     8 :   0.3333 0.3333 0.0000  plane waves:    7607
 k-point     9 :   0.5000 0.3333 0.0000  plane waves:    7634
 k-point    10 :   0.5000 0.5000 0.0000  plane waves:    7660
 k-point    11 :   0.1667 0.1667 0.1667  plane waves:    7607
 k-point    12 :   0.3333 0.1667 0.1667  plane waves:    7624
 k-point    13 :   0.5000 0.1667 0.1667  plane waves:    7632
 k-point    14 :   0.3333 0.3333 0.1667  plane waves:    7628
 k-point    15 :   0.5000 0.3333 0.1667  plane waves:    7642
 k-point    16 :   0.5000 0.5000 0.1667  plane waves:    7624
 k-point    17 :   0.3333 0.3333 0.3333  plane waves:    7655
 k-point    18 :   0.5000 0.3333 0.3333  plane waves:    7610
 k-point    19 :   0.5000 0.5000 0.3333  plane waves:    7616
 k-point    20 :   0.5000 0.5000 0.5000  plane waves:    7664

 maximum and minimum number of plane-waves per node :      7689     7606

 maximum number of plane-waves:      7689
 maximum index in each direction:
   IXMAX=   12   IYMAX=   12   IZMAX=   12
   IXMIN=  -12   IYMIN=  -12   IZMIN=  -12

 serial   3D FFT for wavefunctions
 parallel 3D FFT for charge:
    minimum data exchange during FFTs selected (reduces bandwidth)

 Broyden mixing: mesh for mixing (old mesh)
   NGX = 25   NGY = 25   NGZ = 25
  (NGX  = 80   NGY  = 80   NGZ  = 80)
  gives a total of  15625 points

 initial charge density was supplied:
 charge density of overlapping atoms calculated
 number of electron      32.0000000 magnetization       1.0000000
 keeping initial charge density in first step

 Maximum index for non-local projection operator          241
 Maximum index for augmentation-charges       148981 (set IRDMAX)

 First call to EWALD:  gamma=   0.313
 Maximum number of real-space cells 3x 3x 3
 Maximum number of reciprocal cells 3x 3x 3

--------------------------------------- Ionic step        1  -------------------------------------------

--------------------------------------- Iteration      1(   1)  ---------------------------------------

 eigenvalue-minimisations  :  1600
 total energy-change (2. order) : 0.1468559E+03  (-0.1420465E+04)
 number of electron      32.0000000 magnetization       1.0000000
 augmentation part       32.0000000 magnetization       1.0000000

 Free energy of the ion-electron system (eV)
  alpha Z        PSCENC =        67.46286841
  Ewald energy   TEWEN  =      -877.10246285
  -Hartree energ DENC   =       -50.62910515
  -exchange      EXHF   =         0.00000000
  -V(xc)+E(xc)   XCENC  =       -60.09764441
  PAW double counting   =       705.15133828     -589.24851483
  entropy T*S    EENTRO =        -0.00027995
  eigenvalues    EBANDS =       111.35243196
  atomic energy  EATOM  =       839.96727887
  Solvation  Ediel_sol  =         0.00000000
  free energy    TOTEN  =       146.85591032 eV

  energy without entropy =      146.85619027  energy(sigma->0) =      146.85605030

[...]

 eigenvalue-minimisations  :  2084
 total energy-change (2. order) :-0.1699784E+03  (-0.1643443E+03)
 number of electron      32.0000000 magnetization       1.0000000
 augmentation part       32.0000000 magnetization       1.0000000

[...]

 Broyden mixing:
  rms(total) = 0.58883E+00    rms(broyden)= 0.58883E+00
  rms(prec ) = 0.86927E+00
  weight for this iteration     100.00

[...]

 eigenvalues of (default mixing * dielectric matrix)
  average eigenvalue GAMMA=   1.7863
  1.7863

[...]

 eigenvalue-minimisations  :  1612
 total energy-change (2. order) :-0.4281667E-06  (-0.6555187E-07)
 number of electron      32.0000000 magnetization       1.0000000
 augmentation part       -5.1967408 magnetization      -0.1089928

 Broyden mixing:
  rms(total) = 0.84634E-04    rms(broyden)= 0.84633E-04
  rms(prec ) = 0.92438E-04
  weight for this iteration     100.00

 eigenvalues of (default mixing * dielectric matrix)
  average eigenvalue GAMMA=   1.0512
  2.1250  1.7413  1.5724  0.8887  0.5992  0.4744  0.4911  0.5179

[...]

--------------------------------------- Iteration      1(  14)  ---------------------------------------

 eigenvalue-minimisations  :  1040
 total energy-change (2. order) : 0.9504481E-07  (-0.1017542E-07)
 number of electron      32.0000000 magnetization       1.0000000
 augmentation part       -5.1967408 magnetization      -0.1089928

 Free energy of the ion-electron system (eV)
  alpha Z        PSCENC =        67.46286841
  Ewald energy   TEWEN  =      -877.10246285
  -Hartree energ DENC   =       -61.13134304
  -exchange      EXHF   =         0.00000000
  -V(xc)+E(xc)   XCENC  =       -57.89501512
  PAW double counting   =      1805.26412048    -1690.67894026
  entropy T*S    EENTRO =        -0.00040589
  eigenvalues    EBANDS =       -60.97136601
  atomic energy  EATOM  =       839.96727887
  Solvation  Ediel_sol  =         0.00000000
  free energy    TOTEN  =       -35.08526541 eV

  energy without entropy =      -35.08485951  energy(sigma->0) =      -35.08506246

 average (electrostatic) potential at core
  the test charge radii are     1.1631
  (the norm of the test charge is              1.0000)
       1 -33.0493       2 -33.0493       3 -33.0493       4 -33.0493       5 -33.0493
       6 -33.0493       7 -33.0493       8 -33.0493

 E-fermi :   2.8425     XC(G=0):  -9.1594     alpha+bet : -9.1459

 val. band max:        4.6961240435   @ k =   0.1667   0.1667   0.1667
 cond. band min:       2.9006038833   @ k =   0.3333   0.1667   0.0000
 fundamental gap:     -1.7955201602
 Fermi energy:         4.7181498740

 spin component 1

 k-point     1 :       0.0000    0.0000    0.0000
  band No.  band energies     occupation
      1      -9.1037      1.00000
      2      -5.2250      1.00000
      3      -5.2250      1.00000
      4      -5.2250      1.00000
      5      -5.2250      1.00000
      6      -5.2250      1.00000
      7      -5.2250      1.00000
      8       0.5840      1.00000
      9       0.5840      1.00000
     10       0.5840      1.00000
     11       0.5840      1.00000
     12       0.5840      1.00000
     13       0.5840      1.00000
     14       3.6610      1.00000
     15       3.6610      1.00000
     16       3.6610      1.00000
     17       3.7178      1.00000
     18       4.3988      1.00000
     19       4.3988      1.00000
     20       4.3988      1.00000

[...]

 k-point    20 :       0.5000    0.5000    0.5000
  band No.  band energies     occupation
      1      -7.0238      1.00000
      2      -7.0238      1.00000
      3      -7.0238      1.00000
      4      -7.0238      1.00000
      5      -3.9362      1.00000
      6      -3.9362      1.00000
      7      -3.9362      1.00000
      8      -3.9362      1.00000
      9       2.2543      1.00000
     10       2.2543      1.00000
     11       2.2543      1.00000
     12       2.2543      1.00000
     13       2.2543      1.00000
     14       2.2543      1.00000
     15       2.2543      1.00000
     16       2.2543      1.00000
     17       3.8481      1.00000
     18       3.8481      1.00000
     19       3.8481      1.00000
     20       3.8481      1.00000
 Fermi energy:         2.8425272627

 spin component 2

[...]

 k-point    20 :       0.5000    0.5000    0.5000
  band No.  band energies     occupation
      1      -6.9125      1.00000
      2      -6.9125      1.00000
      3      -6.9125      1.00000
      4      -6.9125      1.00000
      5      -3.8182      1.00000
      6      -3.8182      1.00000
      7      -3.8182      1.00000
      8      -3.8182      1.00000
      9       2.3711      1.00000
     10       2.3711      1.00000
     11       2.3711      1.00000
     12       2.3711      1.00000
     13       2.3711      1.00000
     14       2.3711      1.00000
     15       2.3711      1.00000
     16       2.3711      1.00000
     17       3.9645      0.00000
     18       3.9645      0.00000
     19       3.9645      0.00000
     20       3.9645      0.00000

 soft charge-density along one line, spin component           1
         0         1         2         3         4         5         6         7         8         9
 total charge-density along one line

 soft charge-density along one line, spin component           2
         0         1         2         3         4         5         6         7         8         9
 total charge-density along one line

------------------------ aborting loop because EDIFF is reached ----------------------------------------

  FORCE on cell =-STRESS in cart. coord.  units (eV):
  Direction    XX          YY          ZZ          XY          YZ          ZX
  Alpha Z    67.46287    67.46287    67.46287
  Ewald    -292.36799  -292.36799  -292.36799     0.00000    -0.00000     0.00000
  Hartree    20.37715    20.37715    20.37715    -0.00000    -0.00000    -0.00000
  E(xc)    -110.62836  -110.62836  -110.62836     0.00000     0.00000     0.00000
  Local     -90.51690   -90.51690   -90.51690    -0.00000     0.00000     0.00000
  n-local   158.62933   160.29440   158.11453    -0.14601    -0.83546    -0.32791
  augment     9.69786     9.69786     9.69786    -0.00000     0.00000     0.00000
  Kinetic   235.42546   247.50957   245.81852    -2.06620    -5.63644    -2.26754
  Fock        0.00000     0.00000     0.00000     0.00000     0.00000     0.00000
  Total       5.95524     5.95524     5.95524     0.00000     0.00000    -0.00000
  in kB      52.62114    52.62114    52.62114     0.00000     0.00000    -0.00000

 VOLUME and BASIS-vectors are now :
  energy-cutoff  :      700.00
  volume of cell :      181.32
      direct lattice vectors                 reciprocal lattice vectors
     5.660000000  0.000000000  0.000000000     0.176678445  0.000000000  0.000000000
     0.000000000  5.660000000  0.000000000     0.000000000  0.176678445  0.000000000
     0.000000000  0.000000000  5.660000000     0.000000000  0.000000000  0.176678445

  length of vectors
     5.660000000  5.660000000  5.660000000     0.176678445  0.176678445  0.176678445

 FORCES acting on ions
    electron-ion (+dipol)            ewald-force                    non-local-force                 convergence-correction
   -.230E-08 -.230E-08 -.158E-09   -.355E-14 -.355E-14 -.355E-14   -.143E-17 0.321E-17 0.338E-17   -.102E-14 -.436E-15 -.435E-14
   0.230E-08 0.230E-08 0.158E-09   0.335E-14 -.354E-14 -.173E-17   -.170E-17 -.512E-17 -.395E-18   0.437E-15 0.650E-15 -.652E-14
   -.230E-08 -.230E-08 -.158E-09   -.355E-14 0.000E+00 0.355E-14   -.368E-17 -.381E-17 -.313E-17   -.128E-14 0.137E-14 -.114E-14
   0.230E-08 0.230E-08 0.158E-09   0.381E-14 -.805E-17 0.746E-14   -.156E-17 0.168E-17 0.495E-17   0.666E-16 0.222E-14 0.175E-14
   -.230E-08 -.230E-08 -.158E-09   0.355E-14 0.000E+00 -.711E-14   -.262E-18 0.517E-17 0.493E-19   -.287E-14 -.106E-15 -.145E-14
   0.230E-08 0.230E-08 0.158E-09   -.357E-14 0.633E-16 -.320E-14   -.125E-17 -.304E-17 -.400E-17   0.106E-14 0.120E-14 0.179E-14
   -.230E-08 -.230E-08 -.158E-09   0.355E-14 0.355E-14 0.000E+00   0.159E-17 -.476E-17 -.399E-17   -.260E-14 0.981E-15 -.460E-14
   0.230E-08 0.230E-08 0.158E-09   -.351E-14 0.353E-14 0.350E-14   0.365E-17 0.167E-17 0.228E-17   0.137E-14 0.217E-14 -.653E-14
   0.406E-13 -.240E-12 -.515E-12   0.738E-16 0.382E-16 0.649E-15   -.463E-17 -.500E-17 -.854E-18   -.485E-14 0.805E-14 -.211E-13

 POSITION                                       TOTAL-FORCE (eV/Angst)
      0.00000      0.00000      0.00000        -0.000000      0.000000     -0.000000
      1.41500      1.41500      1.41500         0.000000      0.000000      0.000000
      0.00000      2.83000      2.83000        -0.000000     -0.000000     -0.000000
      1.41500      4.24500      4.24500        -0.000000      0.000000      0.000000
      2.83000      0.00000      2.83000        -0.000000     -0.000000     -0.000000
      4.24500      1.41500      4.24500         0.000000     -0.000000      0.000000
      2.83000      2.83000      0.00000         0.000000     -0.000000     -0.000000
      4.24500      4.24500      1.41500         0.000000      0.000000      0.000000
    total drift:                                0.000000     -0.000000     -0.000000

  FREE ENERGIE OF THE ION-ELECTRON SYSTEM (eV)
  free  energy   TOTEN  =       -35.08526541 eV

  energy  without entropy=      -35.08485951  energy(sigma->0) =      -35.08506246