 vasp.6.4.3 19Mar24 (build Oct 22 2024 11:23:12) complex

 executed on             LinuxIFC date 2025.06.09  17:10:35

 INCAR:
   SYSTEM = Si and Ge interface calculation
   ISTART = 0
   ICHARG = 2
   LWAVE = .FALSE.
   LREAL = AUTO
   ENCUT = 700
   ENAUG = 900
   ADDGRID = .TRUE.
   LMAXMIX = 6
   LASPH = .TRUE.
   LMIXTAU = .TRUE.
   NCORE = 16
   NELM = 100
   NBANDS = 548
   EDIFF = 1d-7
   AMIX = 0.6
   ISMEAR = 0
   SIGMA = 0.01
   NELECT = 912
   ISPIN = 2
   NUPDOWN = 1
   LVTOT = .FALSE.
   LVHAR = .TRUE.

 POTCAR:    PAW_PBE Ge 05Jan2001
 POTCAR:    PAW_PBE Si 05Jan2001
|           W    W    AA    RRRRR   N    N  II  N    N   GGGG   !!!           |
|           W    W   A  A   R    R  NN   N  II  NN   N  G    G  !!!           |
|           W    W  A    A  R    R  N N  N  II  N N  N  G       !!!           |
|           W WW W  AAAAAA  RRRRR   N  N N  II  N  N N  G  GGG   !            |
|           WW  WW  A    A  R   R   N   NN  II  N   NN  G    G                |
|           W    W  A    A  R    R  N    N  II  N    N   GGGG   !!!           |
|     You use a magnetic or noncollinear calculation, but did not specify     |
|     the initial magnetic moment with the MAGMOM tag. Note that a            |
|     default of 4.386e-3 will be used for all atoms. This ferromagnetic      |
|     setup may break the symmetry of the crystal, in particular it may       |
|     rule out finding an antiferromagnetic solution. Thence, we              |
|     recommend setting the initial magnetic moment manually or verifying     |
|     carefully that this magnetic setup is desired.                          |

 POTCAR:    PAW_PBE Ge 05Jan2001
   VRHFIN =Ge: s2p2

   TITEL  = PAW_PBE Ge 05Jan2001
   POMASS =   72.610; ZVAL   =    4.000    mass and valenz
   ENMAX  =  173.807; ENMIN  =  130.355 eV

 POTCAR:    PAW_PBE Si 05Jan2001
   VRHFIN =Si: s2p2

   TITEL  = PAW_PBE Si 05Jan2001
   POMASS =   28.085; ZVAL   =    4.000    mass and valenz
   ENMAX  =  245.345; ENMIN  =  184.009 eV

 Optimization of the real space projectors (new method)

 maximal supplied QI-value         = 16.25
 optimisation between [QCUT,QGAM] = [ 13.49, 26.98] = [ 50.95,203.80] Ry
 Optimized for a Real-space Cutoff    1.25 Angstroem

   l    n(q)    QCUT    max X(q) W(low)/X(q) W(high)/X(q)  e(spline)
   0     10    13.489    65.336    0.91E-04    0.11E-03    0.34E-06
   0     10    13.489    52.220    0.89E-04    0.11E-03    0.34E-06
   1     10    13.489    36.409    0.22E-03    0.27E-03    0.14E-06
   1     10    13.489    21.334    0.21E-03    0.27E-03    0.14E-06
   2      9    13.489     4.673    0.11E-03    0.12E-03    0.19E-06
 Optimization of the real space projectors (new method)

 maximal supplied QI-value         = 19.84
 optimisation between [QCUT,QGAM] = [ 13.49, 26.99] = [ 50.98,203.92] Ry
 Optimized for a Real-space Cutoff    1.07 Angstroem

   l    n(q)    QCUT    max X(q) W(low)/X(q) W(high)/X(q)  e(spline)
   0      9    13.493   159.560    0.22E-03    0.15E-03    0.72E-07
   0      9    13.493   115.863    0.21E-03    0.15E-03    0.71E-07
   1      8    13.493    88.339    0.15E-03    0.11E-03    0.13E-06
   1      8    13.493    48.592    0.15E-03    0.10E-03    0.13E-06
  PAW_PBE Ge 05Jan2001                  :
  PAW_PBE Si 05Jan2001                  :

 POSCAR: Ge+Si
  positions in direct lattice

 exchange-correlation table for PE
   RHO(1)=    0.500       N(1)  =     2000
   RHO(2)=  100.500       N(2)  =     4000

 ion  position               nearest neighbor table
   1  0.994  0.667  0.000- 207 2.10  31 2.45 100 2.45
   2  0.828  0.667  0.158-  32 2.45 100 2.45  49 2.45 101 2.45
   3  0.661  0.667  0.317-  50 2.45  33 2.45 101 2.45 102 2.45
   4  0.994  0.333  0.000- 103 2.45  34 2.45 147 2.99 210 3.02
   5  0.828  0.333  0.158-  35 2.45 103 2.45  52 2.45 104 2.45
   6  0.661  0.333  0.317-  53 2.45 104 2.45  36 2.45 105 2.45
   7  0.994  0.000  0.000- 106 2.45  28 2.45 204 2.48
   8  0.828  0.000  0.158- 106 2.45  29 2.45 107 2.45  46 2.45
   9  0.661  0.000  0.317- 107 2.45 108 2.45  47 2.45  30 2.45
  10  0.328  0.667  0.000-  40 2.45  82 2.45
  11  0.161  0.667  0.158-  31 2.45  41 2.45  82 2.45  83 2.45
  12  0.994  0.667  0.317-  42 2.45  32 2.45  84 2.45  83 2.45
  13  0.328  0.333  0.000- 156 2.09  43 2.45  85 2.45
  14  0.161  0.333  0.158-  34 2.45  44 2.45  85 2.45  86 2.45
  15  0.994  0.333  0.317-  45 2.45  35 2.45  87 2.45  86 2.45
  16  0.328  0.000  0.000- 159 2.42  88 2.45  37 2.45
  17  0.161  0.000  0.158-  88 2.45  89 2.45  28 2.45  38 2.45
  18  0.994  0.000  0.317-  90 2.45  89 2.45  39 2.45  29 2.45
  19  0.661  0.667  0.000- 228 2.41  91 2.45  49 2.45
  20  0.494  0.667  0.158-  40 2.45  50 2.45  92 2.45  91 2.45
  21  0.328  0.667  0.317-  41 2.45  51 2.45  93 2.45  92 2.45
  22  0.661  0.333  0.000-  94 2.45  52 2.45 165 2.49
  23  0.494  0.333  0.158-  95 2.45  43 2.45  53 2.45  94 2.45
  24  0.328  0.333  0.317-  96 2.45  44 2.45  54 2.45  95 2.45
  25  0.661  0.000  0.000-  97 2.45  46 2.45 225 2.74 168 2.77
  26  0.494  0.000  0.158-  98 2.45  97 2.45  37 2.45  47 2.45
  27  0.328  0.000  0.317-  99 2.45  98 2.45  38 2.45  48 2.45
  28  0.078  0.917  0.079-  55 2.45  56 2.45  17 2.45   7 2.45
  29  0.911  0.917  0.238-  57 2.45   8 2.45  18 2.45  56 2.45
  30  0.744  0.917  0.396- 133 2.36  57 2.45   9 2.45
  31  0.078  0.583  0.079-  11 2.45   1 2.45  58 2.45  59 2.45
  32  0.911  0.583  0.238-   2 2.45  12 2.45  60 2.45  59 2.45
  33  0.744  0.583  0.396- 136 2.33   3 2.45  60 2.45
  34  0.078  0.250  0.079-  14 2.45  61 2.45  62 2.45   4 2.45
  35  0.911  0.250  0.238-   5 2.45  63 2.45  15 2.45  62 2.45
  36  0.744  0.250  0.396-  63 2.45   6 2.45 193 2.73
  37  0.411  0.917  0.079-  65 2.45  64 2.45  16 2.45  26 2.45
  38  0.244  0.917  0.238-  66 2.45  65 2.45  17 2.45  27 2.45
  39  0.078  0.917  0.396- 112 2.41  66 2.45  18 2.45
  40  0.411  0.583  0.079-  10 2.45  20 2.45  68 2.45  67 2.45
  41  0.244  0.583  0.238-  11 2.45  21 2.45  69 2.45  68 2.45
  42  0.078  0.583  0.396- 115 2.38  12 2.45  69 2.45
  43  0.411  0.250  0.079-  13 2.45  71 2.45  23 2.45  70 2.45
  44  0.244  0.250  0.238-  14 2.45  72 2.45  24 2.45  71 2.45
  45  0.078  0.250  0.396-  15 2.45  72 2.45 175 2.64
  46  0.744  0.917  0.079-  73 2.45  74 2.45   8 2.45  25 2.45
  47  0.578  0.917  0.238-  75 2.45  74 2.45  26 2.45   9 2.45
  48  0.411  0.917  0.396-  75 2.45  27 2.45 187 2.66
  49  0.744  0.583  0.079-   2 2.45  19 2.45  76 2.45  77 2.45
  50  0.578  0.583  0.238-  20 2.45   3 2.45  78 2.45  77 2.45
  51  0.411  0.583  0.396-  21 2.45  78 2.45 181 2.71
  52  0.744  0.250  0.079-  79 2.45  80 2.45   5 2.45  22 2.45
  53  0.578  0.250  0.238-  81 2.45  23 2.45   6 2.45  80 2.45
  54  0.411  0.250  0.396- 184 2.00  24 2.45  81 2.45
  55  0.161  0.833  0.000-  82 2.45  28 2.45 150 2.49
  56  0.994  0.833  0.158- 100 2.45  83 2.45  28 2.45  29 2.45
  57  0.828  0.833  0.317- 101 2.45  84 2.45  29 2.45  30 2.45
  58  0.161  0.500  0.000-  85 2.45  31 2.45 210 2.74 153 2.77
  59  0.994  0.500  0.158- 103 2.45  86 2.45  31 2.45  32 2.45
  60  0.828  0.500  0.317- 104 2.45  87 2.45  32 2.45  33 2.45
[...]
 214  0.408  0.503  0.584- 188 2.33 125 2.33 127 2.33 181 2.33
 215  0.358  0.153  0.736- 189 2.33 128 2.33 182 2.33 126 2.33
 216  0.308  0.803  0.888- 129 2.33 183 2.33
 217  0.508  0.203  0.584- 191 2.33 184 2.33 130 2.33 128 2.33
 218  0.458  0.853  0.736- 192 2.33 131 2.33 185 2.33 129 2.33
 219  0.408  0.503  0.888- 186 2.33 132 2.33  67 2.48
 220  0.608  0.903  0.584- 194 2.33 187 2.33 133 2.33 131 2.33
 221  0.558  0.553  0.736- 195 2.33 134 2.33 132 2.33 188 2.33
 222  0.508  0.203  0.888-  70 2.10 189 2.33 135 2.33
 223  0.708  0.603  0.584- 134 2.33 197 2.33 190 2.33 136 2.33
 224  0.658  0.253  0.736- 191 2.33 198 2.33 135 2.33 137 2.33
 225  0.608  0.903  0.888- 192 2.33 138 2.33  25 2.74  64 3.02
 226  0.808  0.303  0.584- 109 2.33 170 2.33 193 2.33 137 2.33
 227  0.758  0.953  0.736- 171 2.33 110 2.33 194 2.33 138 2.33
 228  0.708  0.603  0.888- 195 2.33 111 2.33  19 2.41

  LATTYP: Found a simple tetragonal cell.
 ALAT       =    16.9734001160
 C/A-ratio  =     1.0522935852

  Lattice vectors:

 A1 = (  16.9734001160,   0.0000000000,   0.0000000000)
 A2 = (   0.0000000000,  16.9734001160,   0.0000000000)
 A3 = (   0.0000000000,   0.0000000000,  17.8610000610)

Analysis of symmetry for initial positions (statically):
 Subroutine PRICEL returns following result:

[...]

   2 primitive cells build up your supercell.

 Routine SETGRP: Setting up the symmetry group for a
 simple tetragonal supercell.

 Subroutine GETGRP returns: Found  1 space group operations
 (whereof  1 operations were pure point group operations)
 out of a pool of 16 trial point group operations.

The static configuration has the point symmetry C_1 .

Analysis of symmetry for dynamics (positions and initial velocities):
 Subroutine PRICEL returns following result:

[...]

The dynamic configuration has the point symmetry C_1 .

Analysis of structural, dynamic, and magnetic symmetry:
 Subroutine PRICEL returns following result:

  LATTYP: Found a simple tetragonal cell.
 ALAT       =    12.0020066819
 C/A-ratio  =     1.4881678151

  Lattice vectors:

 A1 = (   8.4866990566,  -8.4867015686,   0.0000000000)
 A2 = (   8.4866990566,   8.4866985474,   0.0000000000)
 A3 = (   0.0000000000,   0.0000000000,  17.8610000610)

   2 primitive cells build up your supercell.

 Routine SETGRP: Setting up the symmetry group for a
 simple tetragonal supercell.

 Subroutine GETGRP returns: Found  1 space group operations
 (whereof  1 operations were pure point group operations)
 out of a pool of 16 trial point group operations.

The overall configuration has the point symmetry C_1 .

 Subroutine INISYM returns: Found  1 space group operations
 (whereof  1 operations are pure point group operations),
 and found     2 'primitive' translations

                                     Primitive cell

  volume of cell :    2572.8438

  direct lattice vectors                    reciprocal lattice vectors
     8.486699057 -8.486701569  0.000000000     0.058915711 -0.058915715  0.000000000
     8.486699057  8.486698547  0.000000000     0.058915732  0.058915715  0.000000000
     0.000000000  0.000000000 17.861000061     0.000000000  0.000000000  0.055987906

  length of vectors
    12.002006682 12.002004546 17.861000061     0.083319400  0.083319415  0.055987906

  position of ions in fractional coordinates (direct lattice)
     0.327638864  0.660972352  0.000000000
     0.160972248  0.494305677  0.158384174
     0.994305511  0.327638881  0.316768378
     0.660972147  0.327639069  0.000000000
     0.494305531  0.160972036  0.158384174
     0.327638870  0.994305316  0.316768378
     0.994305431  0.994305785  0.000000000
     0.827638814  0.827638753  0.158384174
     0.660972153  0.660972033  0.316768378
     0.660972218  0.994305469  0.000000000
     0.494305571  0.827638763  0.158384174
     0.327638805  0.660972293  0.316768378
     0.994305561  0.660972244  0.000000000
     0.827638854  0.494305480  0.158384174
     0.660972088  0.327639010  0.316768378
     0.327638844  0.327638961  0.000000000
[...]
     0.000000000  0.000000000 17.861000061     0.000000000  0.000000000  0.055987906

  length of vectors
    16.973400116 16.973400116 17.861000061     0.058915715  0.058915715  0.055987906

 FORCES acting on ions
    electron-ion (+dipol)            ewald-force                    non-local-force                 convergence-correction
   0.322E+01 0.931E+01 -.284E+02   -.348E+01 -.921E+01 0.282E+02   -.278E+00 -.112E+01 0.296E+01   -.249E-05 0.625E-05 0.289E-05
   -.256E+00 -.146E+00 -.373E-01   0.375E-01 -.159E-01 0.206E+00   0.243E+00 0.123E+00 -.543E-01   0.962E-05 0.566E-05 0.297E-04
   -.162E+01 0.670E+00 0.516E+01   0.862E+00 0.339E+00 -.506E+01   0.748E+00 -.517E+00 -.154E+00   -.841E-05 0.368E-05 0.206E-04
   0.356E+01 -.211E+01 -.824E+01   -.320E+01 0.184E+01 0.722E+01   0.394E+00 -.356E+00 -.892E+00   0.326E-05 0.480E-05 0.183E-04
   0.110E+00 -.545E-01 -.334E+00   0.381E-01 0.612E-01 0.412E+00   -.169E+00 -.750E-03 -.122E-01   0.656E-05 -.547E-05 0.371E-04
   0.141E+01 -.493E+00 0.536E+01   -.806E+00 -.415E+00 -.515E+01   -.611E+00 0.416E+00 -.379E+00   0.396E-05 -.457E-05 0.188E-04
   -.770E+01 -.134E+01 -.160E+02   0.775E+01 0.241E+01 0.153E+02   -.352E+00 -.232E+00 -.212E+00   -.184E-04 -.338E-05 0.240E-04
   0.292E+00 0.133E+00 -.182E+00   -.775E-01 -.403E-01 0.314E+00   -.195E+00 -.114E+00 -.834E-01   0.738E-05 0.134E-05 0.304E-04
   0.154E+00 -.853E-01 0.289E+01   -.472E-01 0.478E-01 -.312E+01   -.597E-01 0.279E-01 0.633E+00   0.589E-06 0.134E-05 0.187E-04
   -.312E+01 0.154E+01 -.777E+01   0.293E+01 -.124E+01 0.658E+01   -.431E+00 0.274E+00 -.658E+00   -.173E-05 -.341E-05 0.210E-04
   0.267E+00 0.219E+00 -.255E+00   -.156E-01 0.839E-01 0.318E+00   -.283E+00 -.218E+00 0.132E-01   0.204E-05 0.193E-05 0.285E-04
   0.557E+00 0.326E+00 0.389E+01   -.340E+00 -.502E+00 -.407E+01   -.301E+00 0.136E+00 0.529E+00   -.581E-05 0.959E-05 0.238E-04
   -.503E+01 -.802E+01 -.291E+02   0.517E+01 0.803E+01 0.289E+02   0.491E+00 0.101E+01 0.317E+01   0.173E-05 -.516E-05 0.794E-05
   -.217E+00 -.176E+00 -.268E+00   0.856E-02 -.825E-01 0.300E+00   0.259E+00 0.172E+00 0.278E-01   0.161E-05 -.534E-06 0.270E-04
   -.107E+01 0.630E+00 0.393E+01   0.450E+00 -.196E+00 -.381E+01   0.365E+00 -.232E+00 -.198E+00   -.594E-05 -.565E-05 0.175E-04
   0.890E+01 0.157E+01 -.171E+02   -.883E+01 -.259E+01 0.165E+02   0.180E+00 0.154E+00 -.620E-01   0.188E-04 0.285E-05 0.205E-04
   -.401E-01 -.216E-01 -.878E-01   0.669E-02 -.380E-03 0.303E+00   0.349E-01 0.191E-01 -.121E+00   -.178E-05 0.474E-07 0.435E-04
   0.617E+00 -.153E+01 0.558E+01   -.167E+00 0.872E+00 -.520E+01   -.313E+00 0.335E+00 -.629E+00   -.458E-05 0.284E-05 0.194E-04
   0.412E+01 -.886E+01 -.173E+02   -.343E+01 0.849E+01 0.169E+02   -.252E+00 -.288E-01 -.796E-01   0.450E-05 0.214E-04 0.247E-04
   -.187E+00 -.318E-01 -.324E+00   -.273E-01 -.696E-01 0.408E+00   0.235E+00 0.680E-01 -.809E-02   -.883E-05 0.252E-05 0.363E-04
   0.852E+00 -.582E+00 0.414E+01   -.370E+00 0.214E+00 -.391E+01   -.258E+00 0.186E+00 -.398E+00   0.522E-05 0.416E-05 0.225E-04
   -.312E+01 0.797E+01 -.155E+02   0.254E+01 -.777E+01 0.150E+02   0.173E+00 0.209E+00 -.306E+00   -.302E-05 -.223E-04 0.333E-04
   0.311E+00 0.177E+00 -.448E-01   -.408E-01 0.233E-01 0.218E+00   -.287E+00 -.159E+00 -.457E-01   -.114E-04 -.529E-05 0.333E-04
   -.193E+00 -.523E+00 0.395E+01   0.188E+00 0.554E+00 -.410E+01   0.136E+00 -.544E-01 0.505E+00   0.104E-04 -.546E-05 0.208E-04
   -.687E+00 -.352E-01 -.123E+02   0.592E+00 0.506E-01 0.117E+02   -.408E-03 0.609E-01 -.158E+01   -.128E-05 -.236E-05 0.391E-05
   -.266E+00 -.947E-01 -.195E+00   0.702E-01 0.403E-01 0.303E+00   0.157E+00 0.865E-01 -.760E-01   -.517E-05 0.385E-06 0.291E-04
   -.734E+00 0.162E+01 0.529E+01   0.231E+00 -.914E+00 -.501E+01   0.330E+00 -.351E+00 -.437E+00   0.438E-05 -.562E-05 0.158E-04
   0.107E+01 -.113E+01 -.592E+01   -.527E+00 0.234E+00 0.561E+01   -.502E+00 0.425E+00 0.548E+00   -.644E-05 -.839E-05 0.401E-04
   0.290E+00 0.176E+00 0.583E-01   -.736E-01 -.392E-01 -.249E+00   -.250E+00 -.149E+00 0.927E-01   0.498E-05 -.192E-05 0.301E-04
   -.457E+01 -.788E+01 0.177E+02   0.460E+01 0.771E+01 -.171E+02   0.254E+00 0.738E+00 0.250E+00   0.616E-05 -.544E-05 0.194E-04
   0.585E+00 0.261E+00 -.323E+01   -.320E+00 -.486E+00 0.343E+01   -.341E+00 0.179E+00 -.569E+00   -.443E-05 0.603E-05 0.198E-04
   -.260E+00 -.144E+00 0.770E-01   0.689E-01 0.437E-01 -.239E+00   0.176E+00 0.120E+00 0.786E-01   0.249E-05 0.496E-05 0.276E-04
   0.765E+01 -.421E+01 0.205E+02   -.727E+01 0.337E+01 -.201E+02   -.302E+00 0.225E+00 -.363E+00   0.393E-06 0.771E-05 0.337E-06
   -.160E+01 0.375E+00 -.430E+01   0.795E+00 0.396E+00 0.424E+01   0.649E+00 -.417E+00 0.699E-01   -.459E-05 0.609E-05 0.322E-04
   -.421E-01 -.370E-01 0.393E+00   0.496E-02 -.557E-02 -.446E+00   0.514E-01 0.333E-01 -.111E-01   0.251E-06 -.401E-05 0.292E-04
   -.166E+01 0.658E+01 0.101E+02   0.112E+01 -.658E+01 -.916E+01   -.366E-01 0.477E+00 0.612E+00   0.373E-05 -.472E-05 0.785E-05
   -.627E+00 0.126E+01 -.443E+01   0.168E+00 -.848E+00 0.419E+01   0.183E+00 -.222E+00 0.379E+00   0.740E-05 -.640E-05 0.300E-04
   0.130E+00 -.569E-01 0.156E+00   0.390E-01 0.638E-01 -.340E+00   -.156E+00 -.318E-01 0.122E+00   0.254E-05 -.322E-05 0.293E-04
   -.624E+01 0.401E+01 0.187E+02   0.599E+01 -.324E+01 -.182E+02   0.861E-01 -.165E+00 0.272E-01   -.154E-05 -.602E-05 0.259E-05
   0.470E+00 -.124E+01 -.469E+01   -.912E-01 0.858E+00 0.435E+01   -.177E+00 0.210E+00 0.560E+00   -.104E-04 0.664E-05 0.345E-04
   0.301E+00 0.171E+00 0.240E+00   -.484E-01 0.213E-01 -.348E+00   -.243E+00 -.163E+00 0.604E-01   0.871E-05 0.580E-05 0.268E-04
   0.306E+01 0.822E+01 0.171E+02   -.326E+01 -.796E+01 -.165E+02   -.219E+00 -.671E+00 0.402E+00   -.134E-05 0.106E-04 0.174E-04
   0.191E+00 -.959E-01 -.425E+01   -.859E-01 0.184E-01 0.441E+01   -.786E-01 0.487E-01 -.540E+00   -.199E-05 -.235E-06 0.185E-04
   -.244E+00 -.163E+00 0.151E+00   0.744E-02 -.791E-01 -.236E+00   0.281E+00 0.172E+00 -.232E-01   0.707E-05 -.685E-07 0.257E-04
   0.220E+01 -.754E+01 0.112E+02   -.153E+01 0.746E+01 -.104E+02   0.275E-01 -.424E+00 0.689E+00   -.129E-05 -.318E-05 0.846E-05
   -.254E+00 -.449E+00 -.328E+01   0.206E+00 0.567E+00 0.346E+01   0.200E+00 -.103E+00 -.533E+00   0.783E-05 -.553E-05 0.173E-04
   -.263E+00 -.143E+00 0.256E+00   0.400E-01 -.228E-01 -.333E+00   0.226E+00 0.124E+00 0.482E-01   -.884E-05 -.339E-05 0.263E-04
   0.672E+01 0.235E+01 0.110E+02   -.668E+01 -.309E+01 -.100E+02   0.565E+00 -.323E-01 0.636E+00   0.114E-06 -.764E-05 0.671E-05
   -.122E+01 0.130E+01 -.566E+01   0.580E+00 -.319E+00 0.545E+01   0.582E+00 -.493E+00 0.327E+00   0.566E-05 0.102E-04 0.360E-04
   -.205E+00 -.853E-02 0.168E+00   -.264E-01 -.670E-01 -.336E+00   0.223E+00 0.968E-01 0.891E-01   -.849E-05 0.204E-05 0.282E-04
   -.603E+01 -.239E+01 0.105E+02   0.612E+01 0.320E+01 -.947E+01   -.663E+00 -.861E-01 0.510E+00   -.637E-05 0.765E-05 0.420E-05
   0.135E+01 -.222E+00 -.448E+01   -.725E+00 -.420E+00 0.431E+01   -.495E+00 0.308E+00 0.296E+00   0.728E-05 -.902E-05 0.334E-04
   0.310E+00 0.213E+00 0.167E+00   -.118E-01 0.847E-01 -.252E+00   -.337E+00 -.229E+00 -.523E-01   -.906E-05 -.594E-06 0.273E-04
   -.989E+00 0.926E+00 0.350E+02   0.931E+00 -.885E+00 -.353E+02   0.173E+00 -.132E+00 -.521E+01   0.215E-06 0.285E-06 0.728E-05
   -.312E+01 0.797E+01 -.155E+02   0.254E+01 -.777E+01 0.150E+02   0.173E+00 0.209E+00 -.306E+00   -.332E-05 -.219E-04 0.307E-04
   0.312E+00 0.177E+00 -.448E-01   -.408E-01 0.234E-01 0.218E+00   -.287E+00 -.159E+00 -.457E-01   -.588E-05 -.346E-05 0.327E-04
   -.193E+00 -.523E+00 0.395E+01   0.188E+00 0.554E+00 -.410E+01   0.136E+00 -.544E-01 0.505E+00   0.140E-04 -.431E-05 0.246E-04
   -.687E+00 -.353E-01 -.123E+02   0.592E+00 0.507E-01 0.117E+02   -.408E-03 0.609E-01 -.158E+01   0.161E-06 -.408E-07 0.712E-05
   -.266E+00 -.948E-01 -.196E+00   0.701E-01 0.404E-01 0.303E+00   0.157E+00 0.865E-01 -.760E-01   -.864E-06 0.100E-05 0.287E-04
   -.734E+00 0.162E+01 0.528E+01   0.231E+00 -.914E+00 -.501E+01   0.330E+00 -.351E+00 -.437E+00   0.582E-05 -.301E-05 0.140E-04
[...]
   -.969E-01 -.408E+00 -.138E+02   -.689E-01 0.131E-01 0.135E+02   0.101E+00 0.401E+00 0.181E+00   0.986E-05 0.673E-05 -.197E-04
   -.242E+01 -.397E+01 -.612E+02   0.264E+01 0.398E+01 0.604E+02   0.738E-01 -.913E-01 0.166E+01   0.153E-04 -.140E-04 0.611E-05
   -.959E+00 -.201E+00 0.371E+02   0.771E+00 0.245E+00 -.367E+02   0.108E+00 -.803E-01 -.909E+00   0.762E-05 -.750E-05 -.408E-04
   -.114E+00 -.462E+00 -.135E+02   -.875E-01 0.256E-01 0.132E+02   0.175E+00 0.453E+00 0.238E+00   0.100E-04 0.103E-04 -.248E-04
   0.115E+02 0.214E+00 -.544E+02   -.104E+02 -.104E+01 0.526E+02   -.327E+00 0.470E+00 0.222E+01   -.277E-04 -.399E-05 -.207E-05
   0.884E+00 -.429E+00 0.383E+02   -.548E+00 0.157E+00 -.379E+02   -.244E+00 0.188E+00 -.841E+00   0.561E-05 0.192E-05 -.347E-04
   0.123E+00 0.249E+00 -.136E+02   0.922E-01 0.699E-01 0.133E+02   -.155E+00 -.330E+00 0.245E+00   -.128E-04 0.936E-05 -.400E-04
   -.386E+01 -.103E+02 -.373E+02   0.403E+01 0.967E+01 0.374E+02   0.515E+00 0.165E+01 -.321E+01   -.802E-05 -.781E-05 0.818E-05
   0.175E+01 -.723E+00 0.347E+02   -.836E+00 0.346E+00 -.350E+02   -.548E+00 0.422E+00 0.256E+00   -.418E-05 0.160E-04 -.417E-04
   0.249E+00 0.521E+00 -.137E+02   -.359E-01 -.156E+00 0.134E+02   -.185E+00 -.374E+00 0.294E+00   -.744E-05 -.287E-04 -.335E-04
   -.542E+00 0.462E+01 -.586E+02   0.232E+00 -.432E+01 0.568E+02   -.285E+00 0.552E-01 0.350E+01   -.100E-06 0.398E-05 -.694E-05
   -.816E+00 -.468E+00 0.356E+02   0.763E+00 0.559E+00 -.364E+02   0.884E-01 0.680E-02 0.774E+00   -.694E-05 -.268E-05 -.428E-04
   0.458E-01 0.556E-01 -.136E+02   0.996E-01 0.468E-01 0.134E+02   -.466E-01 -.124E+00 0.132E+00   -.637E-05 0.774E-06 -.223E-04
   -.566E+01 0.732E+01 -.504E+02   0.396E+01 -.729E+01 0.484E+02   0.809E+00 -.537E-01 0.190E+01   0.167E-04 0.225E-04 0.194E-05
   0.454E+00 0.339E+00 -.341E+00   -.253E-13 -.176E-12 -.853E-13   -.604E+00 -.418E+00 0.320E+00   0.217E-05 0.118E-05 -.392E-03

 POSITION                                       TOTAL-FORCE (eV/Angst)
     16.87674     11.31560      0.00000        -0.543546     -1.026616      2.776888
     14.04785     11.31560      2.82890         0.024867     -0.037809      0.114038
     11.21894     11.31560      5.65780        -0.013350      0.492024     -0.053082
     16.87674      5.65780      0.00000         0.747057     -0.624849     -1.910543
     14.04785      5.65780      2.82890        -0.020856      0.006282      0.066284
     11.21894      5.65780      5.65780        -0.007326     -0.491354     -0.171819
     16.87674      0.00000      0.00000        -0.301114      0.832835     -0.916688
     14.04785      0.00000      2.82890         0.020218     -0.020540      0.049070
     11.21894      0.00000      5.65780         0.047757     -0.009238      0.403932
      5.56114     11.31560      0.00000        -0.614165      0.573647     -1.840035
      2.73224     11.31560      2.82890        -0.031137      0.085442      0.075623
     16.87674     11.31560      5.65780        -0.083608     -0.040393      0.355298
      5.56114      5.65780      0.00000         0.623845      1.021794      3.024660
      2.73224      5.65780      2.82890         0.050912     -0.086078      0.059554
     16.87674      5.65780      5.65780        -0.252138      0.201619     -0.077555
      5.56114      0.00000      0.00000         0.248281     -0.871441     -0.687633
      2.73224      0.00000      2.82890         0.002058     -0.002545      0.093466
     16.87674      0.00000      5.65780         0.137711     -0.326788     -0.255894
     11.21894     11.31560      0.00000         0.435686     -0.391657     -0.560720
      8.39004     11.31560      2.82890         0.021086     -0.033036      0.076145
      5.56114     11.31560      5.65780         0.225628     -0.181400     -0.171469
     11.21894      5.65780      0.00000        -0.409913      0.403536     -0.895406
      8.39004      5.65780      2.82890        -0.015855      0.042174      0.127803
      5.56114      5.65780      5.65780         0.131096     -0.023028      0.350977
     11.21894      0.00000      0.00000        -0.094776      0.076592     -2.237228
      8.39004      0.00000      2.82890        -0.038572      0.032338      0.031979
      5.56114      0.00000      5.65780        -0.171864      0.352772     -0.162234
      1.31780     15.55895      1.41445         0.036247     -0.474342      0.234459
     15.46229     15.55895      4.24335        -0.033035     -0.012599     -0.097724
     12.63339     15.55895      7.07225         0.285649      0.560121      0.827458
      1.31780      9.90115      1.41445        -0.075296     -0.044974     -0.369650
     15.46229      9.90115      4.24335        -0.013548      0.020671     -0.083411
     12.63339      9.90115      7.07225         0.078792     -0.608419      0.054370
      1.31780      4.24335      1.41445        -0.152950      0.353313      0.010776
     15.46229      4.24335      4.24335         0.014934     -0.008931     -0.064151
     12.63339      4.24335      7.07225        -0.575115      0.477205      1.562071
      6.97559     15.55895      1.41445        -0.275422      0.187226      0.143137
      4.14669     15.55895      4.24335         0.013963     -0.024609     -0.061903
      1.31779     15.55895      7.07225        -0.165119      0.611417      0.499310
      6.97559      9.90115      1.41445         0.201958     -0.170776      0.227323
      4.14669      9.90115      4.24335         0.010231      0.030265     -0.048099
      1.31779      9.90115      7.07225        -0.418861     -0.413520      0.975587
      6.97559      4.24335      1.41445         0.026923     -0.028426     -0.383907
      4.14669      4.24335      4.24335         0.044505     -0.070038     -0.107161
      1.31779      4.24335      7.07225         0.697114     -0.502937      1.475779
     12.63339     15.55895      1.41445         0.152350      0.015154     -0.355177
      9.80449     15.55895      4.24335         0.003842     -0.041698     -0.029170
      6.97559     15.55895      7.07225         0.599595     -0.778105      1.585595
     12.63339      9.90115      1.41445        -0.055129      0.484310      0.117682
      9.80449      9.90115      4.24335        -0.008394      0.021586     -0.078775
      6.97559      9.90115      7.07225        -0.574430      0.724964      1.571008
     12.63339      4.24335      1.41445         0.129649     -0.333588      0.127406
      9.80449      4.24335      4.24335        -0.038682      0.069286     -0.137049
      6.97559      4.24335      7.07225         0.114996     -0.091008     -5.589266
      2.73224     14.14450      0.00000        -0.409913      0.403536     -0.895406
     16.87674     14.14450      2.82890        -0.015855      0.042174      0.127803
     14.04784     14.14450      5.65780         0.131096     -0.023028      0.350977
      2.73224      8.48670      0.00000        -0.094776      0.076592     -2.237228
     16.87674      8.48670      2.82890        -0.038572      0.032338      0.031979
     14.04784      8.48670      5.65780        -0.171864      0.352772     -0.162234
[...]
      6.91916      8.53655     10.43000        -0.415968     -0.090383     -0.257562
      6.07048      2.59586     13.14550        -0.064184      0.005771     -0.053561
      5.22181     13.62857     15.86100         0.292731     -0.078207      0.849038
      8.61650      3.44453     10.43000        -0.079164     -0.035616     -0.524470
      7.76783     14.47724     13.14550        -0.025728      0.017736     -0.059194
      6.91915      8.53655     15.86100         0.816661     -0.359588      0.408601
     10.31384     15.32591     10.43000         0.092609     -0.084177     -0.441645
      9.46517      9.38522     13.14550         0.060973     -0.010728     -0.023528
      8.61649      3.44453     15.86100         0.682064      0.986284     -3.087121
     12.01118     10.23389     10.43000         0.369244      0.045197     -0.069167
     11.16250      4.29320     13.14550         0.028977     -0.008759     -0.055365
     10.31383     15.32591     15.86100        -0.594321      0.363506      1.700112
     13.70852      5.14187     10.43000         0.036208      0.097851     -0.020034
     12.85984     16.17458     13.14550         0.099430     -0.021196     -0.004879
     12.01117     10.23389     15.86100        -0.887244     -0.021220     -0.062971
    total drift:                               -0.149886     -0.078794     -0.021526

  FREE ENERGIE OF THE ION-ELECTRON SYSTEM (eV)
  free  energy   TOTEN  =     -1063.54393247 eV

  energy  without entropy=    -1063.53982556  energy(sigma->0) =    -1063.54187902