 vasp.6.4.3 19Mar24 (build Oct 22 2024 11:23:12) complex

 executed on             LinuxIFC date 2025.06.09  06:25:49

 INCAR:
   SYSTEM = Si and Ge interface calculation
   ISTART = 0
   ICHARG = 2
   LWAVE = .FALSE.
   LREAL = AUTO
   ENCUT = 700
   ENAUG = 900
   ADDGRID = .TRUE.
   LMAXMIX = 6
   LASPH = .TRUE.
   LMIXTAU = .TRUE.
   NCORE = 16
   NELM = 100
   NBANDS = 432
   EDIFF = 1d-7
   AMIX = 0.6
   ISMEAR = 0
   SIGMA = 0.01
   NELECT = 720
   ISPIN = 2
   NUPDOWN = 1
   LVTOT = .FALSE.
   LVHAR = .TRUE.

 POTCAR:    PAW_PBE Sn 08Apr2002
 POTCAR:    PAW_PBE Ge 05Jan2001
|           W    W    AA    RRRRR   N    N  II  N    N   GGGG   !!!           |
|           W    W   A  A   R    R  NN   N  II  NN   N  G    G  !!!           |
|           W    W  A    A  R    R  N N  N  II  N N  N  G       !!!           |
|           W WW W  AAAAAA  RRRRR   N  N N  II  N  N N  G  GGG   !            |
|           WW  WW  A    A  R   R   N   NN  II  N   NN  G    G                |
|           W    W  A    A  R    R  N    N  II  N    N   GGGG   !!!           |
|     You use a magnetic or noncollinear calculation, but did not specify     |
|     the initial magnetic moment with the MAGMOM tag. Note that a            |
|     default of 5.556e-3 will be used for all atoms. This ferromagnetic      |
|     setup may break the symmetry of the crystal, in particular it may       |
|     rule out finding an antiferromagnetic solution. Thence, we              |
|     recommend setting the initial magnetic moment manually or verifying     |
|     carefully that this magnetic setup is desired.                          |

 POTCAR:    PAW_PBE Sn 08Apr2002
   VRHFIN =Sn: s2p2

   TITEL  = PAW_PBE Sn 08Apr2002
   POMASS =  118.710; ZVAL   =    4.000    mass and valenz
   ENMAX  =  103.236; ENMIN  =   77.427 eV

 POTCAR:    PAW_PBE Ge 05Jan2001
   VRHFIN =Ge: s2p2

   TITEL  = PAW_PBE Ge 05Jan2001
   POMASS =   72.610; ZVAL   =    4.000    mass and valenz
   ENMAX  =  173.807; ENMIN  =  130.355 eV

 Optimization of the real space projectors (new method)

 maximal supplied QI-value         = 12.47
 optimisation between [QCUT,QGAM] = [ 12.47, 27.06] = [ 43.56,205.12] Ry
 Optimized for a Real-space Cutoff    1.58 Angstroem

   l    n(q)    QCUT    max X(q) W(low)/X(q) W(high)/X(q)  e(spline)
   0     13    12.472    14.688    0.45E-04    0.45E-04    0.25E-05
   0     13    12.472     7.308    0.94E-04    0.11E-03    0.61E-05
   1     12    12.472    45.102    0.34E-03    0.14E-03    0.21E-05
   1     12    12.472    30.691    0.31E-03    0.13E-03    0.20E-05
   2     12    12.472     7.156    0.86E-04    0.11E-03    0.17E-05
 WARNING: PSMAXN for non-local potential too small
          PSMAXN should be >   13.5545592237991       NTYP=           1
 Optimization of the real space projectors (new method)

 maximal supplied QI-value         = 16.25
 optimisation between [QCUT,QGAM] = [ 13.49, 26.98] = [ 50.95,203.80] Ry
 Optimized for a Real-space Cutoff    1.25 Angstroem

   l    n(q)    QCUT    max X(q) W(low)/X(q) W(high)/X(q)  e(spline)
   0     10    13.489    65.336    0.91E-04    0.11E-03    0.34E-06
   0     10    13.489    52.220    0.89E-04    0.11E-03    0.34E-06
   1     10    13.489    36.409    0.22E-03    0.27E-03    0.14E-06
   1     10    13.489    21.334    0.21E-03    0.27E-03    0.14E-06
   2      9    13.489     4.673    0.11E-03    0.12E-03    0.19E-06
  PAW_PBE Sn 08Apr2002                  :
  PAW_PBE Ge 05Jan2001                  :

 POSCAR: Sn+Ge
  positions in direct lattice

 exchange-correlation table for PE
   RHO(1)=    0.500       N(1)  =     2000
   RHO(2)=  100.500       N(2)  =     4000

 ion  position               nearest neighbor table
   1  0.983  0.652  0.000- 102 1.29 138 1.59 168 2.50  29 2.81  28 2.81 101 3.11
   2  0.783  0.486  0.106-  60 1.67 168 2.45 126 2.71  30 2.81  29 2.81  13 2.81 127 3.14
   3  0.583  0.319  0.213- 157 1.99  86 2.76  14 2.81  16 2.81  30 2.81  90 2.93  43 3.19
   4  0.983  0.319  0.000-  54 1.19 125 2.28 120 2.45  32 2.81  31 2.81  89 3.19  84 3.22
   5  0.783  0.152  0.106-  84 2.21 151 2.47  33 2.81  32 2.81  16 2.81  43 2.96 150 3.07
   6  0.583  0.986  0.213- 109 1.60  73 1.69 175 2.73  17 2.81  10 2.81  33 2.81
   7  0.983  0.986  0.000- 150 1.67  41 2.02  34 2.81  35 2.81 143 2.94  72 3.19 149 3.28
   8  0.783  0.819  0.106- 144 1.97 103 2.24  35 2.81  10 2.81  36 2.81 169 3.09
   9  0.583  0.652  0.213-  61 1.20 127 2.45  11 2.81  36 2.81  13 2.81 170 2.95 174 3.11
  10  0.633  0.902  0.053- 144 1.66 108 1.84  42 2.47   8 2.81   6 2.81  19 2.81
  11  0.433  0.736  0.160- 133 2.33  66 2.61  19 2.81   9 2.81  20 2.81 174 2.93  67 2.96 175 3.15

  12  0.233  0.569  0.266- 163 1.37  97 2.28  92 2.41  20 2.81  21 2.81 133 2.95 128 3.14
  13  0.633  0.569  0.053-  60 2.07 131 2.78  22 2.81   2 2.81   9 2.81 127 2.96 174 2.99  65 3.33

[...]

  35  0.933  0.902  0.160- 139 1.69  37 2.48 103 2.64  27 2.81   8 2.81   7 2.81  72 3.18
  36  0.733  0.736  0.266- 169 1.28  61 1.84 103 2.22   9 2.81   8 2.81 170 3.22
  37  0.979  0.000  0.266- 139 2.43 146 2.47  35 2.48 145 2.55
  38  0.729  1.000  0.413-  33 2.41 140 2.43 109 2.47 147 2.47 146 2.55
  39  0.479  1.000  0.560- 141 2.43 148 2.47 110 2.47 147 2.55
  40  0.229  1.000  0.706- 142 2.43 111 2.47 149 2.47 148 2.55
  41  0.979  1.000  0.853-   7 2.02 143 2.43 112 2.47 150 2.47 149 2.55
  42  0.729  1.000  1.000- 144 2.43  10 2.47 113 2.47 150 2.55
  43  0.646  0.167  0.266-  33 2.28 109 2.43 152 2.47 151 2.55   5 2.96   3 3.19  16 3.20
  44  0.396  0.167  0.413- 110 2.43 115 2.47 153 2.47 152 2.55
  45  0.146  0.167  0.560- 111 2.43 154 2.47 116 2.47 153 2.55
  46  0.896  0.167  0.706- 112 2.43 117 2.47 155 2.47 154 2.55
  47  0.646  0.167  0.853- 113 2.43 156 2.47 118 2.47 155 2.55  16 3.05  25 3.11
  48  0.396  0.167  1.000-  25 1.29 114 2.43 119 2.47 156 2.55  17 2.94
  49  0.313  0.333  0.266-  15 2.22  23 2.24 115 2.43 158 2.47 157 2.55  14 2.64
  50  0.063  0.333  0.413- 116 2.43 121 2.47 159 2.47 158 2.55
  51  0.813  0.333  0.560- 117 2.43 160 2.47 122 2.47 159 2.55
  52  0.563  0.333  0.706- 118 2.43 123 2.47 161 2.47 160 2.55
  53  0.313  0.333  0.853- 119 2.43 162 2.47 124 2.47 161 2.55
  54  0.063  0.333  1.000-   4 1.19  31 1.84 120 2.43 125 2.47 162 2.55
  55  0.979  0.500  0.266-  21 1.69  29 2.09 121 2.43 164 2.47 163 2.55
  56  0.729  0.500  0.413- 122 2.43 127 2.47 165 2.47 164 2.55  30 2.76
  57  0.479  0.500  0.560- 123 2.43 166 2.47 128 2.47 165 2.55
  58  0.229  0.500  0.706- 124 2.43 129 2.47 167 2.47 166 2.55
  59  0.979  0.500  0.853- 125 2.43 130 2.47 168 2.47 167 2.55
  60  0.729  0.500  1.000-   2 1.67  13 2.07 126 2.43 131 2.47 168 2.55
  61  0.646  0.667  0.266-   9 1.20  36 1.84 127 2.43 170 2.47 169 2.55
  62  0.396  0.667  0.413- 128 2.43 133 2.47 171 2.47 170 2.55
  63  0.146  0.667  0.560- 129 2.43 172 2.47 134 2.47 171 2.55
  64  0.896  0.667  0.706- 130 2.43 135 2.47 173 2.47 172 2.55
  65  0.646  0.667  0.853- 131 2.43 136 2.47 174 2.47 173 2.55  13 3.33
  66  0.396  0.667  1.000-  20 2.21 132 2.43 137 2.47 174 2.55  11 2.61  19 3.22
  67  0.313  0.833  0.266-  18 1.77 133 2.43 176 2.47 175 2.55  11 2.96
  68  0.063  0.833  0.413- 134 2.43 139 2.47 177 2.47 176 2.55  27 2.76
  69  0.813  0.833  0.560- 135 2.43 140 2.47 178 2.47 177 2.55
  70  0.563  0.833  0.706- 136 2.43 141 2.47 179 2.47 178 2.55
  71  0.313  0.833  0.853- 137 2.43 142 2.47 180 2.47 179 2.55  19 3.19
  72  0.063  0.833  1.000-  28 2.27 138 2.43 143 2.47 180 2.55  27 2.93  35 3.18   7 3.19
  73  0.479  0.000  0.266-   6 1.69  17 2.09 175 2.43 110 2.47 109 2.55
  74  0.229  1.000  0.413- 176 2.43 111 2.47 145 2.47 110 2.55  18 2.76
  75  0.979  1.000  0.560- 177 2.43 112 2.47 146 2.47 111 2.55
  76  0.729  1.000  0.706- 178 2.43 113 2.47 147 2.47 112 2.55
  77  0.479  1.000  0.853- 179 2.43 114 2.47 148 2.47 113 2.55
  78  0.229  1.000  1.000-  26 1.67  34 2.07 180 2.43 149 2.47 114 2.55
  79  0.146  0.167  0.266-  24 1.20  15 1.84 145 2.43 116 2.47 115 2.55
  80  0.896  0.167  0.413- 146 2.43 117 2.47 151 2.47 116 2.55
  81  0.646  0.167  0.560- 147 2.43 118 2.47 152 2.47 117 2.55
  82  0.396  0.167  0.706- 148 2.43 119 2.47 153 2.47 118 2.55
  83  0.146  0.167  0.853- 149 2.43 154 2.47 120 2.47 119 2.55  34 3.33
  84  0.896  0.167  1.000-   5 2.21 150 2.43 155 2.47 120 2.55  32 2.61   4 3.22
  85  0.813  0.333  0.266-  30 1.77 151 2.43 122 2.47 121 2.55  32 2.96
  86  0.563  0.333  0.413- 152 2.43 123 2.47 157 2.47 122 2.55   3 2.76
  87  0.313  0.333  0.560- 153 2.43 124 2.47 158 2.47 123 2.55
  88  0.063  0.333  0.706- 154 2.43 125 2.47 159 2.47 124 2.55
  89  0.813  0.333  0.853- 155 2.43 160 2.47 126 2.47 125 2.55   4 3.19
  90  0.563  0.333  1.000-  16 2.27 156 2.43 161 2.47 126 2.55   3 2.93  14 3.18  22 3.19
  91  0.479  0.500  0.266- 157 2.43 128 2.47  14 2.48 127 2.55
  92  0.229  0.500  0.413-  12 2.41 158 2.43 163 2.47 129 2.47 128 2.55
  93  0.979  0.500  0.560- 159 2.43 130 2.47 164 2.47 129 2.55
  94  0.729  0.500  0.706- 160 2.43 131 2.47 165 2.47 130 2.55
[...]
 166  0.396  0.542  0.706- 100 2.43  57 2.47  95 2.47  58 2.55
 167  0.146  0.542  0.853- 101 2.43  96 2.47  58 2.47  59 2.55
 168  0.896  0.542  1.000-  29 2.30 102 2.43   2 2.45  59 2.47   1 2.50  60 2.55
 169  0.813  0.708  0.266-  36 1.28 103 2.43  98 2.47  61 2.55   8 3.09
 170  0.563  0.708  0.413- 104 2.43  99 2.47  61 2.47  62 2.55   9 2.95  36 3.22
 171  0.313  0.708  0.560- 105 2.43 100 2.47  62 2.47  63 2.55
 172  0.063  0.708  0.706- 106 2.43 101 2.47  63 2.47  64 2.55
 173  0.813  0.708  0.853- 107 2.43  64 2.47 102 2.47  65 2.55
 174  0.563  0.708  1.000- 108 2.43  19 2.45  65 2.47  66 2.55  11 2.93  13 2.99   9 3.11
 175  0.479  0.875  0.266-  73 2.43 104 2.47  67 2.55   6 2.73  11 3.15
 176  0.229  0.875  0.413-  18 2.07  74 2.43  67 2.47 105 2.47  68 2.55
 177  0.979  0.875  0.560-  75 2.43 106 2.47  68 2.47  69 2.55
 178  0.729  0.875  0.706-  76 2.43  69 2.47 107 2.47  70 2.55
 179  0.479  0.875  0.853-  19 2.28  77 2.43 108 2.47  70 2.47  71 2.55
 180  0.229  0.875  1.000-  78 2.43  71 2.47  72 2.55  26 2.71  28 3.14

  LATTYP: Found a simple orthorhombic cell.
 ALAT       =    13.6292486190
 B/A-ratio  =     1.0646435808
 C/A-ratio  =     1.4283694076

  Lattice vectors:

 A1 = (   0.0000000000,   0.0000000000,  13.6292486190)
 A2 = (  14.5102920530,   0.0000000000,   0.0000000000)
 A3 = (   0.0000000000,  19.4676017760,   0.0000000000)

Analysis of symmetry for initial positions (statically):
 Subroutine PRICEL returns following result:

  LATTYP: Found a base centered orthorhombic cell.
 ALAT       =    14.5102911824
 B/A-ratio  =     1.3416410140
 C/A-ratio  =     0.9392815380

[...]

   2 primitive cells build up your supercell.

 Routine SETGRP: Setting up the symmetry group for a
 simple orthorhombic supercell.

 Subroutine GETGRP returns: Found  1 space group operations
 (whereof  1 operations were pure point group operations)
 out of a pool of  8 trial point group operations.

The static configuration has the point symmetry C_1 .

Analysis of symmetry for dynamics (positions and initial velocities):
 Subroutine PRICEL returns following result:

[...]

[...]
     0.000000000  0.000000000 13.629248619     0.000000000  0.000000000  0.073371616

  length of vectors
    14.510292053 19.467601776 13.629248619     0.068916600  0.051367396  0.073371616

 FORCES acting on ions
    electron-ion (+dipol)            ewald-force                    non-local-force                 convergence-correction
   0.301E-01 0.270E+02 0.146E+02   0.615E+02 -.633E+02 -.149E+02   0.192E+02 -.314E+02 -.667E+00   -.341E-05 -.261E-04 0.820E-05
   -.192E+02 0.173E+02 -.400E+02   0.290E+02 -.214E+02 0.578E+02   0.126E+02 -.655E+01 0.285E+02   0.181E-05 -.196E-04 -.640E-05
   -.185E+02 0.262E+02 0.182E+01   0.217E+02 -.290E+02 -.267E+01   0.895E+01 -.675E+01 -.498E+01   0.460E-05 0.140E-04 -.125E-04
   0.545E+02 -.158E+01 -.103E+01   -.162E+03 -.237E+02 0.186E+01   -.484E+02 -.119E+02 0.253E+01   0.159E-04 0.205E-04 0.239E-05
   0.114E+02 0.137E+02 0.124E+02   -.133E+02 -.153E+02 -.125E+02   -.367E+01 -.988E+00 0.122E+01   -.306E-05 0.347E-05 -.910E-05
   -.115E+02 0.430E+02 0.308E+02   0.138E+02 -.634E+02 -.501E+02   0.346E+01 -.309E+02 -.289E+02   -.148E-05 0.388E-05 -.101E-04
   -.205E+02 0.276E+02 -.150E+02   0.354E+02 -.407E+02 0.197E+02   0.236E+02 -.219E+02 0.103E+02   -.879E-05 0.515E-05 -.208E-05
   -.148E+02 0.282E+02 0.122E+02   0.177E+02 -.322E+02 -.119E+02   0.394E+01 -.644E+01 0.439E+01   -.264E-05 0.240E-04 -.970E-05
   0.418E+02 0.421E+01 0.166E+02   -.123E+03 -.287E+02 -.811E+02   -.393E+02 -.974E+01 -.298E+02   0.331E-06 -.187E-04 -.195E-04
   0.174E+02 -.437E+02 -.288E+02   -.319E+02 0.551E+02 0.402E+02   -.147E+02 0.253E+02 0.223E+02   0.150E-04 0.128E-04 -.129E-05
   -.811E+01 -.127E+02 -.112E+02   0.961E+01 0.141E+02 0.116E+02   0.225E+01 0.111E+01 -.490E+00   0.206E-05 0.799E-06 -.702E-05
   -.602E+02 0.119E+01 -.320E+01   0.120E+03 0.230E+02 0.240E+01   0.462E+02 0.163E+02 -.489E+00   -.175E-04 -.312E-04 -.108E-04
   0.128E+02 -.252E+02 -.367E+00   -.149E+02 0.278E+02 0.869E+00   -.598E+01 0.563E+01 0.361E+01   0.719E-05 -.312E-04 -.105E-04
   0.204E+02 -.188E+02 0.397E+02   -.289E+02 0.245E+02 -.558E+02   -.106E+02 0.103E+02 -.273E+02   -.533E-05 -.219E-05 -.161E-04
   0.831E+01 -.252E+02 -.147E+02   -.825E+02 0.658E+02 0.149E+02   -.319E+02 0.283E+02 0.704E+00   -.130E-05 0.369E-04 -.200E-04
   -.472E+02 -.642E+01 -.194E+02   0.966E+02 0.313E+02 0.542E+02   0.390E+02 0.161E+02 0.273E+02   0.157E-05 0.134E-04 0.251E-06
   0.110E+02 -.284E+02 -.156E+02   -.123E+02 0.315E+02 0.164E+02   -.232E+01 0.519E+01 -.171E+01   0.862E-05 -.538E-05 -.867E-05
   0.129E+02 -.294E+02 0.140E+02   -.200E+02 0.383E+02 -.179E+02   -.149E+02 0.198E+02 -.874E+01   0.156E-05 0.597E-05 -.629E-05
   0.545E+02 -.158E+01 -.103E+01   -.162E+03 -.237E+02 0.186E+01   -.484E+02 -.119E+02 0.253E+01   0.135E-04 0.106E-04 0.320E-05
   0.114E+02 0.137E+02 0.124E+02   -.133E+02 -.153E+02 -.125E+02   -.367E+01 -.988E+00 0.122E+01   -.675E-06 -.283E-04 0.378E-06
   -.115E+02 0.430E+02 0.308E+02   0.138E+02 -.634E+02 -.501E+02   0.346E+01 -.309E+02 -.289E+02   -.575E-05 -.183E-04 -.837E-05
   -.205E+02 0.276E+02 -.150E+02   0.354E+02 -.407E+02 0.197E+02   0.236E+02 -.219E+02 0.103E+02   -.377E-05 -.158E-04 -.883E-06
   -.148E+02 0.282E+02 0.122E+02   0.177E+02 -.322E+02 -.119E+02   0.394E+01 -.644E+01 0.439E+01   -.122E-04 0.312E-04 -.261E-04
   0.418E+02 0.421E+01 0.166E+02   -.123E+03 -.287E+02 -.811E+02   -.393E+02 -.974E+01 -.298E+02   -.149E-04 0.789E-05 -.298E-04
   0.300E-01 0.270E+02 0.146E+02   0.615E+02 -.633E+02 -.149E+02   0.192E+02 -.314E+02 -.667E+00   -.101E-05 0.516E-05 0.503E-05
   -.192E+02 0.173E+02 -.400E+02   0.290E+02 -.214E+02 0.578E+02   0.126E+02 -.655E+01 0.285E+02   0.329E-05 0.697E-05 -.485E-05
   -.185E+02 0.262E+02 0.182E+01   0.217E+02 -.290E+02 -.267E+01   0.895E+01 -.675E+01 -.498E+01   -.920E-05 0.132E-04 0.418E-06
   -.472E+02 -.642E+01 -.194E+02   0.966E+02 0.313E+02 0.542E+02   0.390E+02 0.161E+02 0.273E+02   -.170E-05 -.572E-06 0.109E-04
   0.110E+02 -.284E+02 -.156E+02   -.123E+02 0.315E+02 0.164E+02   -.232E+01 0.519E+01 -.171E+01   0.487E-05 -.413E-04 0.526E-05
   0.129E+02 -.294E+02 0.140E+02   -.200E+02 0.383E+02 -.179E+02   -.149E+02 0.198E+02 -.874E+01   0.709E-05 0.157E-05 -.119E-04
   0.174E+02 -.437E+02 -.288E+02   -.319E+02 0.551E+02 0.402E+02   -.147E+02 0.253E+02 0.223E+02   0.466E-05 -.796E-05 -.494E-05
   -.811E+01 -.127E+02 -.112E+02   0.961E+01 0.141E+02 0.116E+02   0.225E+01 0.111E+01 -.490E+00   -.205E-05 0.251E-04 -.181E-04
   -.602E+02 0.119E+01 -.320E+01   0.120E+03 0.230E+02 0.240E+01   0.462E+02 0.163E+02 -.489E+00   -.622E-05 -.300E-05 -.166E-04
   0.128E+02 -.252E+02 -.367E+00   -.149E+02 0.278E+02 0.869E+00   -.598E+01 0.563E+01 0.361E+01   -.343E-05 0.405E-06 -.156E-04
   0.204E+02 -.188E+02 0.397E+02   -.289E+02 0.245E+02 -.558E+02   -.106E+02 0.103E+02 -.273E+02   -.725E-05 0.742E-05 -.778E-05
   0.831E+01 -.252E+02 -.147E+02   -.825E+02 0.658E+02 0.149E+02   -.319E+02 0.283E+02 0.704E+00   0.483E-05 0.119E-04 -.904E-05
   0.891E+01 -.228E+02 -.170E+02   -.901E+01 0.247E+02 0.161E+02   0.591E+00 0.118E+01 0.211E+01   -.707E-05 -.119E-04 -.189E-04
   -.831E+01 0.132E+02 -.457E+02   0.916E+01 -.142E+02 0.485E+02   0.372E+00 -.779E+00 0.156E+01   -.482E-05 -.446E-05 -.984E-05
   -.164E+01 -.227E+01 -.118E+02   0.154E+01 0.238E+01 0.119E+02   0.434E+00 0.277E+00 0.473E-01   0.176E-05 -.191E-06 -.294E-05
   -.401E+01 -.205E+01 0.115E+02   0.380E+01 0.216E+01 -.116E+02   0.603E+00 0.279E+00 -.499E-01   -.479E-05 0.508E-05 0.959E-05
   0.311E+01 -.610E+01 0.598E+02   -.235E+01 0.685E+01 -.685E+02   -.148E+00 0.116E+01 -.717E+01   -.209E-05 0.459E-05 0.172E-04
   -.346E+01 -.247E+02 0.133E+02   0.395E+01 0.273E+02 -.118E+02   0.102E+01 0.106E+01 -.197E+01   0.474E-05 -.628E-05 0.896E-05
   0.274E+02 -.277E+02 -.171E+02   -.294E+02 0.314E+02 0.153E+02   -.220E+01 0.289E+01 0.193E+01   -.993E-06 0.862E-05 -.132E-04
   -.965E+01 0.200E+00 -.255E+02   0.100E+02 -.383E+00 0.260E+02   0.159E+00 0.505E+00 -.428E+00   0.123E-04 0.102E-05 0.489E-05
   -.198E+01 -.154E+01 -.145E+02   0.190E+01 0.138E+01 0.148E+02   0.416E+00 0.411E+00 -.182E+00   -.361E-06 0.111E-04 0.155E-04
   -.166E+01 -.241E+01 0.116E+02   0.174E+01 0.221E+01 -.117E+02   0.292E+00 0.495E+00 0.549E-01   0.246E-05 0.954E-05 0.128E-04
   -.135E+02 0.317E+01 0.396E+02   0.141E+02 -.334E+01 -.409E+02   0.523E+00 0.165E+00 -.241E+00   0.356E-05 0.748E-05 0.945E-05
   0.425E+02 -.241E+02 0.432E+01   -.141E+03 0.446E+02 -.356E+01   -.330E+02 0.725E+01 -.202E+01   0.257E-05 0.763E-05 0.302E-05
   -.288E+01 -.286E+02 -.337E+02   0.457E+01 0.318E+02 0.361E+02   0.123E+01 0.342E+01 0.428E+01   -.114E-05 0.316E-04 -.239E-04
   0.185E+01 -.426E+01 -.264E+02   -.212E+01 0.499E+01 0.263E+02   0.577E+00 -.362E-01 0.214E+00   -.550E-05 0.240E-04 -.871E-05
   -.405E+01 -.155E+01 -.125E+02   0.424E+01 0.142E+01 0.131E+02   0.232E+00 0.455E+00 -.573E+00   -.157E-05 0.131E-04 0.126E-05
   -.297E+01 -.246E+01 0.121E+02   0.282E+01 0.260E+01 -.121E+02   0.462E+00 0.201E+00 -.189E+00   0.168E-05 0.100E-04 0.755E-05
   -.512E+01 0.101E+01 0.294E+02   0.490E+01 -.749E+00 -.295E+02   0.375E+00 0.226E+00 -.234E+00   -.956E-05 0.140E-04 0.217E-04
   0.103E+02 0.137E+02 0.178E+02   0.107E+03 0.768E+01 -.212E+02   0.188E+02 -.345E+01 -.603E+01   0.115E-04 0.219E-04 0.578E-05
   0.324E+02 0.545E+01 -.398E+02   -.576E+02 -.435E+01 0.546E+02   -.156E+02 -.185E+00 0.125E+02   0.985E-05 -.224E-04 -.148E-04
   -.414E+01 -.133E+02 -.359E+02   0.385E+01 0.144E+02 0.365E+02   0.730E+00 0.389E+00 0.745E+00   0.920E-05 -.204E-04 -.631E-05
   -.207E+01 -.238E+01 -.105E+02   0.210E+01 0.262E+01 0.101E+02   0.465E+00 0.173E+00 0.485E+00   0.320E-05 -.142E-04 0.878E-05
   -.283E+01 -.288E+01 0.104E+02   0.284E+01 0.284E+01 -.104E+02   0.303E+00 0.452E+00 -.832E-01   -.621E-06 -.190E-04 0.102E-04
   -.133E+01 0.276E+00 0.287E+02   0.164E+01 0.263E+00 -.291E+02   0.319E+00 -.213E+00 0.140E+00   0.620E-06 -.268E-04 0.107E-04
   -.324E+01 0.786E+01 0.446E+02   -.767E+01 -.661E+01 -.729E+02   -.558E+01 0.280E+00 -.198E+02   0.186E-05 -.206E-04 0.924E-05
[...]
   -.148E+01 0.269E+01 0.263E+02   0.168E+01 -.336E+01 -.262E+02   -.555E+00 -.589E-02 -.137E+00   0.145E-05 -.397E-04 0.110E-04
   -.435E+01 0.241E+02 0.348E+02   0.466E+01 -.251E+02 -.370E+02   -.530E-01 -.176E+01 -.404E+01   -.606E-05 -.399E-04 0.934E-05
   -.396E+02 0.255E+02 -.297E+01   0.136E+03 -.690E+02 0.193E+01   0.292E+02 -.135E+02 0.206E+01   0.950E-05 -.396E-05 -.728E-05
   0.132E+02 -.172E+01 -.407E+02   -.136E+02 0.180E+01 0.417E+02   -.516E+00 -.147E+00 0.438E+00   0.388E-05 0.149E-05 0.122E-04
   0.160E+01 0.221E+01 -.118E+02   -.170E+01 -.198E+01 0.119E+02   -.285E+00 -.547E+00 -.105E+00   -.481E-05 -.577E-05 0.497E-05
   0.196E+01 0.177E+01 0.148E+02   -.191E+01 -.155E+01 -.152E+02   -.391E+00 -.432E+00 0.251E+00   -.962E-05 -.681E-05 -.113E-04
   0.100E+02 -.297E+00 0.253E+02   -.103E+02 0.559E+00 -.257E+02   -.255E+00 -.501E+00 0.370E+00   -.826E-05 -.185E-05 -.549E-05
   -.222E+02 0.219E+02 0.186E+02   0.234E+02 -.237E+02 -.173E+02   0.111E+01 -.225E+01 -.153E+01   0.872E-05 -.102E-04 -.519E-05
   -.116E+01 0.169E+02 -.119E+02   0.110E+01 -.186E+02 0.102E+02   -.583E+00 -.448E+00 0.163E+01   0.522E-05 0.215E-04 -.830E-05
   -.158E+01 0.101E+02 -.583E+02   0.716E+00 -.117E+02 0.654E+02   -.272E+00 -.173E+01 0.611E+01   -.152E-05 0.467E-05 -.593E-05
   0.384E+01 0.218E+01 -.114E+02   -.371E+01 -.225E+01 0.117E+02   -.545E+00 -.324E+00 -.285E-01   -.177E-05 0.146E-05 0.186E-05
   0.141E+01 0.232E+01 0.120E+02   -.137E+01 -.247E+01 -.119E+02   -.416E+00 -.259E+00 -.565E-01   0.286E-05 0.234E-05 0.794E-05
   0.946E+01 -.127E+02 0.499E+02   -.103E+02 0.139E+02 -.533E+02   -.631E+00 0.147E+01 -.306E+01   0.108E-04 0.108E-04 0.552E-05
   -.111E+02 0.150E+02 0.146E+02   0.116E+02 -.164E+02 -.129E+02   -.506E+00 -.452E+00 -.183E+01   -.175E-05 0.196E-04 0.822E-05
   0.211E+02 -.183E+01 0.302E+00   0.229E-12 0.249E-13 0.941E-13   -.214E+02 0.174E+01 0.238E+00   0.172E-05 0.502E-05 -.503E-04

 POSITION                                       TOTAL-FORCE (eV/Angst)
     14.26225     12.70108      0.00000        80.749506    -67.665689     -0.998068
     11.36019      9.45648      1.45103        22.408018    -10.610226     46.284982
      8.45813      6.21188      2.90206        12.222561     -9.549258     -5.831856
     14.26225      6.21188      0.00000      -155.764236    -37.136248      3.357943
     11.36019      2.96728      1.45103        -5.600534     -2.634338      1.053223
      8.45813     19.19028      2.90206         5.755300    -51.349657    -48.202670
     14.26225     19.19028      0.00000        38.440141    -34.908110     14.978704
     11.36019     15.94568      1.45103         6.809480    -10.369469      4.717762
      8.45813     12.70108      2.90206      -120.686883    -34.277765    -94.326409
      9.18365     17.56798      0.72551       -29.152259     36.735943     33.627068
      6.28159     14.32338      2.17654         3.758157      2.459581     -0.102151
      3.37953     11.07878      3.62757       105.717729     40.490773     -1.294863
      9.18365     11.07878      0.72551        -8.004940      8.258429      4.107219
      6.28159      7.83418      2.17654       -19.115657     16.032888    -43.449808
      3.37953      4.58958      3.62757      -106.127811     68.879451      0.931467
      9.18365      4.58958      0.72551        88.513899     40.923946     62.105562
      6.28159      1.34498      2.17654        -3.626744      8.261342     -0.992505
      3.37953     17.56798      3.62757       -22.089275     28.690328    -12.643134
      7.00710     15.94568      0.00000      -155.764236    -37.136248      3.357943
      4.10504     12.70108      1.45103        -5.600534     -2.634338      1.053223
      1.20298      9.45648      2.90206         5.755300    -51.349657    -48.202670
      7.00710      9.45648      0.00000        38.440141    -34.908110     14.978704
      4.10504      6.21188      1.45103         6.809480    -10.369469      4.717762
      1.20298      2.96728      2.90206      -120.686883    -34.277765    -94.326409
      7.00710      2.96728      0.00000        80.749506    -67.665689     -0.998068
      4.10504     19.19028      1.45103        22.408018    -10.610226     46.284982
      1.20298     15.94568      2.90206        12.222561     -9.549258     -5.831856
      1.92850     14.32338      0.72551        88.513899     40.923946     62.105562
     13.53673     11.07878      2.17654        -3.626744      8.261342     -0.992505
     10.63467      7.83418      3.62757       -22.089275     28.690328    -12.643134
      1.92850      7.83418      0.72551       -29.152259     36.735943     33.627068
     13.53673      4.58958      2.17654         3.758157      2.459581     -0.102151
     10.63467      1.34498      3.62757       105.717729     40.490773     -1.294863
      1.92850      1.34498      0.72551        -8.004940      8.258429      4.107219
     13.53673     17.56798      2.17654       -19.115657     16.032888    -43.449808
     10.63467     14.32338      3.62757      -106.127811     68.879451      0.931467
     14.21107      0.00000      3.62757         0.500023      3.112428      1.162943
     10.58349     19.46760      5.62791         1.225812     -1.773369      4.386310
      6.95592     19.46760      7.62824         0.336154      0.391695      0.079169
      3.32835     19.46760      9.62858         0.387082      0.389550     -0.202168
     14.21107     19.46760     11.62891         0.609522      1.905277    -15.795924
     10.58349     19.46759     13.62925         1.512392      3.607608     -0.430279
      9.37430      3.24460      3.62757        -4.142746      6.530530      0.069196
      5.74673      3.24460      5.62791         0.528122      0.322359      0.020157
      2.11915      3.24460      7.62824         0.330109      0.243537      0.176798
     13.00187      3.24460      9.62858         0.370923      0.295854     -0.036319
      9.37430      3.24459     11.62891         1.139364     -0.005109     -1.533402
      5.74673      3.24459     13.62925      -130.965598     27.719021     -1.270198
      4.53754      6.48920      3.62757         2.928381      6.612735      6.734130
      0.90996      6.48920      5.62791         0.311761      0.691108      0.057747
     11.79268      6.48920      7.62824         0.419117      0.330743      0.110943
      8.16511      6.48920      9.62858         0.310809      0.345083     -0.201491
      4.53754      6.48919     11.62891         0.150865      0.486443     -0.286851
      0.90996      6.48919     13.62925       136.288877     17.934858     -9.491396
     14.21107      9.73380      3.62757       -40.880072      0.921685     27.294389
     10.58349      9.73380      5.62791         0.446289      1.466019      1.325573
      6.95592      9.73380      7.62824         0.491726      0.406547      0.074014
      3.32835      9.73380      9.62858         0.309404      0.412090     -0.067996
     14.21106      9.73380     11.62891         0.629477      0.326813     -0.196835
     10.58349      9.73379     13.62925       -16.487357      1.532989    -48.192950
[...]
      5.74673     10.54495      9.62858        -0.451824     -0.280980     -0.094303
      2.11915     10.54495     11.62891        -0.350072     -0.669865     -0.030850
     13.00187     10.54495     13.62925         0.262364     -2.744135     -6.266878
     11.79269     13.78955      3.62757       125.142221    -56.943598      1.015454
      8.16511     13.78955      5.62791        -0.862382     -0.069612      1.381566
      4.53754     13.78955      7.62824        -0.387973     -0.316539      0.023780
      0.90996     13.78955      9.62858        -0.343116     -0.212816     -0.165455
     11.79268     13.78955     11.62891        -0.568132     -0.237498     -0.090995
      8.16511     13.78954     13.62925         2.289157     -3.975978     -0.210819
      6.95592     17.03415      3.62757        -0.637336     -2.219385     -0.119833
      3.32835     17.03415      5.62791        -1.133507     -3.354327     13.193620
     14.21106     17.03415      7.62824        -0.410947     -0.393579      0.213156
     10.58349     17.03415      9.62858        -0.371136     -0.405771     -0.049775
      6.95592     17.03415     11.62891        -1.450773      2.695638     -6.489839
      3.32834     17.03414     13.62925        -0.001998     -1.889029     -0.163730
    total drift:                               -0.286456     -0.090995      0.540855

  FREE ENERGIE OF THE ION-ELECTRON SYSTEM (eV)
  free  energy   TOTEN  =       195.10689172 eV

  energy  without entropy=      195.11113885  energy(sigma->0) =      195.10901528