 vasp.6.4.3 19Mar24 (build Oct 22 2024 11:23:12) complex

 executed on             LinuxIFC date 2025.06.11  09:21:20

 INCAR:
   SYSTEM = Si and Ge interface calculation
   ISTART = 0
   ICHARG = 2
   LWAVE = .FALSE.
   LREAL = AUTO
   ENCUT = 700
   ENAUG = 900
   ADDGRID = .TRUE.
   LMAXMIX = 6
   LASPH = .TRUE.
   LMIXTAU = .TRUE.
   NCORE = 16
   NELM = 100
   NBANDS = 634
   EDIFF = 1d-7
   AMIX = 0.6
   ISMEAR = 0
   SIGMA = 0.01
   NELECT = 1056
   ISPIN = 2
   NUPDOWN = 1
   LVTOT = .FALSE.
   LVHAR = .TRUE.

 POTCAR:    PAW_PBE Sn 08Apr2002
 POTCAR:    PAW_PBE Si 05Jan2001
|           W    W    AA    RRRRR   N    N  II  N    N   GGGG   !!!           |
|           W    W   A  A   R    R  NN   N  II  NN   N  G    G  !!!           |
|           W    W  A    A  R    R  N N  N  II  N N  N  G       !!!           |
|           W WW W  AAAAAA  RRRRR   N  N N  II  N  N N  G  GGG   !            |
|           WW  WW  A    A  R   R   N   NN  II  N   NN  G    G                |
|           W    W  A    A  R    R  N    N  II  N    N   GGGG   !!!           |
|     You use a magnetic or noncollinear calculation, but did not specify     |
|     the initial magnetic moment with the MAGMOM tag. Note that a            |
|     default of 3.788e-3 will be used for all atoms. This ferromagnetic      |
|     setup may break the symmetry of the crystal, in particular it may       |
|     rule out finding an antiferromagnetic solution. Thence, we              |
|     recommend setting the initial magnetic moment manually or verifying     |
|     carefully that this magnetic setup is desired.                          |

 POTCAR:    PAW_PBE Sn 08Apr2002
   VRHFIN =Sn: s2p2

   TITEL  = PAW_PBE Sn 08Apr2002
   POMASS =  118.710; ZVAL   =    4.000    mass and valenz
   ENMAX  =  103.236; ENMIN  =   77.427 eV

 POTCAR:    PAW_PBE Si 05Jan2001
   VRHFIN =Si: s2p2

   TITEL  = PAW_PBE Si 05Jan2001
   POMASS =   28.085; ZVAL   =    4.000    mass and valenz
   ENMAX  =  245.345; ENMIN  =  184.009 eV

 Optimization of the real space projectors (new method)

 maximal supplied QI-value         = 12.47
 optimisation between [QCUT,QGAM] = [ 12.47, 27.06] = [ 43.56,205.12] Ry
 Optimized for a Real-space Cutoff    1.58 Angstroem

   l    n(q)    QCUT    max X(q) W(low)/X(q) W(high)/X(q)  e(spline)
   0     13    12.472    14.688    0.45E-04    0.45E-04    0.25E-05
   0     13    12.472     7.308    0.94E-04    0.11E-03    0.61E-05
   1     12    12.472    45.102    0.34E-03    0.14E-03    0.21E-05
   1     12    12.472    30.691    0.31E-03    0.13E-03    0.20E-05
   2     12    12.472     7.156    0.86E-04    0.11E-03    0.17E-05
 WARNING: PSMAXN for non-local potential too small
          PSMAXN should be >   13.5545592237991       NTYP=           1
 Optimization of the real space projectors (new method)

 maximal supplied QI-value         = 19.84
 optimisation between [QCUT,QGAM] = [ 13.49, 26.99] = [ 50.98,203.92] Ry
 Optimized for a Real-space Cutoff    1.07 Angstroem

   l    n(q)    QCUT    max X(q) W(low)/X(q) W(high)/X(q)  e(spline)
   0      9    13.493   159.560    0.22E-03    0.15E-03    0.72E-07
   0      9    13.493   115.863    0.21E-03    0.15E-03    0.71E-07
   1      8    13.493    88.339    0.15E-03    0.11E-03    0.13E-06
   1      8    13.493    48.592    0.15E-03    0.10E-03    0.13E-06
  PAW_PBE Sn 08Apr2002                  :
  PAW_PBE Si 05Jan2001                  :

 POSCAR: Sn+Si
  positions in direct lattice

 exchange-correlation table for PE
   RHO(1)=    0.500       N(1)  =     2000
   RHO(2)=  100.500       N(2)  =     4000

 ion  position               nearest neighbor table
   1  0.078  0.583  0.109- 162 2.05  11 2.81  31 2.81  58 2.81  59 2.81 103 3.04 204 3.05
   2  0.828  0.667  0.218-  49 2.81 180 2.81 196 2.81 165 2.81 100 2.81 231 3.32
   3  0.957  0.805  0.544-  84 1.39 229 2.34 184 2.34  30 3.04  39 3.21 130 3.23
   4  0.995  0.333  0.000- 123 2.24  43 2.66  34 2.81 246 2.81 152 3.09 192 3.11 195 3.20 101 3.43

   5  0.650  0.266  0.544-  36 1.88 102 2.09 166 2.34 250 2.34  17 3.24  42 3.54
   6  0.578  0.750  0.544- 133 1.46 175 2.30 214 2.57  75 2.81 223 2.81 143 3.07 256 3.12 244 3.15

   7  0.995  0.000  0.000- 117 1.36  89 1.88  88 1.94  55 2.81  76 2.81 227 3.29 158 3.35
   8  0.328  0.333  0.000- 249 0.66 207 1.84 153 2.81 186 2.81 138 2.91 101 3.16
   9  0.662  0.000  0.436-  65 2.38  47 2.81  57 2.81 124 2.81 213 2.81 108 2.81 211 3.28 169 3.29
                           214 3.30
  10  0.328  0.667  0.000- 216 1.83 174 2.24 258 2.29 245 2.80  40 2.81  82 2.81 135 2.93 103 3.21
                           177 3.24
  11  0.162  0.667  0.218-  41 2.81   1 2.81  83 2.81  82 2.81
  12  0.381  0.920  0.544-  48 0.61 241 2.34 172 2.34  27 2.46  75 3.24
  13  0.828  0.000  0.218-  46 2.81  29 2.81 124 2.81 213 2.81  76 2.81  89 3.54
  14  0.669  0.863  0.000- 111 2.34  46 2.44  25 2.68  73 3.16  91 3.25 121 3.30  64 3.43
  15  0.842  0.228  0.544-  36 1.94  90 2.03 250 2.34 181 2.34  63 3.13  35 3.54
  16  0.328  0.000  0.000- 240 1.46 129 2.30 168 2.57  37 2.81 156 2.81 239 3.07 210 3.12 198 3.15

[...]

  38  0.245  0.917  0.327- 105 2.81  27 2.81 127 2.81 234 2.81  66 2.81
  39  0.078  0.917  0.544- 157 1.83 109 2.24 199 2.29 200 2.80  18 2.81  66 2.81 229 2.93   3 3.21
                           118 3.24
  40  0.412  0.583  0.109- 177 2.09  10 2.81  20 2.81  97 2.81 205 2.81 258 2.98
  41  0.245  0.583  0.327-  11 2.81  21 2.81 205 2.81 136 2.81  74 3.56
  42  0.578  0.250  0.327- 264 0.00 102 2.81  80 2.81  81 2.81 154 2.81   5 3.54
  43  0.938  0.209  0.000-  92 2.29 114 2.34 195 2.34   4 2.66  76 2.98  34 3.27  62 3.52
  44  0.245  0.250  0.327-  71 2.81 255 2.81  72 2.81  93 2.81
  45  0.078  0.250  0.544- 187 1.46 226 2.30 112 2.57 139 2.81  72 2.81 194 3.07 151 3.12 181 3.15

[...]

  55  0.078  0.917  0.109-  88 2.03 105 2.81   7 2.81  28 2.81 183 2.81 243 3.06
  56  0.707  0.055  0.000-  25 1.39 189 2.34 141 2.34  67 3.04  92 3.21  46 3.23
  57  0.745  0.917  0.544- 142 1.48 256 2.27 211 2.58   9 2.81  30 2.81 212 3.04 169 3.10 184 3.19
                           214 3.42
  58  0.162  0.500  0.000- 103 1.39 204 2.21 101 2.68 186 2.81   1 2.81 233 3.07 135 3.16 123 3.18
                           162 3.38
  59  0.995  0.500  0.218- 246 2.81  86 2.81 196 2.81 180 2.81   1 2.81
  60  0.828  0.500  0.436- 220 2.46  87 2.81 104 2.81  33 2.81 196 2.81 180 2.81  26 3.25  69 3.27
                           178 3.32
  61  0.162  0.167  0.000- 237 0.61 126 1.88 156 2.81  34 2.81 195 2.86 168 3.21
  62  0.995  0.167  0.218-  35 2.81  76 2.81 217 2.81 228 2.81  34 2.81  43 3.52
  63  0.912  0.083  0.544- 253 1.89 211 2.30 109 2.34 188 2.78  90 2.81  18 2.81 181 2.84  15 3.13
                           187 3.16
  64  0.495  0.833  0.000- 171 1.37 258 2.66  91 2.81  37 2.81 257 3.09 129 3.11 144 3.20  14 3.43

[...]

  82  0.245  0.750  0.109- 174 1.62  28 2.81 127 2.81 234 2.81  10 2.81  11 2.81
  83  0.078  0.750  0.327- 183 2.81  66 2.81  11 2.81 130 2.81
  84  0.912  0.750  0.544-   3 1.39 184 2.21  26 2.68  30 2.81 130 2.81 224 3.07 229 3.16 259 3.18
                           142 3.38
  85  0.631  0.670  0.000-  19 0.61 225 2.34 144 2.34  91 2.46  49 3.24
  86  0.078  0.417  0.327-  59 2.81 255 2.81 136 2.81 139 2.81 112 3.32
  87  0.912  0.417  0.544- 220 0.61 262 1.88  60 2.81 139 2.81 178 2.86 112 3.21
  88  0.092  0.978  0.000-   7 1.94  55 2.03 117 2.34 198 2.34  28 3.13 105 3.54
  89  0.900  0.016  0.000-   7 1.88  76 2.09 117 2.34 189 2.34  92 3.24  13 3.54
  90  0.828  0.167  0.436-  15 2.03  63 2.81  36 2.81  35 2.81 124 2.81 213 2.81 211 3.06
  91  0.578  0.750  0.109-  85 2.46  64 2.81 121 2.81  19 2.81  20 2.81  14 3.25 258 3.27 144 3.32

  92  0.828  0.167  0.000- 114 1.83  53 2.24  43 2.29 182 2.80  76 2.81  52 2.81 189 2.93  56 3.21
                            89 3.24
  93  0.328  0.333  0.436- 193 2.05  54 2.81  96 2.81  44 2.81  95 2.81 107 3.04 235 3.05
  94  0.578  0.417  0.109- 261 2.03  97 2.81  77 2.81  22 2.81 154 2.81  32 3.06
  95  0.412  0.417  0.327- 154 2.81 205 2.81  78 2.81  93 2.81
  96  0.245  0.417  0.544- 193 1.48 151 2.27  74 2.58 136 2.81  93 2.81 122 3.04 232 3.10 235 3.19
                           112 3.42
  97  0.495  0.500  0.000- 219 1.36 177 1.88 261 1.94  94 2.81  40 2.81 176 3.29 248 3.35
  98  0.412  0.083  0.327- 145 2.81  71 2.81  81 2.81  27 2.81
  99  0.245  0.083  0.544- 115 1.37  23 2.24 199 2.66  27 2.81  72 2.81 197 3.09 226 3.11 241 3.20

[...]

 232  0.207  0.555  0.636- 203 2.34 190 2.34  74 2.34 122 2.34  96 3.10
 233  0.092  0.478  0.818- 204 2.34 122 2.34 191 2.34 123 2.34  58 3.07
 234  0.328  0.833  0.218- 127 0.00  82 2.81  79 2.81  38 2.81  37 2.81
 235  0.361  0.324  0.636-  54 2.21 206 2.34 193 2.34 107 2.34 125 2.34  93 3.05  96 3.19
 236  0.246  0.247  0.818- 207 2.34 125 2.34 194 2.34 126 2.34
 237  0.131  0.170  0.000-  61 0.61 195 2.34 126 2.34  34 2.46
 238  0.515  0.093  0.636- 108 1.84 209 2.34  65 2.34 128 2.34  81 3.33
 239  0.400  0.016  0.818- 210 2.34 128 2.34 197 2.34 129 2.34  16 3.07
 240  0.284  0.940  0.000-  16 1.46 129 2.34 198 2.34  37 3.00  28 3.16
 241  0.284  0.940  0.636- 197 2.34  12 2.34 199 2.34 131 2.34  48 2.86  99 3.20  27 3.32
 242  0.169  0.863  0.818- 198 2.34 131 2.34 200 2.34 132 2.34  28 2.78
 243  0.054  0.786  0.000-  28 2.30 132 2.34 201 2.34  31 2.58  55 3.06 100 3.28
 244  0.438  0.709  0.636- 215 2.34 202 2.34 133 2.34 134 2.34  51 2.84   6 3.15
 245  0.323  0.632  0.818- 216 2.34 203 2.34 134 2.34 135 2.34  10 2.80
 246  0.912  0.417  0.109- 106 2.81  59 2.81 208 2.81   4 2.81 150 3.00 192 3.04
 247  0.592  0.478  0.636-  17 1.83 218 2.34  69 2.34  68 2.34 137 2.34
 248  0.477  0.401  0.818- 219 2.34 137 2.34 206 2.34 138 2.34  97 3.35
 249  0.361  0.324  0.000-   8 0.66 138 2.34 207 2.34 153 2.38
 250  0.746  0.247  0.636-  36 1.36  15 2.34 221 2.34   5 2.34 140 2.34
 251  0.631  0.170  0.818- 209 2.34 222 2.34 140 2.34 141 2.34
 252  0.515  0.093  0.000-  70 1.48  67 2.05 141 2.34 210 2.34  25 3.38
 253  0.900  0.016  0.636-  63 1.89 109 2.34 188 2.34 211 2.34 110 2.34
 254  0.784  0.940  0.818- 189 2.34 110 2.34 212 2.34 111 2.34
 255  0.162  0.333  0.218-  86 2.81  44 2.81  34 2.81 186 2.81 101 3.30
 256  0.669  0.863  0.636-  57 2.27 212 2.34 142 2.34 214 2.34 143 2.34   6 3.12
 257  0.554  0.786  0.818- 143 2.34 215 2.34 144 2.34  64 3.09
 258  0.438  0.709  0.000-  10 2.29 216 2.34 144 2.34  64 2.66  40 2.98  91 3.27
 259  0.823  0.632  0.636-  33 2.24 224 2.34  26 2.34 146 2.34  84 3.18
 260  0.707  0.555  0.818- 225 2.34 146 2.34 218 2.34 147 2.34
 261  0.592  0.478  0.000-  97 1.94  94 2.03 219 2.34 147 2.34  22 3.13
 262  0.977  0.401  0.636-  87 1.88 191 2.34 220 2.34 112 2.34 113 2.34
 263  0.861  0.324  0.818- 221 2.34 192 2.34 113 2.34 114 2.34
 264  0.578  0.250  0.327-  42 0.00 102 2.81  80 2.81  81 2.81 154 2.81

  LATTYP: Found a simple tetragonal cell.
 ALAT       =    19.4675998690
 C/A-ratio  =     0.7653871812

  Lattice vectors:

 A1 = (  19.4675998690,   0.0000000000,   0.0000000000)
 A2 = (   0.0000000000,  19.4675998690,   0.0000000000)
 A3 = (   0.0000000000,   0.0000000000,  14.9002513890)

[...]
     0.000000000  0.000000000 14.900251389     0.000000000  0.000000000  0.067112962

  length of vectors
    19.467599869 19.467599869 14.900251389     0.051367401  0.051367401  0.067112962

 FORCES acting on ions
    electron-ion (+dipol)            ewald-force                    non-local-force                 convergence-correction
   -.143E+02 0.142E+02 -.119E+03   0.143E+02 -.122E+02 0.121E+03   0.462E+01 -.290E+00 0.107E+02   0.811E+00 -.329E+01 -.972E+00
   0.112E+02 -.432E+01 -.342E+02   -.165E+02 0.124E+02 0.303E+02   0.772E+00 0.361E-02 0.165E+01   0.516E+01 -.871E+01 0.483E+01
   -.172E+02 -.848E+00 0.952E+02   0.669E+02 0.680E+02 -.976E+02   0.236E+02 0.238E+02 -.318E+01   0.204E+01 -.337E+01 0.191E+01
   0.112E+02 -.259E+02 -.910E+02   -.155E+02 0.233E+02 0.933E+02   -.438E+01 0.235E+00 0.292E+01   0.446E+01 0.352E+01 -.175E+01
   0.358E+02 0.423E+01 0.528E+02   -.494E+02 -.122E+02 -.610E+02   -.237E+02 -.462E+01 0.521E+01   -.340E+01 0.685E+01 0.123E+02
   -.330E+02 -.311E+02 0.865E+02   0.555E+02 0.630E+02 -.902E+02   0.250E+02 0.355E+02 -.302E+01   -.284E+01 -.288E+01 0.381E+01
   -.167E+01 -.190E+01 -.123E+03   0.787E+00 0.352E+01 0.178E+03   0.235E+01 0.224E+01 0.472E+02   0.387E+01 0.477E+00 -.378E+01
   0.204E+02 -.146E+02 -.108E+03   -.465E+03 0.135E+03 0.111E+03   -.272E+02 0.976E+01 0.165E+02   -.889E+00 0.300E+01 -.253E+01
   0.290E+02 0.543E+02 0.734E+02   -.147E+02 -.353E+02 -.917E+02   0.620E+01 -.566E+01 -.835E+01   -.140E+02 -.161E+02 0.171E+02
   0.460E+01 0.549E+02 -.102E+03   -.614E+01 -.497E+02 0.114E+03   -.224E+01 -.175E+02 0.143E+02   0.785E-01 -.885E+01 -.784E+01
   0.931E+01 0.205E+02 -.402E+02   -.447E+01 -.108E+02 0.414E+02   -.380E+00 -.234E+00 -.299E-01   -.442E+01 -.919E+01 -.913E+00
   0.341E+02 -.154E+01 0.800E+02   -.593E+03 0.703E+02 -.868E+02   -.610E+01 -.381E+01 -.633E+01   0.695E+00 -.169E+00 0.836E+01
   -.230E+02 0.371E+02 -.695E+01   0.845E+01 -.218E+02 0.209E+02   -.223E+01 0.126E+01 0.201E+01   0.136E+02 -.138E+02 -.126E+02
   0.471E+02 0.189E+02 -.592E+02   -.452E+02 -.155E+02 0.618E+02   -.493E+01 -.268E+01 -.928E+00   -.333E+01 -.440E+01 -.415E+01
   -.407E+02 -.297E+02 0.655E+02   0.487E+02 0.281E+02 -.666E+02   0.206E+02 0.492E+01 0.791E+01   0.588E+01 0.399E+01 0.715E+01
   -.288E+02 -.523E+02 -.765E+02   0.486E+02 0.751E+02 0.854E+02   0.242E+02 0.373E+02 0.256E+01   -.668E+00 0.616E+01 -.859E+01
   0.116E+02 0.183E+02 0.105E+03   -.798E+01 -.316E+02 -.114E+03   -.286E+01 -.183E+02 -.152E+02   -.492E+01 0.545E+01 0.537E+01
   0.696E+01 0.214E+02 0.124E+03   -.116E+02 -.167E+02 -.145E+03   0.927E+00 0.190E+01 -.370E+02   0.538E+01 -.283E+01 0.591E+01
   -.134E+02 -.406E+01 -.108E+03   0.574E+03 -.586E+02 0.105E+03   -.111E+02 0.210E+01 0.192E+02   -.253E+01 -.364E+01 -.233E+01
   -.112E+02 0.140E+02 -.381E+02   0.853E+01 -.502E+01 0.403E+02   -.836E-01 -.153E+01 0.242E+00   0.338E+01 -.802E+01 -.174E+01
   0.684E+01 0.330E+02 0.107E+03   -.613E+01 -.260E+02 -.116E+03   -.182E+01 -.645E+01 -.933E+01   -.181E+00 -.707E+01 0.803E+01
   -.755E+01 -.444E+02 -.103E+03   0.117E+02 0.443E+02 0.110E+03   0.341E+01 0.168E+02 0.125E+02   -.278E+01 0.546E+01 -.499E+01
   -.453E+02 -.344E+01 0.475E+02   0.506E+02 0.353E+01 -.472E+02   0.664E+01 0.295E+01 0.242E+01   -.127E+01 0.127E+01 0.245E+01
   0.578E+00 0.920E+01 0.118E+03   -.162E+01 -.446E+01 -.179E+03   0.190E+01 0.186E+01 -.421E+02   0.120E+01 -.267E+01 0.669E+01
   0.147E+02 0.424E+02 -.739E+02   -.647E+02 -.102E+03 0.814E+02   -.167E+02 -.296E+02 0.347E+01   -.389E+01 -.189E+01 -.766E+01
   0.400E+01 0.151E+02 0.731E+02   -.459E+01 -.160E+02 -.698E+02   -.142E+01 -.270E+01 -.264E+01   0.121E+01 0.759E+00 -.274E+01
   -.989E+01 -.279E+02 0.809E+02   0.105E+02 0.248E+02 -.921E+02   -.397E+01 0.487E+01 -.540E+01   0.943E-01 0.276E+01 0.111E+02
   -.749E+00 -.291E+02 -.981E+02   0.437E+01 0.335E+02 0.109E+03   0.258E+01 0.147E+02 0.116E+02   -.226E+01 -.227E+01 -.772E+01
   -.209E+01 0.240E+02 0.365E+02   -.305E+01 -.154E+02 -.376E+02   0.247E+00 -.765E+00 -.882E+00   0.563E+01 -.829E+01 0.121E+01
   -.859E+01 0.235E+02 0.117E+03   0.836E+01 -.168E+02 -.120E+03   0.380E+01 -.786E+00 -.111E+02   0.125E+01 -.827E+01 0.266E+01
   0.336E+01 -.355E+02 -.887E+02   -.125E+02 0.711E+02 0.900E+02   -.953E+01 0.424E+02 0.187E+01   0.216E+01 -.463E+01 -.198E+00
   0.179E+02 -.679E+01 -.853E+02   -.148E+02 0.908E+00 0.929E+02   -.409E+01 -.566E+00 0.218E+01   -.630E+01 0.453E+01 -.623E+01
   0.218E+02 -.220E+02 0.889E+02   -.195E+02 0.206E+02 -.897E+02   -.481E+01 0.492E+00 -.276E+01   -.175E+01 0.214E+01 0.817E-01
   0.625E+01 -.384E+02 -.998E+02   -.911E+01 0.299E+02 0.987E+02   -.458E+00 0.294E+01 0.400E+01   0.413E+01 0.630E+01 -.968E+00
   -.157E+02 -.257E+02 0.433E+02   0.584E+01 0.172E+02 -.432E+02   0.208E+00 0.127E+01 -.558E+00   0.967E+01 0.833E+01 -.182E+00
   -.376E+01 -.181E+02 0.110E+03   0.554E+01 0.143E+02 -.171E+03   0.247E+01 0.174E+01 -.467E+02   0.100E+01 0.631E+01 0.973E+01
   -.203E+02 -.247E+02 -.867E+02   0.102E+02 0.149E+02 0.104E+03   -.591E+01 -.845E-01 0.104E+02   0.862E+01 0.958E+01 -.148E+02
   0.175E+02 -.191E+02 0.555E+01   -.558E+01 0.784E+01 -.219E+02   0.988E+00 -.204E+01 -.980E+00   -.973E+01 0.106E+02 0.142E+02
   0.174E+01 0.520E+02 0.104E+03   -.698E+01 -.542E+02 -.113E+03   -.229E+01 -.177E+02 -.148E+02   0.370E+01 -.130E+01 0.410E+01
   -.450E+01 -.677E+01 -.114E+03   0.458E+01 0.134E+02 0.120E+03   0.111E+01 0.540E+01 0.758E+01   -.887E+00 -.676E+01 -.477E+01
   0.666E+01 0.106E+02 0.306E+02   -.629E+01 -.478E+01 -.326E+02   0.349E+00 -.226E+00 0.265E+00   -.835E+00 -.682E+01 0.152E+01
   0.227E+02 -.148E+02 0.363E+02   -.113E+02 0.458E+01 -.366E+02   -.203E+01 0.148E+01 -.167E+01   -.988E+01 0.902E+01 0.443E+00
   -.192E+02 -.250E+02 -.904E+02   0.188E+02 0.217E+02 0.951E+02   0.436E+01 0.210E+01 0.178E+01   0.408E+01 0.411E+01 -.357E+01
   -.524E+01 -.120E+02 0.362E+02   0.553E+01 0.821E+01 -.369E+02   -.295E+00 0.641E+00 -.117E+01   -.589E+00 0.383E+01 0.699E+00
   -.321E+02 -.585E+02 0.858E+02   0.453E+02 0.847E+02 -.880E+02   0.244E+02 0.374E+02 -.265E+01   0.570E+01 0.287E+01 0.211E+01
   0.224E+01 0.110E+02 -.906E+02   0.608E+00 -.391E+01 0.982E+02   0.255E+01 0.981E+00 0.465E+01   -.171E+01 -.717E+01 -.646E+01
   0.725E+01 0.164E+02 0.351E+02   -.290E+01 -.877E+01 -.388E+02   0.227E+00 0.183E+00 -.141E+01   -.458E+01 -.769E+01 0.342E+01
   -.188E+02 -.118E+02 0.987E+02   0.580E+03 -.546E+02 -.102E+03   -.115E+02 0.240E+01 -.189E+02   -.249E+01 -.429E+00 0.818E+01
   0.109E+02 0.938E+01 -.105E+03   -.117E+02 -.710E+01 0.106E+03   -.115E+01 -.152E+01 0.304E+01   -.763E-01 -.820E+00 -.952E+00
   -.357E+02 0.754E+01 -.879E+02   0.482E+03 -.130E+03 0.885E+02   0.762E+01 0.358E+01 0.487E+01   0.165E+01 -.443E+01 -.200E+01
   -.598E+01 -.315E+02 0.109E+03   0.895E+01 0.392E+02 -.115E+03   0.341E+01 0.163E+02 -.124E+02   -.161E+01 -.194E+01 0.378E+01
   -.991E+01 -.199E+02 -.954E+02   0.716E+01 0.123E+02 0.149E+03   0.484E+00 0.159E+01 0.360E+02   0.203E+01 0.904E+01 -.104E+02
   -.329E+01 -.127E+02 -.654E+02   0.282E+01 0.647E+01 0.298E+02   -.101E+01 0.542E+00 -.306E+02   -.694E-01 0.531E+01 -.613E+01
   0.974E+01 0.438E+02 0.843E+02   -.566E+02 -.109E+03 -.906E+02   -.161E+02 -.310E+02 -.366E+01   -.678E+01 0.336E+01 0.588E+01
   0.678E+01 0.201E+02 -.105E+03   -.724E+01 -.243E+02 0.116E+03   -.291E+01 -.946E+01 0.131E+02   0.124E+00 -.890E+00 -.392E+01
   -.713E+01 -.528E+01 -.810E+02   0.622E+02 0.704E+02 0.907E+02   0.229E+02 0.233E+02 0.257E+01   -.288E+01 -.638E+00 -.915E+01
   0.117E+02 -.235E+02 0.779E+02   -.169E+02 0.632E+02 -.864E+02   -.979E+01 0.421E+02 -.178E+01   -.145E+01 -.835E+01 0.740E+01
   0.456E+01 0.278E+02 -.936E+02   -.617E+02 -.871E+02 0.952E+02   -.152E+02 -.292E+02 0.452E+01   0.330E+01 -.209E+01 -.165E+01
   -.146E+02 0.125E+02 -.189E+02   0.153E+02 -.186E+02 0.176E+02   -.148E+01 0.975E+00 0.824E+00   -.134E+01 0.570E+01 0.168E+01
   0.209E+02 -.232E+02 0.983E+02   -.197E+02 0.104E+02 -.884E+02   -.100E+01 0.367E+01 -.488E+01   0.141E+01 0.103E+02 -.771E+01
[...]
   0.659E+01 0.785E+00 -.107E+02   -.228E+01 -.344E+01 0.977E+01   0.225E+00 0.539E+00 0.195E+00   -.446E+01 0.195E+01 0.348E+00
   0.199E+02 0.512E+02 -.619E+02   -.261E+01 -.916E+02 0.689E+02   0.124E+01 -.321E+02 -.836E+01   -.541E+01 0.235E+01 -.676E+01
   0.410E+01 0.366E+02 0.112E+01   -.973E+01 -.384E+02 -.284E+01   -.117E+01 -.107E+02 0.118E+02   0.436E+01 -.991E+00 0.479E+01
   0.965E+01 0.589E+01 -.908E+01   -.897E+01 -.519E+01 0.106E+02   0.588E+00 0.526E+00 -.682E+00   -.133E+01 -.120E+01 -.151E+01
   -.186E+00 -.116E+02 -.348E+02   -.230E+01 0.878E+01 0.372E+02   -.259E+00 -.109E+00 -.144E+00   0.315E+01 0.328E+01 -.189E+01
   0.206E+02 0.257E+02 0.195E+02   -.196E+02 -.211E+02 -.204E+02   -.707E+00 -.282E+01 0.150E+01   -.387E+01 -.419E+01 0.266E+01
   -.103E+02 -.248E+02 -.235E+02   0.125E+02 0.276E+02 0.245E+02   0.740E+00 0.108E+01 0.752E+00   -.271E+01 -.324E+01 -.168E+01
   -.256E+02 0.421E+01 -.817E+02   0.257E+02 0.456E+01 0.913E+02   0.240E+01 0.369E+00 -.837E+00   0.177E+01 -.757E+01 -.819E+01
   0.136E+02 -.165E+02 0.451E+02   -.124E+02 0.152E+02 -.452E+02   0.802E-01 0.335E+01 0.375E+01   -.626E+00 0.161E+00 0.558E+00
   0.284E+01 -.492E+01 -.417E+01   0.850E+00 0.388E+01 0.233E+01   -.495E+00 0.312E+00 -.574E+00   -.315E+01 0.673E+00 0.175E+01
   -.386E+02 -.276E+02 -.704E+02   0.464E+02 0.240E+02 0.737E+02   0.126E+02 0.528E+01 -.887E+01   -.346E+01 0.232E+01 -.286E+01
   -.504E+02 -.830E+01 -.434E+01   0.380E+02 0.869E+01 -.244E+01   0.158E+02 -.360E+01 0.170E+02   0.103E+02 0.132E+00 0.496E+01
   -.955E+01 -.126E+02 -.230E+02   0.728E+01 0.107E+02 0.197E+02   0.808E-02 -.190E+00 0.763E+00   0.213E+01 0.227E+01 0.206E+01
   0.224E+02 -.142E+02 0.361E+02   -.113E+02 0.458E+01 -.366E+02   -.195E+01 0.179E+01 0.468E+00   -.100E+02 0.910E+01 0.502E+00
   -.138E+03 -.688E+02 -.136E+02   0.574E-12 -.187E-12 -.199E-12   0.121E+03 0.437E+02 -.748E+01   0.123E+02 0.204E+02 0.218E+02

 POSITION                                       TOTAL-FORCE (eV/Angst)
      1.52565     11.35610      1.62230         5.361326     -1.591509     10.968977
     16.12635     12.97840      3.24460         0.630607     -0.614416      2.536790
     18.63890     15.67053      8.11150        75.374733     87.569172     -3.609803
     19.37095      6.48920      0.00000        -4.220219      1.199680      3.476978
     12.64886      5.18797      8.11150       -40.626510     -5.707572      9.335082
     11.25944     14.60070      8.11150        44.686644     64.584032     -2.943697
     19.37095      0.00000      0.00000         5.351721      4.352981     97.913543
      6.39255      6.48920      0.00000      -473.200522    133.138007     16.902623
     12.88174      0.00000      6.48920         6.468883     -2.704451     -9.537813
      6.39255     12.97840      0.00000        -3.681390    -21.139741     18.668674
      3.14794     12.97840      3.24460         0.057469      0.311574      0.251018
      7.40759     17.91679      8.11150      -564.221797     64.803424     -4.751217
     16.12635      0.00000      3.24460        -3.159341      2.744774      3.366288
     13.02324     16.79366      0.00000        -6.374571     -3.676497     -2.507870
     16.39263      4.43922      8.11150        34.547260      7.278053     13.961509
      6.39255      0.00000      0.00000        43.321511     66.308503      2.926681
     11.25944      8.11150      8.11150        -4.131999    -26.113416    -18.671713
     19.37095      0.00000      6.48920         1.662644      3.724727    -52.695799
     12.88175     12.97840      0.00000       546.585852    -64.202719     14.244308
      9.63715     12.97840      3.24460         0.667804     -0.576289      0.761369
      6.39255     12.97840      6.48920        -1.277740     -6.419208    -10.544927
     12.88175      6.48920      0.00000         4.810843     22.148623     14.556788
      6.28446      2.56734      9.46925        10.743667      4.327534      5.138138
      4.77025     14.60070      8.11150         2.079105      3.945314    -95.873326
     12.88175      0.00000      0.00000       -70.508170    -90.785289      3.317165
     17.89014     11.92676      8.11150        -0.784838     -2.853299     -2.044705
      6.39255      0.00000      6.48920        -3.222236      4.607022     -5.475329
      3.14795     16.22300      0.00000         3.949214     16.962117     14.543635
     17.74865     17.84530      4.86690         0.748455     -0.389685     -0.717934
     16.12635     16.22300      6.48920         4.828148     -2.297185    -11.502220
     19.37095     12.97840      0.00000       -16.498795     73.384600      2.975104
     10.77698      5.56235      0.00000        -7.336514     -1.897873      3.546025
     14.50404     11.35610      8.11150        -4.209586      1.202410     -3.396833
      1.52565      4.86690      1.62230         0.834534      0.710988      1.907097
     17.74865      4.86690      4.86690        -0.003015      1.069071     -0.612317
     14.50404      4.86690      8.11150         5.270908      4.286153    -97.790270
      8.01485     17.84530      1.62230        -7.416673     -0.250706     13.017961
      4.77025     17.84530      4.86690         3.158464     -2.702287     -3.126874
      1.52564     17.84530      8.11150        -3.807353    -21.188279    -18.780994
      8.01485     11.35610      1.62230         0.325711      5.329991      8.650355
      4.77025     11.35610      4.86690        -0.107534     -1.204524     -0.228335
     11.25945      4.86690      4.86690        -0.455870      0.315940     -1.572875
     18.26451      4.06484      0.00000         8.038121      2.951003      2.868688
      4.77025      4.86690      4.86690        -0.572017      0.695153     -1.164361
      1.52564      4.86690      8.11150        43.274955     66.456101     -2.786563
     14.50405     17.84530      1.62230         3.710820      0.928963      5.799712
     11.25945     17.84530      4.86690         0.025377      0.129351     -1.757666
      8.01485     17.84530      8.11150       547.259350    -64.420691    -14.420269
     14.50405     11.35610      1.62230        -2.040367     -0.043567      3.353862
     16.76701     16.04490      0.00000       455.419879   -123.048982      3.423482
      8.01485     11.35610      8.11150         4.784950     22.131873    -14.486550
     14.50405      4.86690      1.62230        -0.213509      3.105142     79.367666
     14.52074      4.81360      0.00000        -1.533592     -0.326547    -72.415214
      8.01485      4.86690      8.11150       -69.666618    -92.623166     -4.049366
      1.52565     17.84530      1.62230        -3.218823    -14.565146     20.512016
     13.77199      1.06983      0.00000        75.104172     87.807973      3.197696
     14.50404     17.84530      8.11150       -16.478659     73.394935     -2.935928
      3.14795      9.73380      0.00000       -69.112358    -90.561452      4.448357
     19.37094      9.73380      3.24460        -2.064607      0.623456      1.196007
     16.12635      9.73380      6.48920         1.591985      1.138082     -2.669014
[...]
     14.52075      4.81360      9.46925         1.602640     -3.692261    105.408447
     12.27449      3.31609     12.18475         0.097165     -0.147000     -0.375756
     10.02822      1.81858      0.00000        13.119258    -70.078933     -8.161510
     17.51576      0.32107      9.46925        -2.414775    -13.541089     14.845072
     15.26950     18.29117     12.18475        -0.048194      0.041969     -0.642116
      3.14794      6.48920      3.24460         0.424553      0.375147      0.281241
     13.02324     16.79366      9.46925        -3.552471     -2.351422      3.230029
     10.77698     15.29615     12.18475         0.201832      0.578723      0.065432
      8.53072     13.79864      0.00000         4.313045      1.581450      0.509354
     16.01826     12.30114      9.46925         0.676890      2.184198      4.249043
     13.77199     10.80363     12.18475         0.056919     -0.039901     -0.663391
     11.52573      9.30612      0.00000        16.959656      4.038437     -8.420096
     19.01327      7.80861      9.46925        13.652076     -3.061097     15.183774
     16.76701      6.31111     12.18475        -0.114960      0.215435     -0.416712
     11.25945      4.86690      4.86690        -0.899371      1.323708      0.480131
    total drift:                               -4.391451     -4.719652      0.702015

  FREE ENERGIE OF THE ION-ELECTRON SYSTEM (eV)
  free  energy   TOTEN  =       395.44113693 eV

  energy  without entropy=      395.44731570  energy(sigma->0) =      395.44422631