 vasp.6.4.3 19Mar24 (build Oct 22 2024 11:23:12) complex

 executed on             LinuxIFC date 2025.04.30  10:13:44

 INCAR:
   SYSTEM = Si011 and Ge011 interface calculation
   ISTART = 0
   ICHARG = 2
   LWAVE = .FALSE.
   LREAL = AUTO
   ENCUT = 700
   ENAUG = 900
   ADDGRID = .TRUE.
   LMAXMIX = 6
   LASPH = .TRUE.
   LMIXTAU = .TRUE.
   NCORE = 16
   NELM = 100
   NBANDS = 116
   EDIFF = 1d-7
   AMIX = 0.6
   ISMEAR = 0
   SIGMA = 0.01
   NELECT = 192
   ISPIN = 2
   NUPDOWN = 1
   LVTOT = .FALSE.
   LVHAR = .TRUE.

 POTCAR:    PAW_PBE Si 05Jan2001
 POTCAR:    PAW_PBE Ge 05Jan2001
|           W    W    AA    RRRRR   N    N  II  N    N   GGGG   !!!           |
|           W    W   A  A   R    R  NN   N  II  NN   N  G    G  !!!           |
|           W    W  A    A  R    R  N N  N  II  N N  N  G       !!!           |
|           W WW W  AAAAAA  RRRRR   N  N N  II  N  N N  G  GGG   !            |
|           WW  WW  A    A  R   R   N   NN  II  N   NN  G    G                |
|           W    W  A    A  R    R  N    N  II  N    N   GGGG   !!!           |
|     You use a magnetic or noncollinear calculation, but did not specify     |
|     the initial magnetic moment with the MAGMOM tag. Note that a            |
|     default of 0.021 will be used for all atoms. This ferromagnetic         |
|     setup may break the symmetry of the crystal, in particular it may       |
|     rule out finding an antiferromagnetic solution. Thence, we              |
|     recommend setting the initial magnetic moment manually or verifying     |
|     carefully that this magnetic setup is desired.                          |

 POTCAR:    PAW_PBE Si 05Jan2001
   VRHFIN =Si: s2p2

   TITEL  = PAW_PBE Si 05Jan2001
   POMASS =   28.085; ZVAL   =    4.000    mass and valenz
   ENMAX  =  245.345; ENMIN  =  184.009 eV

 POTCAR:    PAW_PBE Ge 05Jan2001
   VRHFIN =Ge: s2p2

   TITEL  = PAW_PBE Ge 05Jan2001
   POMASS =   72.610; ZVAL   =    4.000    mass and valenz
   ENMAX  =  173.807; ENMIN  =  130.355 eV

 Optimization of the real space projectors (new method)

 maximal supplied QI-value         = 19.84
 optimisation between [QCUT,QGAM] = [ 13.49, 26.99] = [ 50.98,203.92] Ry
 Optimized for a Real-space Cutoff    1.07 Angstroem

   l    n(q)    QCUT    max X(q) W(low)/X(q) W(high)/X(q)  e(spline)
   0      9    13.493   159.560    0.22E-03    0.15E-03    0.72E-07
   0      9    13.493   115.863    0.21E-03    0.15E-03    0.71E-07
   1      8    13.493    88.339    0.15E-03    0.11E-03    0.13E-06
   1      8    13.493    48.592    0.15E-03    0.10E-03    0.13E-06
 Optimization of the real space projectors (new method)

 maximal supplied QI-value         = 16.25
 optimisation between [QCUT,QGAM] = [ 13.49, 26.98] = [ 50.95,203.80] Ry
 Optimized for a Real-space Cutoff    1.25 Angstroem

   l    n(q)    QCUT    max X(q) W(low)/X(q) W(high)/X(q)  e(spline)
   0     10    13.489    65.336    0.91E-04    0.11E-03    0.34E-06
   0     10    13.489    52.220    0.89E-04    0.11E-03    0.34E-06
   1     10    13.489    36.409    0.22E-03    0.27E-03    0.14E-06
   1     10    13.489    21.334    0.21E-03    0.27E-03    0.14E-06
   2      9    13.489     4.673    0.11E-03    0.12E-03    0.19E-06
  PAW_PBE Si 05Jan2001                  :
  PAW_PBE Ge 05Jan2001                  :

 POSCAR: fcc Si+fcc Ge
  positions in direct lattice

 exchange-correlation table for PE
   RHO(1)=    0.500       N(1)  =     2000
   RHO(2)=  100.500       N(2)  =     4000

 ion  position               nearest neighbor table
   1  0.898  0.000  0.902-  30 2.37  36 2.37  29 2.43  42 2.46
   2  0.250  0.750  0.079-  19 2.37  14 2.37  20 2.37  15 2.37
   3  0.500  0.500  0.158-  16 2.37  15 2.37  21 2.37  20 2.37
   4  0.750  0.250  0.237-  21 2.37  17 2.37  16 2.37  22 2.37
   5  0.000  0.000  0.316-  18 2.37  22 2.37  17 2.37  23 2.37
   6  0.148  0.750  0.494-  25 2.37  31 2.37  32 2.43  37 2.46
   7  0.500  0.500  0.000-  20 2.37  19 2.37  48 2.37  13 2.46
   8  0.750  0.250  0.079-  48 2.37  20 2.37  14 2.37  21 2.37
   9  0.000  0.000  0.158-  22 2.37  21 2.37  15 2.37  14 2.37
  10  0.250  0.750  0.237-  15 2.37  23 2.37  22 2.37  16 2.37
  11  0.500  0.500  0.316-  43 2.37  16 2.37  23 2.37  17 2.37
  12  0.750  0.250  0.396-  17 2.37  43 2.37  18 2.37  24 2.46
  13  0.398  0.500  0.902-  36 2.37  30 2.37  35 2.43   7 2.46
  14  0.250  0.000  0.079-  42 2.37   8 2.37   2 2.37   9 2.37
  15  0.500  0.750  0.158-  10 2.37   9 2.37   3 2.37   2 2.37
  16  0.750  0.500  0.237-   3 2.37  11 2.37  10 2.37   4 2.37
  17  0.000  0.250  0.316-  12 2.37   4 2.37  11 2.37   5 2.37
  18  0.250  0.000  0.396-   5 2.37  12 2.37  37 2.37  25 2.46
  19  0.500  0.750  0.000-   2 2.37   7 2.37  42 2.37  36 2.46
  20  0.750  0.500  0.079-   7 2.37   2 2.37   8 2.37   3 2.37
  21  0.000  0.250  0.158-   4 2.37   3 2.37   9 2.37   8 2.37
  22  0.250  0.000  0.237-   9 2.37   5 2.37   4 2.37  10 2.37
  23  0.500  0.750  0.316-  37 2.37  10 2.37  11 2.37   5 2.37
  24  0.648  0.250  0.494-  31 2.37  25 2.37  26 2.43  12 2.46
  25  0.148  0.000  0.494-   6 2.37  24 2.37  38 2.43  18 2.46
  26  0.898  0.250  0.575-  38 2.37  44 2.37  39 2.43  24 2.43
  27  0.648  0.500  0.657-  39 2.37  45 2.37  44 2.43  40 2.43
  28  0.398  0.750  0.739-  40 2.37  46 2.37  45 2.43  41 2.43
  29  0.148  0.000  0.820-  41 2.37  47 2.37   1 2.43  46 2.43
  30  0.898  0.250  0.902-   1 2.37  13 2.37  47 2.43  48 2.46
  31  0.648  0.500  0.494-   6 2.37  24 2.37  44 2.43  43 2.46
  32  0.398  0.750  0.575-  38 2.37  44 2.37  45 2.43   6 2.43
  33  0.148  0.000  0.657-  39 2.37  45 2.37  38 2.43  46 2.43
  34  0.898  0.250  0.739-  40 2.37  46 2.37  39 2.43  47 2.43
  35  0.648  0.500  0.820-  41 2.37  47 2.37  13 2.43  40 2.43
  36  0.398  0.750  0.902-   1 2.37  13 2.37  41 2.43  19 2.46
  37  0.250  0.750  0.396-  23 2.37  18 2.37  43 2.37   6 2.46
  38  0.898  0.000  0.575-  26 2.37  32 2.37  33 2.43  25 2.43
  39  0.648  0.250  0.657-  27 2.37  33 2.37  34 2.43  26 2.43
  40  0.398  0.500  0.739-  28 2.37  34 2.37  35 2.43  27 2.43
  41  0.148  0.750  0.820-  29 2.37  35 2.37  36 2.43  28 2.43
  42  0.000  0.000  0.000-  14 2.37  48 2.37  19 2.37   1 2.46
  43  0.750  0.500  0.396-  11 2.37  12 2.37  37 2.37  31 2.46
  44  0.398  0.500  0.575-  32 2.37  26 2.37  27 2.43  31 2.43
  45  0.148  0.750  0.657-  33 2.37  27 2.37  28 2.43  32 2.43
  46  0.898  0.000  0.739-  34 2.37  28 2.37  29 2.43  33 2.43
  47  0.648  0.250  0.820-  35 2.37  29 2.37  30 2.43  34 2.43
  48  0.000  0.250  0.000-   8 2.37   7 2.37  42 2.37  30 2.46

  LATTYP: Found a simple orthorhombic cell.
 ALAT       =     5.4800000000
 B/A-ratio  =     1.4142135624
 C/A-ratio  =     4.4695116526

  Lattice vectors:

 A1 = (   5.4800000000,   0.0000000000,   0.0000000000)
 A2 = (   0.0000000000,   7.7498903220,   0.0000000000)
 A3 = (   0.0000000000,   0.0000000000,  24.4929238560)

Analysis of symmetry for initial positions (statically):
 Subroutine PRICEL returns:
 Original cell was already a primitive cell.

 Routine SETGRP: Setting up the symmetry group for a
 simple orthorhombic supercell.

 Subroutine GETGRP returns: Found  2 space group operations
 (whereof  1 operations were pure point group operations)
 out of a pool of  8 trial point group operations.

The static configuration has the point symmetry C_1 .
 The point group associated with its full space group is C_2 .

Analysis of symmetry for dynamics (positions and initial velocities):
 Subroutine PRICEL returns:
 Original cell was already a primitive cell.

[...]

The dynamic configuration has the point symmetry C_1 .
 The point group associated with its full space group is C_2 .

Analysis of structural, dynamic, and magnetic symmetry:
 Subroutine PRICEL returns:
 Original cell was already a primitive cell.

 Routine SETGRP: Setting up the symmetry group for a
 simple orthorhombic supercell.

 Subroutine GETGRP returns: Found  2 space group operations
 (whereof  1 operations were pure point group operations)
 out of a pool of  8 trial point group operations.

The overall configuration has the point symmetry C_1 .
 The point group associated with its full space group is C_2 .

 Subroutine INISYM returns: Found  2 space group operations
 (whereof  1 operations are pure point group operations),
 and found     1 'primitive' translations

                                     Primitive cell

  volume of cell :    1040.1998

  direct lattice vectors                    reciprocal lattice vectors
     5.480000000  0.000000000  0.000000000     0.182481752  0.129034084  0.000000000
    -5.480000000  7.749890322  0.000000000     0.000000000  0.129034084  0.000000000
     0.000000000  0.000000000 24.492923856     0.000000000  0.000000000  0.040828119

  length of vectors
     5.480000000  9.491638426 24.492923856     0.223493590  0.129034084  0.040828119

  position of ions in fractional coordinates (direct lattice)
     0.898148148  0.000000000  0.902012515
     0.250000000  0.750000000  0.079103360
     0.500000000  0.500000000  0.158206721
     0.750000000  0.250000000  0.237310081
     0.000000000  0.000000000  0.316413441
     0.148148148  0.750000000  0.493504286
     0.500000000  0.500000000  0.000000000
     0.750000000  0.250000000  0.079103360
     0.000000000  0.000000000  0.158206721
     0.250000000  0.750000000  0.237310081
     0.500000000  0.500000000  0.316413441
     0.750000000  0.250000000  0.395516801
     0.398148148  0.500000000  0.902012515
     0.250000000  0.000000000  0.079103360
     0.500000000  0.750000000  0.158206721
     0.750000000  0.500000000  0.237310081
     1.000000000  0.250000000  0.316413441
     0.250000000  0.000000000  0.395516801
     0.500000000  0.750000000  0.000000000
     0.750000000  0.500000000  0.079103360
     1.000000000  0.250000000  0.158206721
     0.250000000  0.000000000  0.237310081
     0.500000000  0.750000000  0.316413441
     0.648148148  0.250000000  0.493504286
     0.148148148  0.000000000  0.493504286
     0.898148148  0.250000000  0.575205932
     0.648148148  0.500000000  0.656907578
     0.398148148  0.750000000  0.738609224
     0.148148148  0.000000000  0.820310870
     0.898148148  0.250000000  0.902012515
     0.648148148  0.500000000  0.493504286
     0.398148148  0.750000000  0.575205932
     0.148148148  0.000000000  0.656907578
     0.898148148  0.250000000  0.738609224
     0.648148148  0.500000000  0.820310870
     0.398148148  0.750000000  0.902012515
     0.250000000  0.750000000  0.395516801
     0.898148148  0.000000000  0.575205932
     0.648148148  0.250000000  0.656907578
     0.398148148  0.500000000  0.738609224
     0.148148148  0.750000000  0.820310870
     0.000000000  0.000000000  0.000000000
     0.750000000  0.500000000  0.395516801
     0.398148148  0.500000000  0.575205932
     0.148148148  0.750000000  0.656907578
     0.898148148  0.000000000  0.738609224
     0.648148148  0.250000000  0.820310870
     1.000000000  0.250000000  0.000000000

  ion indices of the primitive-cell ions
   primitive index   ion index
                 1           1
                 2           2
                 3           3
                 4           4
                 5           5
[...]
     42      -1.7019      1.00000
     43      -0.9516      1.00000
     44      -0.6685      1.00000
     45      -0.1950      1.00000
     46      -0.1348      1.00000
     47       0.2557      1.00000
     48       0.2621      1.00000
     49       0.2900      1.00000
     50       0.4855      1.00000
     51       0.4965      1.00000
     52       0.7043      1.00000
     53       0.7903      1.00000
     54       1.0503      1.00000
     55       1.0767      1.00000
     56       1.1098      1.00000
     57       1.2172      1.00000
     58       1.2351      1.00000
     59       1.2853      1.00000
     60       1.3538      1.00000
[...]
    102       5.5294      0.00000
    103       5.9111      0.00000
    104       6.0233      0.00000
    105       6.1723      0.00000
    106       6.2187      0.00000
    107       6.2710      0.00000
    108       6.2917      0.00000
    109       6.4715      0.00000
    110       6.5407      0.00000
    111       6.5880      0.00000
    112       6.6248      0.00000
    113       6.7738      0.00000
    114       6.8463      0.00000
    115       6.9286      0.00000
    116       7.1995      0.00000
 Fermi energy:         4.2392783528

 spin component 2

[...]

 k-point    15 :       0.4286    0.5000    0.0000
  band No.  band energies     occupation
      1      -7.5571      1.00000
      2      -7.3270      1.00000
      3      -7.1912      1.00000
      4      -6.9373      1.00000
      5      -6.7522      1.00000
      6      -6.5399      1.00000
      7      -6.4038      1.00000
      8      -6.0911      1.00000
      9      -5.9604      1.00000
     10      -5.9418      1.00000
     11      -5.7624      1.00000
     12      -5.6225      1.00000
     13      -5.5586      1.00000
     14      -5.4849      1.00000
     15      -5.3062      1.00000
     16      -5.2491      1.00000
     17      -5.0906      1.00000
     18      -5.0179      1.00000
     19      -4.8994      1.00000
     20      -4.8239      1.00000
     21      -4.6148      1.00000
     22      -4.5953      1.00000
     23      -3.9815      1.00000
     24      -3.9344      1.00000
     25      -3.8268      1.00000
     26      -3.7936      1.00000
     27      -3.2833      1.00000
     28      -3.1480      1.00000
     29      -3.0563      1.00000
     30      -2.9481      1.00000
     31      -2.7808      1.00000
     32      -2.6844      1.00000
     33      -2.5104      1.00000
     34      -2.3675      1.00000
     35      -2.2762      1.00000
     36      -2.2238      1.00000
     37      -2.1362      1.00000
     38      -2.1016      1.00000
     39      -1.9120      1.00000
     40      -1.8651      1.00000
     41      -1.7531      1.00000
     42      -1.6798      1.00000
     43      -0.9333      1.00000
     44      -0.6495      1.00000
     45      -0.1769      1.00000
     46      -0.1149      1.00000
     47       0.2740      1.00000
     48       0.2820      1.00000
     49       0.3085      1.00000
     50       0.5078      1.00000
     51       0.5160      1.00000
     52       0.7205      1.00000
     53       0.8054      1.00000
     54       1.0747      1.00000
     55       1.0986      1.00000
     56       1.1275      1.00000
     57       1.2363      1.00000
     58       1.2560      1.00000
     59       1.3064      1.00000
     60       1.3754      1.00000
[...]
    102       5.5494      0.00000
    103       5.9295      0.00000
    104       6.0438      0.00000
    105       6.1877      0.00000
    106       6.2412      0.00000
    107       6.2915      0.00000
    108       6.3075      0.00000
    109       6.4868      0.00000
    110       6.5600      0.00000
    111       6.6047      0.00000
    112       6.6423      0.00000
    113       6.7980      0.00000
    114       6.8632      0.00000
    115       6.9470      0.00000
    116       7.2192      0.00000

 soft charge-density along one line, spin component           1
         0         1         2         3         4         5         6         7         8         9
 total charge-density along one line

 soft charge-density along one line, spin component           2
         0         1         2         3         4         5         6         7         8         9
 total charge-density along one line

------------------------ aborting loop because EDIFF is reached ----------------------------------------

  FORCE on cell =-STRESS in cart. coord.  units (eV):
  Direction    XX          YY          ZZ          XY          YZ          ZX
  Alpha Z   248.95637   248.95637   248.95637
  Ewald   -1975.23017 -1520.63783 -1700.35822    -0.00000    -0.00000    -0.00000
  Hartree    74.95203   278.27170   142.49323     0.00000     0.00064     0.00000
  E(xc)    -638.60275  -639.46180  -637.33221    -0.00000     0.00060     0.00000
  Local    -406.58216 -1064.25754  -737.66767    -0.00009     0.00181     0.00000
  n-local  1412.89229  1432.99169  1418.73644    -0.03001     0.06288     0.01023
  augment  -111.89726  -112.88094  -111.27872     0.00012    -0.00071     0.00000
  Kinetic  1432.62452  1419.99597  1390.06065    -0.03676    -0.01276     0.00099
  Fock        0.00000     0.00000     0.00000     0.00000     0.00000     0.00000
  Total      37.11287    42.97763    13.60987    -0.00000     0.05246    -0.00000
  in kB      57.16345    66.19669    20.96272    -0.00000     0.08080    -0.00000

 VOLUME and BASIS-vectors are now :
  energy-cutoff  :      700.00
  volume of cell :     1040.20
      direct lattice vectors                 reciprocal lattice vectors
     5.480000000  0.000000000  0.000000000     0.182481752  0.129034084  0.000000000
    -5.480000000  7.749890322  0.000000000     0.000000000  0.129034084  0.000000000
     0.000000000  0.000000000 24.492923856     0.000000000  0.000000000  0.040828119

  length of vectors
     5.480000000  9.491638426 24.492923856     0.223493590  0.129034084  0.040828119

 FORCES acting on ions
    electron-ion (+dipol)            ewald-force                    non-local-force                 convergence-correction
   -.186E+02 0.888E-01 0.696E+01   0.169E+02 0.178E-14 -.757E+01   0.260E+01 -.123E+00 -.104E+00   0.186E-04 0.623E-05 -.110E-03
   0.291E+01 0.174E-01 0.218E+02   -.258E+01 0.456E-14 -.225E+02   -.432E+00 -.203E-01 0.552E+00   -.348E-06 -.937E-05 0.451E-04
   -.327E+00 0.805E-02 0.676E+01   0.257E+00 0.711E-14 -.673E+01   -.704E-01 -.431E-02 -.137E+00   0.389E-05 0.286E-05 0.145E-04
   -.327E+00 -.805E-02 -.676E+01   0.257E+00 0.352E-14 0.673E+01   -.704E-01 0.431E-02 0.137E+00   0.389E-05 -.286E-05 -.146E-04
   0.291E+01 -.174E-01 -.218E+02   -.258E+01 -.333E-14 0.225E+02   -.432E+00 0.203E-01 -.552E+00   -.348E-06 0.937E-05 -.452E-04
   -.186E+02 -.888E-01 -.696E+01   0.169E+02 -.163E-14 0.757E+01   0.260E+01 0.123E+00 0.104E+00   0.186E-04 -.623E-05 0.110E-03
   -.306E+02 0.446E+00 0.202E+02   0.279E+02 -.355E-14 -.198E+02   0.245E+01 0.633E-01 -.912E+00   0.197E-04 0.591E-05 0.169E-05
   0.265E+01 -.179E-01 0.222E+02   -.258E+01 0.181E-14 -.225E+02   -.508E+00 0.211E-01 0.637E+00   -.394E-05 0.883E-05 0.503E-04
   -.336E+00 -.786E-02 0.674E+01   0.257E+00 -.355E-14 -.673E+01   -.606E-01 0.378E-02 -.124E+00   0.640E-05 -.283E-05 0.219E-04
   -.336E+00 0.786E-02 -.674E+01   0.257E+00 -.733E-14 0.673E+01   -.606E-01 -.378E-02 0.124E+00   0.640E-05 0.283E-05 -.219E-04
   0.265E+01 0.179E-01 -.222E+02   -.258E+01 0.136E-14 0.225E+02   -.508E+00 -.211E-01 -.637E+00   -.394E-05 -.883E-05 -.504E-04
   -.306E+02 -.446E+00 -.202E+02   0.279E+02 -.924E-15 0.198E+02   0.245E+01 -.633E-01 0.912E+00   0.197E-04 -.591E-05 -.172E-05
   -.185E+02 -.900E-01 0.737E+01   0.169E+02 0.533E-14 -.757E+01   0.266E+01 0.121E+00 -.907E-01   0.151E-04 -.573E-05 -.885E-04
   -.366E+00 0.352E-01 0.248E+02   0.159E+01 0.391E-13 -.235E+02   -.650E+00 -.238E-01 -.965E+00   0.122E-04 -.525E-05 0.597E-04
   0.360E+00 -.883E-02 0.659E+01   -.158E+00 -.932E-15 -.661E+01   -.157E+00 0.823E-02 0.213E-01   -.858E-05 -.296E-05 0.122E-04
   0.318E+00 -.840E-02 -.658E+01   -.158E+00 -.824E-12 0.661E+01   -.129E+00 0.760E-02 -.271E-01   -.858E-05 -.288E-05 -.173E-04
   -.744E+00 0.356E-01 -.244E+02   0.159E+01 -.249E-14 0.235E+02   -.587E+00 -.234E-01 0.905E+00   0.612E-05 -.561E-05 -.406E-04
   0.171E+02 0.366E+00 -.145E+02   -.157E+02 0.149E-11 0.131E+02   -.216E+01 0.124E+00 0.544E+00   -.212E-04 0.177E-04 -.143E-04
   0.171E+02 -.366E+00 0.145E+02   -.157E+02 -.604E-14 -.131E+02   -.216E+01 -.124E+00 -.544E+00   -.212E-04 -.177E-04 0.143E-04
   -.744E+00 -.356E-01 0.244E+02   0.159E+01 -.355E-13 -.235E+02   -.587E+00 0.234E-01 -.905E+00   0.612E-05 0.561E-05 0.406E-04
   0.318E+00 0.840E-02 0.658E+01   -.158E+00 -.382E-14 -.661E+01   -.129E+00 -.760E-02 0.271E-01   -.858E-05 0.288E-05 0.173E-04
   0.360E+00 0.883E-02 -.659E+01   -.158E+00 0.821E-12 0.661E+01   -.157E+00 -.823E-02 -.213E-01   -.858E-05 0.296E-05 -.122E-04
   -.366E+00 -.352E-01 -.248E+02   0.159E+01 0.172E-11 0.235E+02   -.650E+00 0.238E-01 0.965E+00   0.122E-04 0.525E-05 -.598E-04
   -.185E+02 0.900E-01 -.737E+01   0.169E+02 -.322E-11 0.757E+01   0.266E+01 -.121E+00 0.907E-01   0.151E-04 0.573E-05 0.885E-04
   0.308E+02 -.176E-01 -.133E+01   -.291E+02 0.188E-11 0.960E+00   -.154E+01 0.148E-01 -.161E+00   -.112E-04 0.268E-05 0.839E-04
   -.339E+00 -.173E-02 0.859E+01   -.125E+00 -.172E-11 -.948E+01   -.216E+00 -.394E-02 0.356E+00   -.241E-05 0.573E-05 0.840E-04
   0.273E+01 0.110E-02 0.249E+01   -.266E+01 -.241E-14 -.251E+01   -.392E+00 0.102E-02 -.601E-01   0.699E-05 0.111E-05 0.380E-04
   0.274E+01 0.782E-03 -.248E+01   -.266E+01 0.136E-12 0.251E+01   -.393E+00 -.698E-03 0.648E-01   0.735E-05 0.122E-05 -.446E-04
   -.345E+00 -.101E-02 -.859E+01   -.125E+00 -.999E-14 0.948E+01   -.208E+00 0.319E-03 -.359E+00   -.716E-05 0.565E-05 -.825E-04
   0.307E+02 -.184E-01 0.927E+00   -.291E+02 -.157E-11 -.960E+00   -.151E+01 0.185E-01 0.975E-01   -.155E-04 0.220E-05 -.943E-04
   0.307E+02 0.184E-01 -.927E+00   -.291E+02 -.302E-12 0.960E+00   -.151E+01 -.185E-01 -.975E-01   -.155E-04 -.220E-05 0.942E-04
   -.345E+00 0.101E-02 0.859E+01   -.125E+00 -.133E-13 -.948E+01   -.208E+00 -.319E-03 0.359E+00   -.716E-05 -.565E-05 0.825E-04
   0.274E+01 -.782E-03 0.248E+01   -.266E+01 -.152E-12 -.251E+01   -.393E+00 0.698E-03 -.648E-01   0.735E-05 -.122E-05 0.447E-04
   0.273E+01 -.110E-02 -.249E+01   -.266E+01 -.140E-13 0.251E+01   -.392E+00 -.102E-02 0.601E-01   0.699E-05 -.111E-05 -.380E-04
   -.339E+00 0.173E-02 -.859E+01   -.125E+00 0.169E-11 0.948E+01   -.216E+00 0.394E-02 -.356E+00   -.241E-05 -.573E-05 -.840E-04
   0.308E+02 0.176E-01 0.133E+01   -.291E+02 -.186E-14 -.960E+00   -.154E+01 -.148E-01 0.161E+00   -.112E-04 -.268E-05 -.839E-04
   -.290E+02 0.484E+00 -.198E+02   0.279E+02 0.152E-13 0.198E+02   0.136E+01 0.373E-01 0.432E+00   0.152E-04 0.487E-05 0.588E-05
   -.169E+01 0.516E-02 0.109E+02   0.104E+01 0.174E-13 -.105E+02   0.854E+00 -.619E-02 -.505E+00   -.864E-05 -.353E-05 0.902E-04
   -.270E+01 0.121E-03 0.236E+01   0.257E+01 0.159E-13 -.241E+01   0.597E+00 0.150E-02 0.373E-01   -.411E-05 0.291E-05 0.403E-04
   -.270E+01 -.121E-03 -.236E+01   0.257E+01 0.155E-13 0.241E+01   0.597E+00 -.150E-02 -.373E-01   -.411E-05 -.291E-05 -.402E-04
   -.169E+01 -.516E-02 -.109E+02   0.104E+01 0.300E-14 0.105E+02   0.854E+00 0.619E-02 0.505E+00   -.864E-05 0.353E-05 -.901E-04
   -.290E+02 -.484E+00 0.198E+02   0.279E+02 0.107E-13 -.198E+02   0.136E+01 -.373E-01 -.432E+00   0.152E-04 -.487E-05 -.590E-05
   0.160E+02 -.441E+00 -.141E+02   -.157E+02 0.384E-14 0.131E+02   -.132E+01 -.602E-01 0.197E-01   -.204E-04 -.163E-04 -.167E-05
   -.166E+01 -.395E-02 0.109E+02   0.104E+01 0.167E-14 -.105E+02   0.828E+00 -.867E-03 -.475E+00   -.269E-05 0.344E-05 0.837E-04
   -.270E+01 -.146E-04 0.237E+01   0.257E+01 0.525E-14 -.241E+01   0.595E+00 0.114E-02 0.411E-01   -.235E-05 -.280E-05 0.338E-04
   -.270E+01 0.142E-04 -.237E+01   0.257E+01 0.577E-14 0.241E+01   0.595E+00 -.114E-02 -.411E-01   -.235E-05 0.280E-05 -.338E-04
   -.166E+01 0.395E-02 -.109E+02   0.104E+01 0.161E-14 0.105E+02   0.828E+00 0.867E-03 0.475E+00   -.269E-05 -.344E-05 -.837E-04
   0.160E+02 0.441E+00 0.141E+02   -.157E+02 -.716E-14 -.131E+02   -.132E+01 0.602E-01 -.197E-01   -.204E-04 0.163E-04 0.165E-05
   -.303E+01 0.713E-06 -.208E-04   0.000E+00 -.326E-14 -.375E-12   0.322E+01 0.694E-17 0.167E-15   -.110E-04 0.447E-10 0.516E-08

 POSITION                                       TOTAL-FORCE (eV/Angst)
      4.92185      0.00000     22.09292         0.936322     -0.034044     -0.711416
     -2.74000      5.81242      1.93747        -0.101936     -0.002920     -0.135068
      0.00000      3.87495      3.87495        -0.143855      0.003742     -0.105119
      2.74000      1.93747      5.81242        -0.143855     -0.003742      0.105119
      0.00000      0.00000      7.74989        -0.101936      0.002920      0.135068
     -3.29815      5.81242     12.08736         0.936322      0.034044      0.711416
      0.00000      3.87495      0.00000        -0.209637      0.509470     -0.520525
      2.74000      1.93747      1.93747        -0.443633      0.003250      0.344394
      0.00000      0.00000      3.87495        -0.142731     -0.004090     -0.108028
     -2.74000      5.81242      5.81242        -0.142731      0.004090      0.108028
      0.00000      3.87495      7.74989        -0.443633     -0.003250     -0.344394
      2.74000      1.93747      9.68736        -0.209637     -0.509470      0.520525
     -0.55815      3.87495     22.09292         1.049361      0.031000     -0.290201
      1.37000      0.00000      1.93747         0.565564      0.011392      0.340330
     -1.37000      5.81242      3.87495         0.041938     -0.000598      0.008165
      1.37000      3.87495      5.81242         0.028320     -0.000803     -0.001291
     -1.37000      1.93747      7.74989         0.250971      0.012182      0.080091
      1.37000      0.00000      9.68736        -0.733620      0.490527     -0.822761
     -1.37000      5.81242      0.00000        -0.733620     -0.490527      0.822761
      1.37000      3.87495      1.93747         0.250971     -0.012182     -0.080091
     -1.37000      1.93747      3.87495         0.028320      0.000803      0.001291
      1.37000      0.00000      5.81242         0.041938      0.000598     -0.008165
     -1.37000      5.81242      7.74989         0.565564     -0.011392     -0.340330
      2.18185      1.93747     12.08736         1.049361     -0.031000      0.290201
      0.81185      0.00000     12.08736         0.169731     -0.002782     -0.532272
      3.55185      1.93747     14.08848        -0.684014     -0.005670     -0.533268
      0.81185      3.87495     16.08959        -0.318498      0.002115     -0.087114
     -1.92815      5.81242     18.09070        -0.316355      0.000085      0.092447
      0.81185      0.00000     20.09181        -0.682217     -0.000681      0.529213
      3.55185      1.93747     22.09292         0.104719      0.000076      0.064748
      0.81185      3.87495     12.08736         0.104719     -0.000076     -0.064748
     -1.92815      5.81242     14.08848        -0.682217      0.000681     -0.529213
      0.81185      0.00000     16.08959        -0.316355     -0.000085     -0.092447
      3.55185      1.93747     18.09070        -0.318498     -0.002115      0.087114
      0.81185      3.87495     20.09181        -0.684014      0.005670      0.533268
     -1.92815      5.81242     22.09292         0.169731      0.002782      0.532272
     -2.74000      5.81242      9.68736         0.330021      0.520858      0.490646
      4.92185      0.00000     14.08848         0.204971     -0.001032     -0.065688
      2.18185      1.93747     16.08959         0.464725      0.001629     -0.006750
     -0.55815      3.87495     18.09070         0.464725     -0.001629      0.006750
     -3.29815      5.81242     20.09181         0.204971      0.001032      0.065688
      0.00000      0.00000      0.00000         0.330021     -0.520858     -0.490646
      1.37000      3.87495      9.68736        -1.040666     -0.501522     -0.966650
     -0.55815      3.87495     14.08848         0.208802     -0.004817     -0.065591
     -3.29815      5.81242     16.08959         0.461718      0.001119     -0.001995
      4.92185      0.00000     18.09070         0.461718     -0.001119      0.001995
      2.18185      1.93747     20.09181         0.208802      0.004817      0.065591
     -1.37000      1.93747      0.00000        -1.040666      0.501522      0.966650
    total drift:                                0.184657      0.000001     -0.000021

  FREE ENERGIE OF THE ION-ELECTRON SYSTEM (eV)
  free  energy   TOTEN  =      -229.97676526 eV

  energy  without entropy=     -229.97638287  energy(sigma->0) =     -229.97657406