 vasp.6.4.3 19Mar24 (build Oct 22 2024 11:23:12) complex

 executed on             LinuxIFC date 2025.06.04  01:03:12

 INCAR:
   SYSTEM = Si and Ge interface calculation
   ISTART = 0
   ICHARG = 2
   LWAVE = .FALSE.
   LREAL = AUTO
   ENCUT = 700
   ENAUG = 900
   ADDGRID = .TRUE.
   LMAXMIX = 6
   LASPH = .TRUE.
   LMIXTAU = .TRUE.
   NCORE = 16
   NELM = 100
   NBANDS = 116
   EDIFF = 1d-7
   AMIX = 0.6
   ISMEAR = 0
   SIGMA = 0.01
   NELECT = 192
   ISPIN = 2
   NUPDOWN = 1
   LVTOT = .FALSE.
   LVHAR = .TRUE.

 POTCAR:    PAW_PBE Sn 08Apr2002
|           W    W    AA    RRRRR   N    N  II  N    N   GGGG   !!!           |
|           W    W   A  A   R    R  NN   N  II  NN   N  G    G  !!!           |
|           W    W  A    A  R    R  N N  N  II  N N  N  G       !!!           |
|           W WW W  AAAAAA  RRRRR   N  N N  II  N  N N  G  GGG   !            |
|           WW  WW  A    A  R   R   N   NN  II  N   NN  G    G                |
|           W    W  A    A  R    R  N    N  II  N    N   GGGG   !!!           |
|     You use a magnetic or noncollinear calculation, but did not specify     |
|     the initial magnetic moment with the MAGMOM tag. Note that a            |
|     default of 0.021 will be used for all atoms. This ferromagnetic         |
|     setup may break the symmetry of the crystal, in particular it may       |
|     rule out finding an antiferromagnetic solution. Thence, we              |
|     recommend setting the initial magnetic moment manually or verifying     |
|     carefully that this magnetic setup is desired.                          |

 POTCAR:    PAW_PBE Sn 08Apr2002
   VRHFIN =Sn: s2p2

   TITEL  = PAW_PBE Sn 08Apr2002
   POMASS =  118.710; ZVAL   =    4.000    mass and valenz
   ENMAX  =  103.236; ENMIN  =   77.427 eV

 Optimization of the real space projectors (new method)

 maximal supplied QI-value         = 12.47
 optimisation between [QCUT,QGAM] = [ 12.47, 27.06] = [ 43.56,205.12] Ry
 Optimized for a Real-space Cutoff    1.58 Angstroem

   l    n(q)    QCUT    max X(q) W(low)/X(q) W(high)/X(q)  e(spline)
   0     13    12.472    14.688    0.45E-04    0.45E-04    0.25E-05
   0     13    12.472     7.308    0.94E-04    0.11E-03    0.61E-05
   1     12    12.472    45.102    0.34E-03    0.14E-03    0.21E-05
   1     12    12.472    30.691    0.31E-03    0.13E-03    0.20E-05
   2     12    12.472     7.156    0.86E-04    0.11E-03    0.17E-05
 WARNING: PSMAXN for non-local potential too small
          PSMAXN should be >   13.5545592237991       NTYP=           1
  PAW_PBE Sn 08Apr2002                  :

 POSCAR: Sn+Sn
  positions in direct lattice

 exchange-correlation table for PE
   RHO(1)=    0.500       N(1)  =     2000
   RHO(2)=  100.500       N(2)  =     4000

 ion  position               nearest neighbor table
   1  0.005  0.995  0.000-  37 2.75  34 2.81  10 2.81  47 2.95  46 3.15  43 3.54  15 3.55  30 3.55

   2  0.172  0.828  0.300-  35 2.81  16 2.81  11 2.81  34 2.81
   3  0.338  0.662  0.600-  17 2.81  12 2.81  35 2.81  36 2.81
   4  0.672  0.328  0.000-  44 2.17  38 2.60  48 2.81  13 2.81  28 2.81  41 3.07  45 3.24  39 3.55
                            33 3.55  18 3.55
   5  0.838  0.162  0.300-  10 2.81  29 2.81  14 2.81  28 2.81
   6  0.005  0.995  0.600-  37 1.70  11 2.81  15 2.81  29 2.81  30 2.81  46 3.15  43 3.54
   7  0.338  0.662  0.000-  42 1.26  31 2.81  16 2.81  45 3.30  36 3.55  12 3.55  48 3.68
   8  0.505  0.495  0.300-  13 2.81  32 2.81  17 2.81  31 2.81  45 3.27
   9  0.672  0.328  0.600-  14 2.81  32 2.81  33 2.81  18 2.81  38 3.38  44 3.75  41 3.75
  10  0.088  0.162  0.150-  47 2.75   1 2.81   5 2.81  22 2.81  23 2.81
  11  0.255  0.995  0.450-   6 2.81  23 2.81  24 2.81   2 2.81
  12  0.422  0.828  0.750-  43 2.40  40 2.74   3 2.81  24 2.81  46 2.90   7 3.55  19 3.55
  13  0.755  0.495  0.150-  39 2.49  48 2.60   8 2.81   4 2.81  25 2.81  26 2.81  45 3.07
  14  0.922  0.328  0.450-   9 2.81  26 2.81   5 2.81  27 2.81
  15  0.088  0.162  0.750-  47 1.70  37 1.88  27 2.81   6 2.81  41 3.01  38 3.42   1 3.55  22 3.55

  16  0.422  0.828  0.150-  19 2.81   2 2.81  20 2.81   7 2.81
  17  0.588  0.662  0.450-   3 2.81  20 2.81  21 2.81   8 2.81
  18  0.755  0.495  0.750-  39 2.49  21 2.81   9 2.81  48 3.38  38 3.48  25 3.55   4 3.55  45 3.75

[...]

  37  0.989  0.027  0.750-   6 1.70  15 1.88  30 2.74   1 2.75  47 2.81  46 2.81  43 2.81
  38  0.878  0.304  0.850-   4 2.60  48 2.81  44 2.81  47 2.81  33 3.01  22 3.07   9 3.38  15 3.42
                            18 3.48  27 3.75
  39  0.767  0.582  0.950-  25 1.26  13 2.49  18 2.49  48 2.81  45 2.81   4 3.55
  40  0.489  0.027  0.750-  24 1.70  33 1.88  12 2.74  19 2.75  44 2.81  46 2.81  43 2.81
  41  0.378  0.304  0.850-  22 2.60  47 2.81  44 2.81  45 2.81  15 3.01   4 3.07  27 3.38  33 3.42
                            36 3.48   9 3.75
  42  0.267  0.582  0.950-   7 1.26  31 2.49  36 2.49  45 2.81  48 2.81  22 3.55
  43  0.684  0.915  0.800-  12 2.40  40 2.81  37 2.81  30 2.90  19 3.15  24 3.15   1 3.54   6 3.54

[...]

  45  0.462  0.471  0.000-  31 2.60  22 2.81  42 2.81  39 2.81  41 2.81  13 3.07   4 3.24   8 3.27
                             7 3.30  36 3.38  25 3.68  18 3.75
  46  0.184  0.915  0.800-  30 2.40  37 2.81  40 2.81  12 2.90   1 3.15   6 3.15  19 3.54  24 3.54

  47  0.073  0.193  0.900-  15 1.70  22 2.17  10 2.75  37 2.81  41 2.81  38 2.81   1 2.95  27 3.75

  48  0.962  0.471  0.000-  13 2.60   4 2.81  39 2.81  42 2.81  38 2.81  31 3.07  22 3.24  26 3.27
                            25 3.30  18 3.38   7 3.68  36 3.75

  LATTYP: Found a base centered orthorhombic cell.
 ALAT       =     9.1771144870
 B/A-ratio  =     3.0000002078
 C/A-ratio  =     1.1785113263

  Lattice vectors:

 A1 = (   4.5885577200, -13.7656726840,   0.0000000000)
 A2 = (   4.5885567670,  13.7656726840,   0.0000000000)
 A3 = (   0.0000000000,   0.0000000000,  10.8153333660)

Analysis of symmetry for initial positions (statically):
 Subroutine PRICEL returns following result:

  LATTYP: Found a simple orthorhombic cell.
 ALAT       =     4.5885570783
 B/A-ratio  =     2.3570227375
 C/A-ratio  =     3.0000003158

[...]

   2 primitive cells build up your supercell.

 Routine SETGRP: Setting up the symmetry group for a
 base centered orthorhombic supercell.

 Subroutine GETGRP returns: Found  1 space group operations
 (whereof  1 operations were pure point group operations)
 out of a pool of  8 trial point group operations.

The static configuration has the point symmetry C_1 .

Analysis of symmetry for dynamics (positions and initial velocities):
 Subroutine PRICEL returns following result:

[...]

The dynamic configuration has the point symmetry C_1 .

Analysis of structural, dynamic, and magnetic symmetry:
 Subroutine PRICEL returns following result:

  LATTYP: Found a simple orthorhombic cell.
 ALAT       =     4.5885570783
 B/A-ratio  =     2.3570227375
 C/A-ratio  =     3.0000003158

  Lattice vectors:

 A1 = (  -4.5885570783,   0.0000000000,   0.0000000000)
 A2 = (   0.0000000000,   0.0000000000,  10.8153333660)
 A3 = (  -0.0000006417,  13.7656726840,   0.0000000000)

   2 primitive cells build up your supercell.

 Routine SETGRP: Setting up the symmetry group for a
 base centered orthorhombic supercell.

 Subroutine GETGRP returns: Found  1 space group operations
 (whereof  1 operations were pure point group operations)
 out of a pool of  8 trial point group operations.

The overall configuration has the point symmetry C_1 .

 Subroutine INISYM returns: Found  1 space group operations
 (whereof  1 operations are pure point group operations),
 and found     2 'primitive' translations

                                     Primitive cell

  volume of cell :     683.1459

  direct lattice vectors                    reciprocal lattice vectors
    -4.588557078  0.000000000  0.000000000    -0.217933434 -0.000000010  0.000000000
     0.000000000  0.000000000 10.815333366     0.000000000  0.000000000  0.092461320
    -0.000000642 13.765672684  0.000000000     0.000000000  0.072644470  0.000000000

  length of vectors
     4.588557078 10.815333366 13.765672684     0.217933434  0.092461320  0.072644470

  position of ions in fractional coordinates (direct lattice)
     0.985105300  0.000000000  0.995035112
     0.485105145  0.300000042  0.828368425
     0.985105037  0.599999964  0.661701739
     0.985105233  0.000000000  0.328368425
     0.485105022  0.300000042  0.161701724
     0.985104978  0.599999964  0.995035112
     0.985105157  0.000000000  0.661701739
     0.485105156  0.300000042  0.495035052
     0.985105204  0.599999964  0.328368366
     0.985105211  0.149999991  0.161701739
     0.485105102  0.450000018  0.995035052
     0.985105032  0.750000060  0.828368366
     0.985105348  0.149999991  0.495035082
     0.485105449  0.450000018  0.328368425
     0.985105091  0.750000060  0.161701739
     0.985105151  0.149999991  0.828368485
     0.485105210  0.450000018  0.661701858
     0.985104834  0.750000060  0.495035142
     0.047768506  0.750000060  0.026538117
     0.547768650  0.850000143  0.304315925
     0.047768597  0.950000167  0.582093656
     0.547768639  0.800000131  0.915426910
     0.047768588  0.900000095  0.193204641
     0.547768644  0.000000119  0.470982671

  ion indices of the primitive-cell ions
   primitive index   ion index
                 1           1
                 2           2
                 3          21
                 4          22
                 5           5
                 6           6
                 7          25
                 8          26
                 9          27
                10          10
                11          29
                12          30
                13          31
                14          14
                15          15
                16          34
                17          35
                18          18
                19          37
                20          38
                21          39
                22          46
                23          47
                24          48

 KPOINTS: Automatic KPOINTS generated

Automatic generation of k-mesh.
 Grid dimensions read from file:
 generate k-points for:    4    2    3

 Generating k-lattice:

  Cartesian coordinates                     Fractional coordinates (reciprocal lattice)
     0.027241678  0.009080560  0.000000000     0.250000000  0.000000000  0.000000000
     0.000000000  0.036322235  0.000000000     0.000000000  0.500000000  0.000000000
     0.000000000  0.000000000  0.030820440     0.000000000  0.000000000  0.333333333

  Length of vectors
     0.028715250  0.036322235  0.030820440

  Shift w.r.t. Gamma in fractional coordinates (k-lattice)
     0.000000000  0.000000000  0.000000000

 WARNING: IBZKPT: internal override: KBLOWUP is changed to .FALSE.
      ... skipping the blow-up phase ...

 Subroutine IBZKPT returns following result:

 Found     14 irreducible k-points:

 Following reciprocal coordinates:
            Coordinates               Weight
  0.000000  0.000000  0.000000      1.000000
  0.250000 -0.000000  0.000000      2.000000
  0.500000 -0.000000  0.000000      1.000000
[...]
     42      -0.3827      1.00000
     43      -0.0963      1.00000
     44      -0.0760      1.00000
     45       0.0356      1.00000
     46       0.1710      1.00000
     47       0.1939      1.00000
     48       0.3133      1.00000
     49       0.4298      1.00000
     50       0.5464      1.00000
     51       0.7746      1.00000
     52       0.8224      1.00000
     53       1.0599      1.00000
     54       1.1176      1.00000
     55       1.4059      1.00000
     56       1.4343      1.00000
     57       1.5066      1.00000
     58       1.7040      1.00000
     59       1.8354      1.00000
     60       1.9649      1.00000
[...]
    102       5.7981      0.00000
    103       5.8956      0.00000
    104       5.9909      0.00000
    105       6.1125      0.00000
    106       6.1916      0.00000
    107       6.2315      0.00000
    108       6.3093      0.00000
    109       6.4578      0.00000
    110       6.5508      0.00000
    111       6.6172      0.00000
    112       6.6677      0.00000
    113       6.7280      0.00000
    114       6.8037      0.00000
    115       6.8185      0.00000
    116       6.9101      0.00000
 Fermi energy:         5.3029655958

 spin component 2

[...]

 k-point    14 :      -0.2500    0.5000    0.3333
  band No.  band energies     occupation
      1      -8.9813      1.00000
      2      -8.6214      1.00000
      3      -7.9260      1.00000
      4      -7.3121      1.00000
      5      -7.0017      1.00000
      6      -6.3804      1.00000
      7      -5.6777      1.00000
      8      -5.2518      1.00000
      9      -5.2115      1.00000
     10      -4.7880      1.00000
     11      -4.7081      1.00000
     12      -4.4554      1.00000
     13      -4.2907      1.00000
     14      -4.1225      1.00000
     15      -4.0829      1.00000
     16      -3.9428      1.00000
     17      -3.8225      1.00000
     18      -3.7155      1.00000
     19      -3.6450      1.00000
     20      -3.5104      1.00000
     21      -3.3970      1.00000
     22      -3.1063      1.00000
     23      -3.0611      1.00000
     24      -2.9631      1.00000
     25      -2.8288      1.00000
     26      -2.6770      1.00000
     27      -2.5575      1.00000
     28      -2.3688      1.00000
     29      -2.2348      1.00000
     30      -2.1444      1.00000
     31      -1.6118      1.00000
     32      -1.5784      1.00000
     33      -1.4398      1.00000
     34      -1.3244      1.00000
     35      -1.2921      1.00000
     36      -1.0404      1.00000
     37      -0.9902      1.00000
     38      -0.8792      1.00000
     39      -0.5616      1.00000
     40      -0.4111      1.00000
     41      -0.3806      1.00000
     42      -0.3646      1.00000
     43      -0.0797      1.00000
     44      -0.0597      1.00000
     45       0.0522      1.00000
     46       0.1861      1.00000
     47       0.2112      1.00000
     48       0.3300      1.00000
     49       0.4466      1.00000
     50       0.5627      1.00000
     51       0.7923      1.00000
     52       0.8390      1.00000
     53       1.0758      1.00000
     54       1.1337      1.00000
     55       1.4216      1.00000
     56       1.4512      1.00000
     57       1.5242      1.00000
     58       1.7189      1.00000
     59       1.8527      1.00000
     60       1.9828      1.00000
[...]
    102       5.8187      0.00000
    103       5.9151      0.00000
    104       6.0107      0.00000
    105       6.1317      0.00000
    106       6.2115      0.00000
    107       6.2523      0.00000
    108       6.3261      0.00000
    109       6.4764      0.00000
    110       6.5705      0.00000
    111       6.6358      0.00000
    112       6.6854      0.00000
    113       6.7455      0.00000
    114       6.8217      0.00000
    115       6.8331      0.00000
    116       6.9197      0.00000

 soft charge-density along one line, spin component           1
         0         1         2         3         4         5         6         7         8         9
 total charge-density along one line

 soft charge-density along one line, spin component           2
         0         1         2         3         4         5         6         7         8         9
 total charge-density along one line

------------------------ aborting loop because EDIFF is reached ----------------------------------------

  FORCE on cell =-STRESS in cart. coord.  units (eV):
  Direction    XX          YY          ZZ          XY          YZ          ZX
  Alpha Z   210.94477   210.94477   210.94477
  Ewald   -1573.16391 -1041.45275 -1568.51989    84.04792   431.57266   -18.31100
  Hartree   400.04145   302.81594    -6.68897     0.62515   109.70733     1.32886
  E(xc)    -911.28115  -958.76009  -944.28437   -11.16347   -27.54332     0.61647
  Local   -1148.93608 -1194.84915  -416.30411   -13.18572  -319.13752     6.33665
  n-local  2388.05375  2512.51286  2510.89175    21.12580    53.99126   -17.15627
  augment  -624.70786  -566.92892  -553.19650     9.02178    35.87399    -6.39617
  Kinetic  1428.67840  1372.77253  1373.04963    -2.78001   -10.35927     5.82384
  Fock        0.00000     0.00000     0.00000     0.00000     0.00000     0.00000
  Total     169.62936   637.05519   605.89231    87.69145   274.10513   -27.75762
  in kB     198.91526   747.04049   710.49745   102.83107   321.42840   -32.54988

 VOLUME and BASIS-vectors are now :
  energy-cutoff  :      700.00
  volume of cell :     1366.29
      direct lattice vectors                 reciprocal lattice vectors
     9.177114487  0.000000000  0.000000000     0.108966713  0.036322239  0.000000000
    -4.588557720 13.765672684  0.000000000     0.000000000  0.072644470  0.000000000
     0.000000000  0.000000000 10.815333366     0.000000000  0.000000000  0.092461320

  length of vectors
     9.177114487 14.510293119 10.815333366     0.114861001  0.072644470  0.092461320

 FORCES acting on ions
    electron-ion (+dipol)            ewald-force                    non-local-force                 convergence-correction
   -.756E+00 0.301E+02 -.504E+02   0.474E+00 -.309E+02 0.503E+02   0.525E+00 -.956E+00 0.135E+01   0.178E-06 -.141E-03 0.104E-03
   0.855E-02 0.223E+01 -.231E+01   -.176E-01 -.236E+01 0.213E+01   -.212E-02 0.122E+00 0.211E+00   -.135E-05 -.141E-04 -.384E-04
   0.354E-01 -.169E+00 0.190E+02   0.285E-01 0.182E+00 -.184E+02   0.427E-01 -.684E-01 -.924E+00   -.178E-05 0.503E-04 0.252E-04
   0.532E+01 -.104E+02 -.451E+02   -.604E+01 0.135E+02 0.467E+02   -.139E+00 0.740E+01 0.659E+01   -.866E-06 0.289E-04 0.107E-03
   -.415E+00 0.787E+01 -.868E+01   -.103E+00 -.786E+01 0.888E+01   0.468E+00 0.308E-01 -.771E-02   -.640E-07 -.726E-04 0.214E-04
   -.377E+01 0.185E+02 0.735E+02   0.881E+01 -.276E+02 -.105E+03   0.547E+01 -.781E+01 -.305E+02   0.105E-05 -.103E-03 -.118E-03
   -.268E+01 -.514E+02 -.887E+01   0.288E+02 0.150E+03 0.565E+02   0.650E+01 0.287E+02 0.132E+02   -.340E-05 0.117E-03 -.192E-04
   -.628E+00 -.996E+01 -.329E+02   0.500E+00 0.101E+02 0.331E+02   0.153E+00 0.587E-01 0.660E+00   -.366E-05 0.792E-04 0.431E-04
   0.940E+00 -.178E+02 0.416E+02   -.108E+01 0.181E+02 -.421E+02   0.683E-01 -.245E+00 -.346E-01   -.220E-05 0.572E-04 -.123E-03
   -.965E+00 0.175E+02 -.468E+02   0.130E+01 -.184E+02 0.482E+02   -.114E+00 0.421E+00 0.637E+00   0.742E-06 -.106E-03 0.128E-03
   0.107E+01 0.971E+01 0.306E+02   -.428E+00 -.985E+01 -.305E+02   -.801E+00 0.268E-01 -.658E+00   -.541E-05 -.454E-04 -.877E-04
   0.690E+01 0.542E+02 0.740E+01   -.815E+01 -.553E+02 -.686E+01   -.292E+01 -.542E+01 -.904E+00   -.226E-05 -.161E-03 0.353E-04
   0.378E+01 -.671E+01 -.681E+02   -.418E+01 0.668E+01 0.695E+02   -.932E+00 -.225E+01 0.614E+01   0.413E-05 0.154E-03 0.624E-04
   0.298E+00 -.752E+01 0.101E+02   0.998E-01 0.742E+01 -.978E+01   -.423E+00 0.106E+00 -.432E+00   0.929E-06 0.909E-05 -.580E-04
   -.742E+01 -.186E+02 0.512E+02   0.151E+02 0.264E+02 -.806E+02   0.802E+01 0.143E+02 -.292E+02   0.460E-06 -.562E-04 -.702E-04
   0.500E-01 -.202E+01 -.184E+02   0.856E-02 0.202E+01 0.179E+02   -.122E+00 -.435E+00 0.394E+00   0.227E-06 -.575E-04 -.328E-04
   -.139E+00 -.282E+01 0.203E+01   0.163E-01 0.296E+01 -.177E+01   0.105E+00 -.594E-01 -.256E+00   0.155E-05 0.431E-04 0.162E-04
   -.244E-02 -.184E+02 0.509E+02   -.758E-01 0.186E+02 -.514E+02   0.441E+00 -.181E+01 -.201E+01   -.181E-05 0.206E-03 -.472E-04
   -.756E+00 0.301E+02 -.504E+02   0.474E+00 -.309E+02 0.503E+02   0.525E+00 -.956E+00 0.135E+01   -.944E-06 -.142E-03 0.110E-03
   0.854E-02 0.223E+01 -.231E+01   -.176E-01 -.236E+01 0.213E+01   -.212E-02 0.122E+00 0.211E+00   0.914E-06 -.133E-04 -.372E-04
   0.354E-01 -.169E+00 0.190E+02   0.284E-01 0.182E+00 -.184E+02   0.427E-01 -.684E-01 -.924E+00   -.944E-06 0.541E-04 0.253E-04
   0.532E+01 -.104E+02 -.451E+02   -.604E+01 0.135E+02 0.467E+02   -.139E+00 0.740E+01 0.659E+01   -.351E-05 0.266E-04 0.105E-03
   -.415E+00 0.787E+01 -.868E+01   -.103E+00 -.786E+01 0.888E+01   0.468E+00 0.308E-01 -.771E-02   -.297E-05 -.719E-04 0.209E-04
   -.377E+01 0.185E+02 0.735E+02   0.881E+01 -.276E+02 -.105E+03   0.547E+01 -.781E+01 -.305E+02   0.335E-05 -.105E-03 -.128E-03
   -.268E+01 -.514E+02 -.887E+01   0.288E+02 0.150E+03 0.565E+02   0.650E+01 0.287E+02 0.132E+02   0.390E-05 0.125E-03 -.171E-04
   -.628E+00 -.996E+01 -.329E+02   0.500E+00 0.101E+02 0.331E+02   0.153E+00 0.587E-01 0.660E+00   -.161E-05 0.794E-04 0.413E-04
   0.940E+00 -.178E+02 0.416E+02   -.108E+01 0.181E+02 -.421E+02   0.683E-01 -.245E+00 -.346E-01   -.269E-05 0.531E-04 -.120E-03
   -.965E+00 0.175E+02 -.468E+02   0.130E+01 -.184E+02 0.482E+02   -.114E+00 0.421E+00 0.637E+00   -.236E-06 -.106E-03 0.130E-03
   0.107E+01 0.971E+01 0.306E+02   -.428E+00 -.985E+01 -.305E+02   -.801E+00 0.268E-01 -.658E+00   0.517E-05 -.464E-04 -.872E-04
   0.690E+01 0.542E+02 0.740E+01   -.815E+01 -.553E+02 -.686E+01   -.292E+01 -.542E+01 -.904E+00   -.662E-06 -.151E-03 0.308E-04
   0.378E+01 -.671E+01 -.681E+02   -.418E+01 0.668E+01 0.695E+02   -.932E+00 -.225E+01 0.614E+01   -.114E-05 0.157E-03 0.579E-04
   0.298E+00 -.752E+01 0.101E+02   0.998E-01 0.742E+01 -.978E+01   -.423E+00 0.106E+00 -.432E+00   -.133E-05 0.810E-05 -.580E-04
   -.742E+01 -.186E+02 0.512E+02   0.151E+02 0.264E+02 -.806E+02   0.802E+01 0.143E+02 -.292E+02   0.207E-05 -.477E-04 -.697E-04
   0.500E-01 -.202E+01 -.184E+02   0.855E-02 0.202E+01 0.179E+02   -.122E+00 -.435E+00 0.394E+00   0.339E-06 -.541E-04 -.313E-04
   -.139E+00 -.282E+01 0.203E+01   0.162E-01 0.296E+01 -.177E+01   0.105E+00 -.594E-01 -.256E+00   0.332E-07 0.415E-04 0.162E-04
   -.246E-02 -.184E+02 0.509E+02   -.758E-01 0.186E+02 -.515E+02   0.441E+00 -.181E+01 -.201E+01   -.544E-05 0.207E-03 -.431E-04
   0.130E+02 0.235E+02 0.381E+01   -.216E+02 -.303E+02 0.267E+02   -.839E+01 -.124E+02 0.257E+02   -.101E-04 -.131E-03 -.266E-05
   -.117E+02 -.120E+02 0.254E+02   0.129E+02 0.122E+02 -.279E+02   0.147E+01 0.890E+00 -.393E+00   0.145E-04 0.321E-04 -.341E-04
   0.108E+02 -.431E+02 0.185E+02   -.368E+02 -.524E+02 -.665E+02   -.814E+01 -.238E+02 -.154E+02   0.843E-05 0.252E-03 -.642E-05
   0.130E+02 0.235E+02 0.381E+01   -.216E+02 -.303E+02 0.267E+02   -.839E+01 -.124E+02 0.257E+02   -.148E-04 -.133E-03 0.334E-05
   -.117E+02 -.120E+02 0.254E+02   0.129E+02 0.122E+02 -.279E+02   0.147E+01 0.890E+00 -.393E+00   0.664E-05 0.297E-04 -.346E-04
   0.108E+02 -.431E+02 0.185E+02   -.368E+02 -.524E+02 -.665E+02   -.814E+01 -.238E+02 -.154E+02   0.385E-05 0.255E-03 -.331E-05
   -.146E+02 0.373E+02 -.191E+02   0.156E+02 -.365E+02 0.186E+02   0.400E+01 0.225E+00 0.332E+01   0.167E-04 -.174E-03 0.468E-04
   0.123E+02 0.183E+02 -.271E+02   -.189E+02 -.126E+02 0.555E+02   -.636E+01 0.103E+01 0.250E+02   -.103E-04 -.983E-04 0.673E-04
   -.129E+02 -.148E+02 -.765E+01   0.138E+02 0.157E+02 0.704E+01   0.241E+01 -.129E+01 -.114E+01   -.607E-05 0.193E-03 0.372E-04
   -.146E+02 0.373E+02 -.191E+02   0.156E+02 -.365E+02 0.186E+02   0.400E+01 0.225E+00 0.332E+01   0.402E-06 -.174E-03 0.468E-04
   0.123E+02 0.183E+02 -.271E+02   -.189E+02 -.126E+02 0.555E+02   -.636E+01 0.103E+01 0.250E+02   -.856E-05 -.102E-03 0.599E-04
   -.129E+02 -.148E+02 -.765E+01   0.138E+02 0.157E+02 0.704E+01   0.241E+01 -.129E+01 -.114E+01   0.225E-05 0.194E-03 0.367E-04
   -.287E+01 0.681E+01 -.264E+01   -.711E-14 -.373E-13 0.622E-13   0.264E+01 -.644E+01 0.275E+01   -.164E-04 0.144E-03 0.109E-03

 POSITION                                       TOTAL-FORCE (eV/Angst)
     -4.52021     13.69733      0.00000         0.248453     -1.796244      1.320683
     -2.22593     11.40305      3.24460        -0.006461     -0.019410      0.022128
      0.06835      9.10877      6.48920         0.111273     -0.063239     -0.281030
      4.65690      4.52021      0.00000        -0.859235     10.515007      8.226599
      6.95118      2.22593      3.24460        -0.045565      0.031850      0.187082
     -4.52021     13.69733      6.48920        10.516682    -17.004463    -62.312621
      0.06835      9.10877      0.00000        32.590062    127.605168     60.808293
      2.36262      6.81449      3.24460         0.029910      0.169387      0.851846
      4.65690      4.52021      6.48920        -0.067744      0.089673     -0.558403
      0.06835      2.22593      1.62230         0.221323     -0.507262      2.045142
     -2.22593     13.69733      4.86690        -0.151316     -0.122956     -0.509070
      0.06835     11.40305      8.11150        -4.158206     -6.529096     -0.374411
      4.65690      6.81449      1.62230        -1.334181     -2.286742      7.455695
      6.95118      4.52021      4.86690        -0.020322     -0.006809     -0.102073
      0.06835      2.22593      8.11150        15.733217     22.002220    -58.587310
      0.06834     11.40305      1.62230        -0.058621     -0.444333     -0.101864
      2.36262      9.10877      4.86690        -0.013334      0.067091      0.000782
      4.65690      6.81449      8.11150         0.367599     -1.619951     -2.579426
      0.06834     13.69733      0.00000         0.248453     -1.796244      1.320683
      2.36262     11.40305      3.24460        -0.006461     -0.019410      0.022128
      4.65690      9.10877      6.48920         0.111273     -0.063239     -0.281030
      0.06835      4.52021      0.00000        -0.859235     10.515007      8.226599
      2.36262      2.22593      3.24460        -0.045565      0.031850      0.187082
      0.06835     13.69733      6.48920        10.516682    -17.004463    -62.312621
      4.65690      9.10877      0.00000        32.590062    127.605168     60.808293
     -2.22593      6.81449      3.24460         0.029910      0.169387      0.851846
      0.06835      4.52021      6.48920        -0.067744      0.089673     -0.558403
      4.65690      2.22593      1.62230         0.221323     -0.507262      2.045142
      2.36262     13.69733      4.86690        -0.151316     -0.122956     -0.509070
      4.65690     11.40305      8.11150        -4.158206     -6.529096     -0.374411
      0.06834      6.81449      1.62230        -1.334181     -2.286742      7.455695
      2.36262      4.52021      4.86690        -0.020322     -0.006809     -0.102073
      4.65690      2.22593      8.11150        15.733217     22.002220    -58.587310
      4.65690     11.40305      1.62230        -0.058621     -0.444333     -0.101864
     -2.22593      9.10877      4.86690        -0.013334      0.067091      0.000782
      0.06835      6.81449      8.11150         0.367599     -1.619951     -2.579426
      8.95793      0.36532      8.11150       -16.972277    -19.193087     56.218804
      6.66365      4.18911      9.19303         2.599241      1.088482     -2.811130
      4.36937      8.01291     10.27457       -34.141074   -119.308936    -63.318302
      4.36937      0.36532      8.11150       -16.972277    -19.193087     56.218804
      2.07509      4.18911      9.19303         2.599241      1.088482     -2.811130
     -0.21919      8.01291     10.27457       -34.141074   -119.308936    -63.318302
      2.07509     12.60147      8.65227         5.021547      1.055229      2.831239
      4.36937      2.65959      9.73380       -12.918692      6.697627     53.320790
      2.07509      6.48339      0.00000         3.307721     -0.419206     -1.753444
     -2.51347     12.60147      8.65227         5.021547      1.055229      2.831239
     -0.21919      2.65959      9.73380       -12.918692      6.697627     53.320790
      6.66365      6.48339      0.00000         3.307721     -0.419206     -1.753444
    total drift:                               -0.225703      0.367755      0.109898

  FREE ENERGIE OF THE ION-ELECTRON SYSTEM (eV)
  free  energy   TOTEN  =        81.76998309 eV

  energy  without entropy=       81.77172639  energy(sigma->0) =       81.77085474