 vasp.6.4.3 19Mar24 (build Oct 22 2024 11:23:12) complex

 executed on             LinuxIFC date 2025.06.04  00:59:11

 INCAR:
   SYSTEM = Si and Ge interface calculation
   ISTART = 0
   ICHARG = 2
   LWAVE = .FALSE.
   LREAL = AUTO
   ENCUT = 700
   ENAUG = 900
   ADDGRID = .TRUE.
   LMAXMIX = 6
   LASPH = .TRUE.
   LMIXTAU = .TRUE.
   NCORE = 16
   NELM = 100
   NBANDS = 116
   EDIFF = 1d-7
   AMIX = 0.6
   ISMEAR = 0
   SIGMA = 0.01
   NELECT = 192
   ISPIN = 2
   NUPDOWN = 1
   LVTOT = .FALSE.
   LVHAR = .TRUE.

 POTCAR:    PAW_PBE Sn 08Apr2002
|           W    W    AA    RRRRR   N    N  II  N    N   GGGG   !!!           |
|           W    W   A  A   R    R  NN   N  II  NN   N  G    G  !!!           |
|           W    W  A    A  R    R  N N  N  II  N N  N  G       !!!           |
|           W WW W  AAAAAA  RRRRR   N  N N  II  N  N N  G  GGG   !            |
|           WW  WW  A    A  R   R   N   NN  II  N   NN  G    G                |
|           W    W  A    A  R    R  N    N  II  N    N   GGGG   !!!           |
|     You use a magnetic or noncollinear calculation, but did not specify     |
|     the initial magnetic moment with the MAGMOM tag. Note that a            |
|     default of 0.021 will be used for all atoms. This ferromagnetic         |
|     setup may break the symmetry of the crystal, in particular it may       |
|     rule out finding an antiferromagnetic solution. Thence, we              |
|     recommend setting the initial magnetic moment manually or verifying     |
|     carefully that this magnetic setup is desired.                          |

 POTCAR:    PAW_PBE Sn 08Apr2002
   VRHFIN =Sn: s2p2

   TITEL  = PAW_PBE Sn 08Apr2002
   POMASS =  118.710; ZVAL   =    4.000    mass and valenz
   ENMAX  =  103.236; ENMIN  =   77.427 eV

 Optimization of the real space projectors (new method)

 maximal supplied QI-value         = 12.47
 optimisation between [QCUT,QGAM] = [ 12.47, 27.06] = [ 43.56,205.12] Ry
 Optimized for a Real-space Cutoff    1.58 Angstroem

   l    n(q)    QCUT    max X(q) W(low)/X(q) W(high)/X(q)  e(spline)
   0     13    12.472    14.688    0.45E-04    0.45E-04    0.25E-05
   0     13    12.472     7.308    0.94E-04    0.11E-03    0.61E-05
   1     12    12.472    45.102    0.34E-03    0.14E-03    0.21E-05
   1     12    12.472    30.691    0.31E-03    0.13E-03    0.20E-05
   2     12    12.472     7.156    0.86E-04    0.11E-03    0.17E-05
 WARNING: PSMAXN for non-local potential too small
          PSMAXN should be >   13.5545592237991       NTYP=           1
  PAW_PBE Sn 08Apr2002                  :

 POSCAR: Sn+Sn
  positions in direct lattice

 exchange-correlation table for PE
   RHO(1)=    0.500       N(1)  =     2000
   RHO(2)=  100.500       N(2)  =     4000

 ion  position               nearest neighbor table
   1  0.343  0.672  0.000-  42 1.38  13 2.81  28 2.81  45 3.41  18 3.55  33 3.55
   2  0.677  0.838  0.300-  14 2.81  34 2.81  29 2.81  13 2.81
   3  0.010  0.005  0.600-  37 1.67  35 2.81  30 2.81  14 2.81  15 2.81  46 3.20  43 3.59
   4  0.010  0.005  0.000-  37 2.74  10 2.81  34 2.81  47 2.82  46 3.20  15 3.55  30 3.55  43 3.59

   5  0.343  0.172  0.300-  11 2.81  31 2.81  10 2.81  35 2.81
   6  0.677  0.338  0.600-  32 2.81  11 2.81  36 2.81  12 2.81  38 3.40
   7  0.677  0.338  0.000-  44 2.29  38 2.62  48 2.71  16 2.81  31 2.81  41 3.08  45 3.16  39 3.41
                            12 3.55  36 3.55
   8  0.010  0.505  0.300-  17 2.81  28 2.81  32 2.81  16 2.81  48 3.29
   9  0.343  0.672  0.600-  29 2.81  18 2.81  17 2.81  33 2.81
  10  0.093  0.922  0.150-  47 2.74   4 2.81  23 2.81  19 2.81   5 2.81
  11  0.427  0.088  0.450-   5 2.81  24 2.81   6 2.81  20 2.81
  12  0.760  0.255  0.750-  39 2.43   6 2.81  21 2.81  48 3.40   7 3.55  25 3.55  38 3.58
  13  0.427  0.588  0.150-   1 2.81  26 2.81  22 2.81   2 2.81
  14  0.760  0.755  0.450-   2 2.81  27 2.81   3 2.81  23 2.81
  15  0.093  0.922  0.750-  47 1.67  37 2.02  24 2.81   3 2.81  41 2.92  38 3.34   4 3.55  19 3.55

[...]

  23  0.843  0.672  0.300-  32 2.81  10 2.81  31 2.81  14 2.81
  24  0.177  0.838  0.600-  11 2.81  32 2.81  15 2.81  33 2.81  41 3.40
  25  0.843  0.172  0.000-  39 1.38  34 2.81  16 2.81  48 3.41  30 3.55  12 3.55
  26  0.177  0.338  0.300-  35 2.81  13 2.81  34 2.81  17 2.81
  27  0.510  0.505  0.600-  40 1.67  14 2.81  36 2.81  35 2.81  18 2.81  43 3.20  46 3.59
  28  0.260  0.755  0.150-  42 2.43  45 2.62   8 2.81  19 2.81   1 2.81  20 2.81  48 3.08
  29  0.593  0.922  0.450-   9 2.81   2 2.81  20 2.81  21 2.81
  30  0.927  0.088  0.750-  46 2.33  37 2.61  21 2.81   3 2.81  43 2.84  25 3.55   4 3.55
  31  0.593  0.422  0.150-  44 2.74   5 2.81  22 2.81   7 2.81  23 2.81
  32  0.927  0.588  0.450-   6 2.81  23 2.81  24 2.81   8 2.81
  33  0.260  0.755  0.750-  42 2.43   9 2.81  24 2.81  45 3.40  19 3.55   1 3.55  41 3.58
  34  0.927  0.088  0.150-  25 2.81   2 2.81   4 2.81  26 2.81
  35  0.260  0.255  0.450-  26 2.81   3 2.81  27 2.81   5 2.81
  36  0.593  0.422  0.750-  44 1.67  40 2.02  27 2.81   6 2.81  38 2.92  41 3.34  22 3.55   7 3.55

  37  0.989  0.963  0.750-   3 1.67  15 2.02  30 2.61   4 2.74  46 2.81  47 2.81  43 2.81
  38  0.878  0.574  0.850-   7 2.62  47 2.81  48 2.81  44 2.81  36 2.92  19 3.08  15 3.34   6 3.40
                            12 3.58
  39  0.767  0.185  0.950-  25 1.38  16 2.43  12 2.43  48 2.81  45 2.81   7 3.41
  40  0.489  0.463  0.750-  27 1.67  36 2.02  18 2.61  22 2.74  46 2.81  44 2.81  43 2.81
  41  0.378  0.074  0.850-  19 2.62  45 2.81  47 2.81  44 2.81  15 2.92   7 3.08  36 3.34  24 3.40
                            33 3.58
  42  0.267  0.685  0.950-   1 1.38  28 2.43  33 2.43  48 2.81  45 2.81  19 3.41
  43  0.684  0.768  0.800-  18 2.33  40 2.81  37 2.81  30 2.84  22 3.20  27 3.20   4 3.59   3 3.59

  44  0.573  0.380  0.900-  36 1.67   7 2.29  31 2.74  40 2.81  41 2.81  38 2.81  22 2.82
  45  0.462  0.991  0.000-  28 2.62  19 2.71  41 2.81  42 2.81  39 2.81  16 3.08   7 3.16  20 3.29
                            33 3.40   1 3.41
  46  0.184  0.268  0.800-  30 2.33  37 2.81  40 2.81  18 2.84   3 3.20   4 3.20  22 3.59  27 3.59

  47  0.073  0.880  0.900-  15 1.67  19 2.29  10 2.74  41 2.81  38 2.81  37 2.81   4 2.82
  48  0.962  0.491  0.000-  16 2.62   7 2.71  39 2.81  42 2.81  38 2.81  28 3.08  19 3.16   8 3.29
                            12 3.40  25 3.41

  LATTYP: Found a base centered orthorhombic cell.
 ALAT       =     9.1771147817
 B/A-ratio  =     3.0000000001
 C/A-ratio  =     1.1785112885

  Lattice vectors:

 A1 = (  14.5102920530,   0.0000000000,   0.0000000000)
 A2 = ( -11.6082344060,   8.7061758040,   0.0000000000)
 A3 = (   0.0000000000,   0.0000000000,  10.8153333660)

Analysis of symmetry for initial positions (statically):
 Subroutine PRICEL returns following result:

  LATTYP: Found a simple orthorhombic cell.
 ALAT       =     4.5885571614
 B/A-ratio  =     2.3570226948
 C/A-ratio  =     3.0000001081

[...]

   2 primitive cells build up your supercell.

 Routine SETGRP: Setting up the symmetry group for a
 base centered orthorhombic supercell.

 Subroutine GETGRP returns: Found  1 space group operations
 (whereof  1 operations were pure point group operations)
 out of a pool of  8 trial point group operations.

The static configuration has the point symmetry C_1 .

Analysis of symmetry for dynamics (positions and initial velocities):
 Subroutine PRICEL returns following result:

[...]

The dynamic configuration has the point symmetry C_1 .

Analysis of structural, dynamic, and magnetic symmetry:
 Subroutine PRICEL returns following result:

  LATTYP: Found a simple orthorhombic cell.
 ALAT       =     4.5885571614
 B/A-ratio  =     2.3570226948
 C/A-ratio  =     3.0000001081

  Lattice vectors:

 A1 = (  -1.4510285681,  -4.3530877453,   0.0000000000)
 A2 = (   0.0000000000,   0.0000000000,  10.8153333660)
 A3 = ( -13.0592629741,   4.3530880587,   0.0000000000)

   2 primitive cells build up your supercell.

 Routine SETGRP: Setting up the symmetry group for a
 base centered orthorhombic supercell.

 Subroutine GETGRP returns: Found  1 space group operations
 (whereof  1 operations were pure point group operations)
 out of a pool of  8 trial point group operations.

The overall configuration has the point symmetry C_1 .

 Subroutine INISYM returns: Found  1 space group operations
 (whereof  1 operations are pure point group operations),
 and found     2 'primitive' translations

                                     Primitive cell

  volume of cell :     683.1459

  direct lattice vectors                    reciprocal lattice vectors
    -1.451028568 -4.353087745  0.000000000    -0.068916607 -0.206749803  0.000000000
     0.000000000  0.000000000 10.815333366     0.000000000  0.000000000  0.092461320
   -13.059262974  4.353088059  0.000000000    -0.068916602  0.022972190  0.000000000

  length of vectors
     4.588557161 10.815333366 13.765671980     0.217933430  0.092461320  0.072644474

  position of ions in fractional coordinates (direct lattice)
     0.985105302  0.000000000  0.328368356
     0.485105139  0.300000042  0.161701794
     0.985105166  0.599999964  0.995035217
     0.985105285  0.000000000  0.995035098
     0.485105168  0.300000042  0.828368490
     0.985105258  0.599999964  0.661701913
     0.985105317  0.000000000  0.661701734
     0.485105275  0.300000042  0.495035172
     0.985105123  0.599999964  0.328368535
     0.985105217  0.149999991  0.828368409
     0.485105243  0.450000018  0.661701832
     0.985105191  0.750000060  0.495035224
     0.985105322  0.149999991  0.161701757
     0.485105339  0.450000018  0.995035314
     0.985105039  0.750000060  0.828368587
     0.985105400  0.149999991  0.495035075
     0.485105396  0.450000018  0.328368468
     0.985105233  0.750000060  0.161701906
     0.047768663  0.750000060  0.973461852
     0.547768763  0.850000143  0.695684094
     0.047768863  0.950000167  0.417906337
     0.547768644  0.800000072  0.084573011
     0.047768787  0.900000095  0.806795200
     0.547768904  0.000000238  0.529017555

  ion indices of the primitive-cell ions
   primitive index   ion index
                 1           1
                 2          26
                 3          27
                 4          22
                 5           5
                 6          24
                 7          19
                 8           8
                 9           9
                10          31
                11          32
                12          33
                13          13
                14          35
                15          36
                16          28
                17          29
                18          18
                19          40
                20          41
                21          42
                22          43
                23          47
                24          45

 KPOINTS: Automatic KPOINTS generated

Automatic generation of k-mesh.
 Grid dimensions read from file:
 generate k-points for:    4    4    3

 Generating k-lattice:

  Cartesian coordinates                     Fractional coordinates (reciprocal lattice)
[...]
     42      -0.4020      1.00000
     43      -0.3140      1.00000
     44      -0.2388      1.00000
     45      -0.0752      1.00000
     46       0.0827      1.00000
     47       0.1621      1.00000
     48       0.2271      1.00000
     49       0.4200      1.00000
     50       0.4614      1.00000
     51       0.5638      1.00000
     52       0.6546      1.00000
     53       1.1004      1.00000
     54       1.1298      1.00000
     55       1.3347      1.00000
     56       1.3463      1.00000
     57       1.6096      1.00000
     58       1.6982      1.00000
     59       1.7333      1.00000
     60       1.9345      1.00000
[...]
    102       5.7765      0.00000
    103       5.8362      0.00000
    104       5.8731      0.00000
    105       5.9333      0.00000
    106       6.0493      0.00000
    107       6.0998      0.00000
    108       6.2138      0.00000
    109       6.2911      0.00000
    110       6.2941      0.00000
    111       6.3939      0.00000
    112       6.5363      0.00000
    113       6.6098      0.00000
    114       6.7020      0.00000
    115       6.7287      0.00000
    116       6.8423      0.00000
 Fermi energy:         5.2959474477

 spin component 2

[...]

 k-point    26 :       0.5000    0.5000    0.3333
  band No.  band energies     occupation
      1      -9.0552      1.00000
      2      -8.5494      1.00000
      3      -8.0907      1.00000
      4      -7.2799      1.00000
      5      -7.1287      1.00000
      6      -6.4365      1.00000
      7      -5.8908      1.00000
      8      -5.3013      1.00000
      9      -5.2866      1.00000
     10      -4.9726      1.00000
     11      -4.9683      1.00000
     12      -4.4461      1.00000
     13      -4.3869      1.00000
     14      -4.2041      1.00000
     15      -4.1855      1.00000
     16      -4.1297      1.00000
     17      -4.0205      1.00000
     18      -3.8147      1.00000
     19      -3.7348      1.00000
     20      -3.5304      1.00000
     21      -3.2010      1.00000
     22      -3.1656      1.00000
     23      -3.1117      1.00000
     24      -3.0175      1.00000
     25      -2.9524      1.00000
     26      -2.7782      1.00000
     27      -2.6303      1.00000
     28      -2.4759      1.00000
     29      -2.3758      1.00000
     30      -2.1798      1.00000
     31      -1.6472      1.00000
     32      -1.5333      1.00000
     33      -1.5304      1.00000
     34      -1.4341      1.00000
     35      -1.0909      1.00000
     36      -1.0241      1.00000
     37      -0.8473      1.00000
     38      -0.7755      1.00000
     39      -0.4587      1.00000
     40      -0.4267      1.00000
     41      -0.4088      1.00000
     42      -0.3853      1.00000
     43      -0.2963      1.00000
     44      -0.2226      1.00000
     45      -0.0578      1.00000
     46       0.0995      1.00000
     47       0.1790      1.00000
     48       0.2423      1.00000
     49       0.4360      1.00000
     50       0.4790      1.00000
     51       0.5792      1.00000
     52       0.6704      1.00000
     53       1.1186      1.00000
     54       1.1466      1.00000
     55       1.3494      1.00000
     56       1.3636      1.00000
     57       1.6266      1.00000
     58       1.7148      1.00000
     59       1.7510      1.00000
     60       1.9530      1.00000
[...]
    102       5.7964      0.00000
    103       5.8560      0.00000
    104       5.8968      0.00000
    105       5.9535      0.00000
    106       6.0680      0.00000
    107       6.1176      0.00000
    108       6.2332      0.00000
    109       6.3104      0.00000
    110       6.3128      0.00000
    111       6.4118      0.00000
    112       6.5552      0.00000
    113       6.6276      0.00000
    114       6.7218      0.00000
    115       6.7462      0.00000
    116       6.8598      0.00000

 soft charge-density along one line, spin component           1
         0         1         2         3         4         5         6         7         8         9
 total charge-density along one line

 soft charge-density along one line, spin component           2
         0         1         2         3         4         5         6         7         8         9
 total charge-density along one line

------------------------ aborting loop because EDIFF is reached ----------------------------------------

  FORCE on cell =-STRESS in cart. coord.  units (eV):
  Direction    XX          YY          ZZ          XY          YZ          ZX
  Alpha Z   210.94477   210.94477   210.94477
  Ewald   -1094.93404 -1559.80833 -1552.42985   -86.01632  -148.52999   355.41823
  Hartree   315.02035   390.87151    -6.41325    29.15472   -33.59676   105.15969
  E(xc)    -950.27475  -911.27089  -945.41754     4.38896     8.89665   -18.16466
  Local   -1212.51942 -1148.98246  -407.28641     3.92553   103.27772  -303.76412
  n-local  2502.28679  2386.78731  2505.74733   -16.26312   -29.71962    38.98217
  augment  -573.52860  -626.86435  -548.17627    -9.00849   -17.15618    25.94433
  Kinetic  1373.14385  1426.12083  1373.67864    15.03012     7.20238    -5.95236
  Fock        0.00000     0.00000     0.00000     0.00000     0.00000     0.00000
  Total     570.13896   167.79839   630.64741   -58.78860  -109.62581   197.62329
  in kB     668.57141   196.76818   739.52644   -68.93824  -128.55231   231.74225

 VOLUME and BASIS-vectors are now :
  energy-cutoff  :      700.00
  volume of cell :     1366.29
      direct lattice vectors                 reciprocal lattice vectors
    14.510292053  0.000000000  0.000000000     0.068916600  0.091888801  0.000000000
   -11.608234406  8.706175804  0.000000000     0.000000000  0.114860993  0.000000000
     0.000000000  0.000000000 10.815333366     0.000000000  0.000000000  0.092461320

  length of vectors
    14.510292053 14.510293007 10.815333366     0.114861001  0.114860993  0.092461320

 FORCES acting on ions
    electron-ion (+dipol)            ewald-force                    non-local-force                 convergence-correction
   -.497E+02 0.133E+02 -.942E+01   0.128E+03 -.206E+02 0.418E+02   0.330E+02 -.398E+01 0.138E+02   0.319E-04 -.855E-05 -.227E-04
   0.298E+01 -.993E+00 -.173E+01   -.306E+01 0.100E+01 0.158E+01   0.777E-01 -.275E-01 0.167E+00   0.638E-05 -.712E-05 0.160E-06
   0.129E+02 -.841E+01 0.731E+02   -.177E+02 0.161E+02 -.109E+03   -.350E+01 0.720E+01 -.315E+02   -.757E-05 0.150E-05 0.156E-04
   0.292E+02 -.110E+02 -.516E+02   -.304E+02 0.112E+02 0.516E+02   -.713E+00 0.791E+00 0.159E+01   -.159E-04 0.516E-05 -.114E-04
   0.699E+01 -.276E+01 -.948E+01   -.718E+01 0.229E+01 0.966E+01   0.167E+00 0.421E+00 0.230E-01   -.242E-04 0.162E-04 0.102E-04
   -.169E+02 0.664E+01 0.406E+02   0.172E+02 -.689E+01 -.410E+02   -.232E+00 0.134E+00 -.352E-01   -.440E-05 0.935E-06 -.341E-05
   -.520E+01 0.846E+01 -.416E+02   0.658E+01 -.100E+02 0.422E+02   0.387E+01 -.213E+01 0.486E+01   -.197E-04 0.478E-05 0.198E-05
   -.104E+02 0.288E+01 -.325E+02   0.105E+02 -.301E+01 0.328E+02   0.128E+00 0.655E-01 0.506E+00   0.177E-04 -.489E-05 0.144E-04
   0.136E+01 -.385E+00 0.189E+02   -.140E+01 0.458E+00 -.182E+02   -.553E-01 0.365E-01 -.889E+00   0.183E-04 -.603E-05 0.196E-04
   0.156E+02 -.619E+01 -.481E+02   -.162E+02 0.677E+01 0.494E+02   0.362E+00 -.249E+00 0.885E+00   -.241E-04 0.685E-05 0.825E-05
   -.746E+01 0.282E+01 0.941E+01   0.741E+01 -.236E+01 -.901E+01   0.479E-01 -.474E+00 -.532E+00   -.618E-05 0.495E-05 0.354E-05
   -.172E+02 0.531E+01 0.517E+02   0.172E+02 -.525E+01 -.526E+02   -.178E+01 0.113E+01 -.291E+01   0.383E-04 -.101E-04 -.150E-04
   -.448E+00 0.240E+00 -.184E+02   0.210E+00 -.979E-01 0.179E+02   -.184E+00 -.541E-01 0.414E+00   0.719E-05 -.307E-05 -.716E-05
   0.886E+01 -.183E+01 0.307E+02   -.879E+01 0.245E+01 -.305E+02   -.210E+00 -.735E+00 -.649E+00   -.784E-05 -.324E-05 0.289E-05
   -.206E+02 0.131E+00 0.526E+02   0.252E+02 0.598E+01 -.862E+02   0.112E+02 0.377E+01 -.311E+02   -.416E-04 0.940E-05 -.105E-07
   -.844E+01 0.630E+01 -.685E+02   0.748E+01 -.630E+01 0.705E+02   -.155E+01 -.261E+00 0.632E+01   0.228E-04 -.717E-05 0.932E-05
   -.192E+01 0.508E+00 0.255E+01   0.197E+01 -.637E+00 -.235E+01   0.209E-01 0.888E-01 -.184E+00   0.155E-04 -.366E-05 0.188E-04
   0.575E+02 -.110E+02 0.780E+01   -.597E+02 0.102E+02 -.726E+01   -.731E+01 -.156E+01 -.148E+01   -.570E-05 -.203E-06 0.536E-05
   -.520E+01 0.846E+01 -.416E+02   0.658E+01 -.100E+02 0.422E+02   0.387E+01 -.213E+01 0.486E+01   -.109E-04 0.156E-05 0.361E-05
   -.104E+02 0.288E+01 -.325E+02   0.105E+02 -.301E+01 0.328E+02   0.128E+00 0.655E-01 0.506E+00   0.168E-04 -.597E-05 0.149E-04
   0.136E+01 -.385E+00 0.189E+02   -.140E+01 0.458E+00 -.182E+02   -.553E-01 0.365E-01 -.889E+00   0.152E-04 -.458E-05 0.195E-04
   0.292E+02 -.110E+02 -.516E+02   -.304E+02 0.112E+02 0.516E+02   -.713E+00 0.791E+00 0.159E+01   -.102E-04 0.212E-05 -.128E-04
   0.699E+01 -.276E+01 -.948E+01   -.718E+01 0.229E+01 0.966E+01   0.167E+00 0.421E+00 0.230E-01   -.280E-04 0.300E-05 0.984E-05
   -.169E+02 0.664E+01 0.406E+02   0.172E+02 -.689E+01 -.410E+02   -.232E+00 0.134E+00 -.352E-01   -.614E-06 -.406E-06 -.629E-05
   -.497E+02 0.133E+02 -.942E+01   0.128E+03 -.206E+02 0.418E+02   0.330E+02 -.398E+01 0.138E+02   0.306E-04 -.684E-05 -.242E-04
   0.298E+01 -.993E+00 -.173E+01   -.306E+01 0.100E+01 0.158E+01   0.777E-01 -.275E-01 0.167E+00   0.971E-05 0.135E-05 0.402E-06
   0.129E+02 -.841E+01 0.731E+02   -.177E+02 0.161E+02 -.109E+03   -.350E+01 0.720E+01 -.315E+02   -.556E-05 -.820E-06 0.206E-04
   -.844E+01 0.630E+01 -.685E+02   0.748E+01 -.630E+01 0.705E+02   -.155E+01 -.261E+00 0.632E+01   0.271E-04 -.101E-04 0.703E-05
   -.192E+01 0.508E+00 0.255E+01   0.197E+01 -.637E+00 -.235E+01   0.209E-01 0.888E-01 -.184E+00   0.147E-04 -.619E-05 0.191E-04
   0.575E+02 -.110E+02 0.780E+01   -.597E+02 0.102E+02 -.726E+01   -.731E+01 -.156E+01 -.148E+01   -.123E-04 0.294E-05 0.276E-05
   0.156E+02 -.619E+01 -.481E+02   -.162E+02 0.677E+01 0.494E+02   0.362E+00 -.249E+00 0.885E+00   -.322E-04 0.918E-05 0.113E-05
   -.746E+01 0.282E+01 0.941E+01   0.741E+01 -.236E+01 -.901E+01   0.479E-01 -.474E+00 -.532E+00   -.768E-05 -.621E-06 0.353E-05
   -.172E+02 0.531E+01 0.517E+02   0.172E+02 -.525E+01 -.526E+02   -.178E+01 0.113E+01 -.291E+01   0.422E-04 -.127E-04 -.130E-04
   -.448E+00 0.240E+00 -.184E+02   0.210E+00 -.979E-01 0.179E+02   -.184E+00 -.541E-01 0.414E+00   0.206E-05 -.460E-06 -.239E-05
   0.886E+01 -.183E+01 0.307E+02   -.879E+01 0.245E+01 -.305E+02   -.210E+00 -.735E+00 -.649E+00   -.453E-05 0.781E-05 0.313E-05
   -.206E+02 0.131E+00 0.526E+02   0.252E+02 0.598E+01 -.862E+02   0.112E+02 0.377E+01 -.311E+02   -.468E-04 0.115E-04 0.378E-05
   0.251E+02 0.515E+01 0.439E+01   -.290E+02 -.125E+02 0.303E+02   -.899E+01 -.500E+01 0.271E+02   -.877E-05 0.216E-05 -.487E-05
   -.152E+02 -.730E+01 0.250E+02   0.160E+02 0.829E+01 -.272E+02   0.104E+01 0.117E+01 -.406E+00   -.241E-04 0.272E-05 -.147E-04
   -.364E+02 0.238E+02 0.182E+02   -.389E+02 -.180E+02 -.519E+02   -.280E+02 0.831E+00 -.150E+02   0.469E-04 -.163E-04 -.268E-04
   0.251E+02 0.515E+01 0.439E+01   -.290E+02 -.125E+02 0.303E+02   -.899E+01 -.500E+01 0.271E+02   -.554E-05 0.559E-05 0.174E-05
   -.152E+02 -.730E+01 0.250E+02   0.160E+02 0.829E+01 -.272E+02   0.104E+01 0.117E+01 -.406E+00   -.193E-04 0.140E-04 -.143E-04
   -.364E+02 0.238E+02 0.182E+02   -.389E+02 -.180E+02 -.519E+02   -.280E+02 0.831E+00 -.150E+02   0.515E-04 -.177E-04 -.223E-04
   0.302E+02 -.261E+02 -.194E+02   -.289E+02 0.272E+02 0.192E+02   0.229E+01 0.434E+01 0.351E+01   -.147E-04 -.412E-05 -.423E-05
   0.195E+02 0.602E+01 -.277E+02   -.168E+02 -.144E+02 0.610E+02   -.579E+00 -.636E+01 0.278E+02   -.516E-04 0.209E-04 -.201E-04
   -.187E+02 -.749E+01 -.817E+01   0.200E+02 0.816E+01 0.762E+01   -.682E+00 0.277E+01 -.932E+00   0.311E-04 -.106E-04 -.907E-05
   0.302E+02 -.261E+02 -.194E+02   -.289E+02 0.272E+02 0.192E+02   0.229E+01 0.434E+01 0.351E+01   -.108E-04 0.141E-04 -.504E-05
   0.195E+02 0.602E+01 -.277E+02   -.168E+02 -.144E+02 0.610E+02   -.579E+00 -.636E+01 0.278E+02   -.426E-04 0.138E-04 -.238E-04
   -.187E+02 -.749E+01 -.817E+01   0.200E+02 0.816E+01 0.762E+01   -.682E+00 0.277E+01 -.932E+00   0.312E-04 -.854E-05 -.956E-05
   0.325E+01 -.377E+01 -.317E+01   -.462E-13 0.000E+00 -.195E-13   -.338E+01 0.385E+01 0.317E+01   -.162E-04 0.241E-05 -.522E-04

 POSITION                                       TOTAL-FORCE (eV/Angst)
     -2.81561      5.84734      0.00000       111.550867    -11.193152     46.279453
      0.08645      7.29837      3.24460         0.003181     -0.018392      0.017557
      0.08645      0.04323      6.48920        -8.327718     14.931387    -67.557982
      0.08645      0.04323      0.00000        -1.836256      0.982975      1.580533
      2.98851      1.49426      3.24460        -0.019876     -0.043455      0.202365
      5.89056      2.94528      6.48920         0.042789     -0.115896     -0.457158
      5.89057      2.94528      0.00000         5.256032     -3.669577      5.444352
     -5.71767      4.39631      3.24460         0.218658     -0.069623      0.800528
     -2.81561      5.84734      6.48920        -0.084948      0.107462     -0.270404
     -9.34524      8.02389      1.62230        -0.237957      0.329894      2.190832
      5.16505      0.76874      4.86690        -0.004764     -0.012810     -0.128719
      8.06711      2.21977      8.11150        -1.812697      1.187007     -3.783128
     -0.63906      5.12183      1.62230        -0.418655      0.086556     -0.106466
      2.26299      6.57286      4.86690        -0.143046     -0.117799     -0.533473
     -9.34524      8.02389      8.11150        15.771420      9.878118    -64.673770
      8.06711      2.21977      1.62230        -2.511388     -0.254320      8.362606
     -3.54112      3.67080      4.86690         0.079607     -0.042009      0.018620
     -0.63907      5.12183      8.11150        -9.460813     -2.408967     -0.929070
     -7.16870      7.29837      0.00000         5.256032     -3.669577      5.444352
      7.34160      0.04323      3.24460         0.218658     -0.069623      0.800528
     10.24365      1.49425      6.48920        -0.084948      0.107462     -0.270404
      1.53748      4.39631      0.00000        -1.836256      0.982975      1.580533
      4.43954      5.84734      3.24460        -0.019876     -0.043455      0.202365
     -7.16870      7.29837      6.48920         0.042789     -0.115896     -0.457158
     10.24366      1.49425      0.00000       111.550867    -11.193152     46.279453
     -1.36458      2.94528      3.24460         0.003181     -0.018392      0.017557
      1.53748      4.39631      6.48920        -8.327718     14.931387    -67.557982
     -4.99215      6.57286      1.62230        -2.511388     -0.254320      8.362606
     -2.09009      8.02389      4.86690         0.079607     -0.042009      0.018620
     12.42020      0.76874      8.11150        -9.460813     -2.408967     -0.929070
      3.71402      3.67080      1.62230        -0.237957      0.329894      2.190832
      6.61608      5.12183      4.86690        -0.004764     -0.012810     -0.128719
     -4.99215      6.57286      8.11150        -1.812697      1.187007     -3.783128
     12.42020      0.76874      1.62230        -0.418655      0.086556     -0.106466
      0.81196      2.21977      4.86690        -0.143046     -0.117799     -0.533473
      3.71402      3.67080      8.11150        15.771420      9.878118    -64.673770
      3.17931      8.38271      8.11150       -12.861798    -12.351281     61.772272
      6.08137      4.99698      9.19303         1.795723      2.153563     -2.606899
      8.98343      1.61124     10.27457      -103.413152      6.587902    -48.607084
      1.72828      4.02962      8.11150       -12.861798    -12.351281     61.772272
      4.63034      0.64389      9.19303         1.795723      2.153563     -2.606899
     -4.07583      5.96433     10.27457      -103.413152      6.587902    -48.607084
      1.00277      6.68984      8.65227         3.606861      5.378820      3.275676
      3.90483      3.30411      9.73380         2.146191    -14.770175     61.189722
     -4.80135      8.62455      0.00000         0.661736      3.443773     -1.480361
     -0.44826      2.33676      8.65227         3.606861      5.378820      3.275676
     -9.15444      7.65720      9.73380         2.146191    -14.770175     61.189722
      8.25791      4.27146      0.00000         0.661736      3.443773     -1.480361
    total drift:                               -0.131152      0.088012     -0.001383

  FREE ENERGIE OF THE ION-ELECTRON SYSTEM (eV)
  free  energy   TOTEN  =        50.55093081 eV

  energy  without entropy=       50.55240709  energy(sigma->0) =       50.55166895