 vasp.6.4.3 19Mar24 (build Oct 22 2024 11:23:12) complex

 executed on             LinuxIFC date 2025.06.04  01:14:12

 INCAR:
   SYSTEM = Si and Ge interface calculation
   ISTART = 0
   ICHARG = 2
   LWAVE = .FALSE.
   LREAL = AUTO
   ENCUT = 700
   ENAUG = 900
   ADDGRID = .TRUE.
   LMAXMIX = 6
   LASPH = .TRUE.
   LMIXTAU = .TRUE.
   NCORE = 16
   NELM = 100
   NBANDS = 116
   EDIFF = 1d-7
   AMIX = 0.6
   ISMEAR = 0
   SIGMA = 0.01
   NELECT = 192
   ISPIN = 2
   NUPDOWN = 1
   LVTOT = .FALSE.
   LVHAR = .TRUE.

 POTCAR:    PAW_PBE Sn 08Apr2002
|           W    W    AA    RRRRR   N    N  II  N    N   GGGG   !!!           |
|           W    W   A  A   R    R  NN   N  II  NN   N  G    G  !!!           |
|           W    W  A    A  R    R  N N  N  II  N N  N  G       !!!           |
|           W WW W  AAAAAA  RRRRR   N  N N  II  N  N N  G  GGG   !            |
|           WW  WW  A    A  R   R   N   NN  II  N   NN  G    G                |
|           W    W  A    A  R    R  N    N  II  N    N   GGGG   !!!           |
|     You use a magnetic or noncollinear calculation, but did not specify     |
|     the initial magnetic moment with the MAGMOM tag. Note that a            |
|     default of 0.021 will be used for all atoms. This ferromagnetic         |
|     setup may break the symmetry of the crystal, in particular it may       |
|     rule out finding an antiferromagnetic solution. Thence, we              |
|     recommend setting the initial magnetic moment manually or verifying     |
|     carefully that this magnetic setup is desired.                          |

 POTCAR:    PAW_PBE Sn 08Apr2002
   VRHFIN =Sn: s2p2

   TITEL  = PAW_PBE Sn 08Apr2002
   POMASS =  118.710; ZVAL   =    4.000    mass and valenz
   ENMAX  =  103.236; ENMIN  =   77.427 eV

 Optimization of the real space projectors (new method)

 maximal supplied QI-value         = 12.47
 optimisation between [QCUT,QGAM] = [ 12.47, 27.06] = [ 43.56,205.12] Ry
 Optimized for a Real-space Cutoff    1.58 Angstroem

   l    n(q)    QCUT    max X(q) W(low)/X(q) W(high)/X(q)  e(spline)
   0     13    12.472    14.688    0.45E-04    0.45E-04    0.25E-05
   0     13    12.472     7.308    0.94E-04    0.11E-03    0.61E-05
   1     12    12.472    45.102    0.34E-03    0.14E-03    0.21E-05
   1     12    12.472    30.691    0.31E-03    0.13E-03    0.20E-05
   2     12    12.472     7.156    0.86E-04    0.11E-03    0.17E-05
 WARNING: PSMAXN for non-local potential too small
          PSMAXN should be >   13.5545592237991       NTYP=           1
  PAW_PBE Sn 08Apr2002                  :

 POSCAR: Sn+Sn
  positions in direct lattice

 exchange-correlation table for PE
   RHO(1)=    0.500       N(1)  =     2000
   RHO(2)=  100.500       N(2)  =     4000

 ion  position               nearest neighbor table
   1  0.694  0.523  0.100-  34 2.67  22 2.81  18 2.81  41 2.81  29 2.81
   2  0.944  0.912  0.000-  14 1.66  39 2.67   6 2.81  36 2.81  43 2.81   8 3.50
   3  0.056  0.273  0.600-  37 2.46  45 2.81  10 2.81
   4  0.056  0.912  0.500-  24 1.66  36 2.67  43 2.67  33 2.81  39 2.81   9 3.50
   5  0.306  0.662  0.500-  25 2.46  42 2.46  21 2.81  46 2.81  17 3.50
   6  0.694  0.884  0.200-  14 2.46   9 2.81   2 2.81  13 2.81
   7  0.194  0.662  0.000-  15 1.66  46 2.46  20 2.81  42 2.81  25 2.81
   8  0.306  0.968  1.000-  36 2.46  43 2.46  33 2.81  16 2.81   2 3.50
   9  0.694  0.968  0.500-  39 2.46   6 2.81  12 2.81   4 3.50
  10  0.056  0.357  0.900-  30 2.46   3 2.81  40 2.81
  11  0.194  0.107  0.400-  45 2.67  24 2.81  26 2.81  19 2.81  32 2.81
  12  0.694  0.107  0.400-  27 2.67  32 2.81  19 2.81  26 2.81   9 2.81
  13  0.694  0.745  0.300-  23 2.46  22 2.81  17 2.81   6 2.81
  14  0.806  0.968  1.000-   2 1.66   6 2.46  35 2.81  39 2.81
  15  0.056  0.718  1.000-   7 1.66  25 2.67  42 2.67  46 2.81  28 2.81  22 3.50
  16  0.306  0.107  0.900-  32 2.67  27 2.81  45 2.81   8 2.81
  17  0.944  0.718  0.500-  23 1.66  28 2.67  13 2.81  25 2.81  42 2.81   5 3.50
  18  0.944  0.495  0.300-  41 0.00  44 2.67  37 2.81   1 2.81  20 2.81
  19  0.944  0.134  0.200-  26 0.00  35 2.67  30 2.81  11 2.81  12 2.81
  20  0.194  0.523  0.100-  40 2.67   7 2.81  29 2.81  18 2.81  41 2.81
  21  0.306  0.523  0.600-  29 2.67   5 2.81  40 2.81  34 2.81
  22  0.694  0.662  0.000-  28 2.46  13 2.81   1 2.81  15 3.50
  23  0.806  0.662  0.500-  17 1.66  13 2.46  28 2.81  44 2.81
  24  0.194  0.968  0.500-   4 1.66  33 2.46  11 2.81  36 2.81  43 2.81
  25  0.194  0.745  0.300-  42 0.00   5 2.46  15 2.67   7 2.81  17 2.81  36 2.81  43 2.81
  26  0.944  0.134  0.200-  19 0.00  35 2.67  30 2.81  11 2.81  12 2.81
  27  0.556  0.134  0.700-  12 2.67  38 2.81  35 2.81  16 2.81
  28  0.806  0.745  0.800-  22 2.46  17 2.67  23 2.81  39 2.81  15 2.81
  29  0.444  0.495  0.300-  21 2.67  31 2.81  20 2.81   1 2.81
  30  0.944  0.273  0.100-  10 2.46  19 2.81  26 2.81  37 2.81
  31  0.444  0.357  0.400-  38 2.46  29 2.81  48 2.81
  32  0.444  0.134  0.200-  16 2.67  48 2.81  12 2.81  11 2.81
  33  0.306  0.884  0.700-  24 2.46   8 2.81   4 2.81  46 2.81
  34  0.556  0.495  0.800-   1 2.67  47 2.81  44 2.81  21 2.81
  35  0.806  0.107  0.900-  19 2.67  26 2.67  14 2.81  27 2.81  45 2.81
  36  0.194  0.884  0.200-  43 0.00   8 2.46   4 2.67   2 2.81  24 2.81  42 2.81  25 2.81
  37  0.944  0.357  0.400-   3 2.46  18 2.81  41 2.81  30 2.81
  38  0.556  0.273  0.600-  31 2.46  27 2.81  47 2.81
  39  0.806  0.884  0.700-   9 2.46   2 2.67  14 2.81   4 2.81  28 2.81
  40  0.056  0.495  0.800-  20 2.67  10 2.81  21 2.81  44 2.81
  41  0.944  0.495  0.300-  18 0.00  44 2.67  37 2.81   1 2.81  20 2.81
  42  0.194  0.745  0.300-  25 0.00   5 2.46  15 2.67   7 2.81  17 2.81  36 2.81  43 2.81
  43  0.194  0.884  0.200-  36 0.00   8 2.46   4 2.67   2 2.81  24 2.81  25 2.81  42 2.81
  44  0.806  0.523  0.600-  18 2.67  41 2.67  23 2.81  34 2.81  40 2.81
  45  0.056  0.134  0.700-  11 2.67   3 2.81  35 2.81  16 2.81
  46  0.306  0.745  0.800-   7 2.46  15 2.81   5 2.81  33 2.81
  47  0.556  0.357  0.900-  48 2.46  34 2.81  38 2.81
  48  0.444  0.273  0.100-  47 2.46  32 2.81  31 2.81

  LATTYP: Found a simple orthorhombic cell.
 ALAT       =     7.6476025580
 B/A-ratio  =     1.1999988777
 C/A-ratio  =     2.5455823088

  Lattice vectors:

 A1 = (   0.0000000000,   0.0000000000,   7.6476025580)
 A2 = (   9.1771144870,   0.0000000000,   0.0000000000)
 A3 = (   0.0000000000,  19.4676017760,   0.0000000000)

Analysis of symmetry for initial positions (statically):
 Subroutine PRICEL returns:
 Original cell was already a primitive cell.

 Routine SETGRP: Setting up the symmetry group for a
 simple orthorhombic supercell.

 Subroutine GETGRP returns: Found  2 space group operations
 (whereof  1 operations were pure point group operations)
 out of a pool of  8 trial point group operations.

The static configuration has the point symmetry C_1 .
 The point group associated with its full space group is C_2 .

Analysis of symmetry for dynamics (positions and initial velocities):
 Subroutine PRICEL returns:
 Original cell was already a primitive cell.

[...]

The dynamic configuration has the point symmetry C_1 .
 The point group associated with its full space group is C_2 .

Analysis of structural, dynamic, and magnetic symmetry:
 Subroutine PRICEL returns:
 Original cell was already a primitive cell.

 Routine SETGRP: Setting up the symmetry group for a
 simple orthorhombic supercell.

 Subroutine GETGRP returns: Found  2 space group operations
 (whereof  1 operations were pure point group operations)
 out of a pool of  8 trial point group operations.

The overall configuration has the point symmetry C_1 .
 The point group associated with its full space group is C_2 .

 Subroutine INISYM returns: Found  2 space group operations
 (whereof  1 operations are pure point group operations),
 and found     1 'primitive' translations

                                     Primitive cell

  volume of cell :    1366.2932

  direct lattice vectors                    reciprocal lattice vectors
     9.177114487  0.000000000  0.000000000     0.108966713  0.000000000  0.000000000
     0.000000000 19.467601776  0.000000000     0.000000000  0.051367396  0.000000000
     0.000000000  0.000000000  7.647602558     0.000000000  0.000000000  0.130759933

  length of vectors
     9.177114487 19.467601776  7.647602558     0.108966713  0.051367396  0.130759933

  position of ions in fractional coordinates (direct lattice)
     0.693514049  0.523244023  0.100000001
     0.943514049  0.912132978  0.000000022
     0.056485891  0.273243964  0.600000024
     0.056485925  0.912132978  0.499999940
     0.306485921  0.662132859  0.499999940
     0.693514109  0.884355068  0.199999973
     0.193514079  0.662132859  0.000000000
     0.306486130  0.967688084  0.999999881
     0.693513870  0.967688084  0.499999970
     0.056486130  0.356577158  0.899999857
     0.193513989  0.106577039  0.399999797
     0.693513870  0.106577158  0.399999917
     0.693514049  0.745466113  0.299999952
     0.806486130  0.967688322  0.999999881
     0.056486130  0.717688084  0.999999881
     0.306486011  0.106577098  0.899999857
     0.943513870  0.717688084  0.499999821
     0.943513930  0.495465994  0.299999952
     0.943514049  0.134355187  0.199999973
     0.193514034  0.523244023  0.099999964
     0.306485951  0.523244023  0.599999964
     0.693514049  0.662132919  0.000000035
     0.806485891  0.662132919  0.499999940
     0.193513930  0.967688322  0.499999970
     0.193513930  0.745466113  0.299999952
     0.943514049  0.134355187  0.199999973
     0.556485951  0.134355187  0.699999928
     0.806486070  0.745466113  0.799999952
     0.443513989  0.495465994  0.299999923
     0.943514049  0.273243934  0.099999987
     0.443513989  0.356577277  0.399999857
     0.443514049  0.134355187  0.199999899
     0.306485891  0.884355068  0.699999928
     0.556486011  0.495465934  0.799999952
     0.806485891  0.106577218  0.899999857
     0.193514019  0.884355068  0.199999973
     0.943513870  0.356577158  0.399999857
     0.556485951  0.273243934  0.599999964
     0.806485891  0.884355068  0.699999928
     0.056486011  0.495465994  0.799999952
     0.943513930  0.495465994  0.299999952
     0.193513930  0.745466113  0.299999952
     0.193514019  0.884355068  0.199999973
     0.806485951  0.523244023  0.599999964
     0.056485891  0.134355187  0.699999928
     0.306486011  0.745466113  0.799999952
     0.556486011  0.356577277  0.899999857
     0.443513989  0.273243964  0.100000016

  ion indices of the primitive-cell ions
   primitive index   ion index
                 1           1
                 2           2
                 3           3
                 4           4
                 5           5
                 6           6
                 7           7
                 8           8
                 9           9
                10          10
                11          11
                12          12
                13          13
                14          14
                15          15
                16          16
                17          17
                18          18
                19          19
[...]
     42       0.3153      1.00000
     43       0.4931      1.00000
     44       0.7823      1.00000
     45       0.8723      1.00000
     46       1.0099      1.00000
     47       1.1394      1.00000
     48       1.4814      1.00000
     49       1.5877      1.00000
     50       1.5996      1.00000
     51       1.6651      1.00000
     52       1.7974      1.00000
     53       1.9522      1.00000
     54       2.0010      1.00000
     55       2.0270      1.00000
     56       2.1237      1.00000
     57       2.2088      1.00000
     58       2.2550      1.00000
     59       2.3420      1.00000
     60       2.3569      1.00000
[...]
    102       5.5818      0.00000
    103       5.5937      0.00000
    104       5.6617      0.00000
    105       5.8100      0.00000
    106       5.8973      0.00000
    107       5.9007      0.00000
    108       6.0326      0.00000
    109       6.0939      0.00000
    110       6.2028      0.00000
    111       6.2226      0.00000
    112       6.3405      0.00000
    113       6.4006      0.00000
    114       6.4959      0.00000
    115       6.5391      0.00000
    116       6.5658      0.00000
 Fermi energy:         5.1862329753

 spin component 2

[...]

 k-point    12 :       0.3333    0.5000    0.5000
  band No.  band energies     occupation
      1      -6.9177      1.00000
      2      -6.5949      1.00000
      3      -6.5337      1.00000
      4      -6.5072      1.00000
      5      -4.9883      1.00000
      6      -4.9774      1.00000
      7      -4.7786      1.00000
      8      -4.7035      1.00000
      9      -4.6897      1.00000
     10      -4.5874      1.00000
     11      -4.3315      1.00000
     12      -4.2515      1.00000
     13      -4.1494      1.00000
     14      -3.8516      1.00000
     15      -3.7634      1.00000
     16      -3.6492      1.00000
     17      -3.4249      1.00000
     18      -3.3955      1.00000
     19      -3.1315      1.00000
     20      -3.1144      1.00000
     21      -2.2461      1.00000
     22      -2.1898      1.00000
     23      -2.1120      1.00000
     24      -1.8305      1.00000
     25      -1.7377      1.00000
     26      -1.6478      1.00000
     27      -1.5543      1.00000
     28      -1.4666      1.00000
     29      -1.2068      1.00000
     30      -1.1689      1.00000
     31      -0.9404      1.00000
     32      -0.9351      1.00000
     33      -0.7713      1.00000
     34      -0.5574      1.00000
     35      -0.5357      1.00000
     36      -0.3006      1.00000
     37      -0.2734      1.00000
     38      -0.2202      1.00000
     39      -0.0240      1.00000
     40       0.0862      1.00000
     41       0.2706      1.00000
     42       0.3288      1.00000
     43       0.5067      1.00000
     44       0.7967      1.00000
     45       0.8886      1.00000
     46       1.0252      1.00000
     47       1.1521      1.00000
     48       1.4992      1.00000
     49       1.6079      1.00000
     50       1.6190      1.00000
     51       1.6839      1.00000
     52       1.8137      1.00000
     53       1.9686      1.00000
     54       2.0193      1.00000
     55       2.0438      1.00000
     56       2.1392      1.00000
     57       2.2244      1.00000
     58       2.2697      1.00000
     59       2.3582      1.00000
     60       2.3704      1.00000
[...]
    102       5.6067      0.00000
    103       5.6262      0.00000
    104       5.6872      0.00000
    105       5.8428      0.00000
    106       5.9235      0.00000
    107       5.9342      0.00000
    108       6.0530      0.00000
    109       6.1116      0.00000
    110       6.2235      0.00000
    111       6.2455      0.00000
    112       6.3612      0.00000
    113       6.4179      0.00000
    114       6.5123      0.00000
    115       6.5384      0.00000
    116       6.6035      0.00000

 soft charge-density along one line, spin component           1
         0         1         2         3         4         5         6         7         8         9
 total charge-density along one line

 soft charge-density along one line, spin component           2
         0         1         2         3         4         5         6         7         8         9
 total charge-density along one line

------------------------ aborting loop because EDIFF is reached ----------------------------------------

  FORCE on cell =-STRESS in cart. coord.  units (eV):
  Direction    XX          YY          ZZ          XY          YZ          ZX
  Alpha Z   210.94457   210.94457   210.94457
  Ewald   -2133.91046 -1580.53346 -1104.64771    -0.00011  -186.63338     0.00019
  Hartree    42.31192   150.79825   533.28805     0.00003    -3.53470    -0.00002
  E(xc)    -903.91718  -909.10180  -898.54407     0.00000     9.67136    -0.00001
  Local    -172.19322  -894.59579 -1852.74252    -0.00007   185.18691     0.00004
  n-local  2336.89363  2442.74526  2415.75067     0.49586   -94.43757    -0.98413
  augment  -459.75471  -485.57037  -516.31405    -0.00002     8.53911     0.00002
  Kinetic  1454.17747  1428.41686  1411.30907    -0.38830    30.87286     2.54042
  Fock        0.00000     0.00000     0.00000     0.00000     0.00000     0.00000
  Total     374.55201   363.10351   199.04400     0.00000   -50.33541     0.00000
  in kB     439.21666   425.79163   233.40802     0.00000   -59.02558     0.00000

 VOLUME and BASIS-vectors are now :
  energy-cutoff  :      700.00
  volume of cell :     1366.29
      direct lattice vectors                 reciprocal lattice vectors
     9.177114487  0.000000000  0.000000000     0.108966713  0.000000000  0.000000000
     0.000000000 19.467601776  0.000000000     0.000000000  0.051367396  0.000000000
     0.000000000  0.000000000  7.647602558     0.000000000  0.000000000  0.130759933

  length of vectors
     9.177114487 19.467601776  7.647602558     0.108966713  0.051367396  0.130759933

 FORCES acting on ions
    electron-ion (+dipol)            ewald-force                    non-local-force                 convergence-correction
   0.232E+02 0.255E+02 0.113E+02   -.207E+02 -.267E+02 -.999E+01   -.314E+01 0.147E+01 -.138E+01   0.159E-03 -.186E-03 0.778E-04
   0.734E+01 -.977E+01 0.177E+02   0.247E+02 -.149E+02 -.159E+02   0.219E+02 -.199E+02 -.163E+01   -.117E-03 0.269E-03 -.676E-04
   -.134E+02 -.746E+01 -.503E+01   0.147E+02 0.746E+01 0.598E+01   0.454E+00 -.188E+01 0.730E+00   -.338E-04 -.275E-04 -.657E-04
   0.392E+02 -.173E+02 -.309E+02   -.671E+02 -.682E+01 0.288E+02   -.295E+02 -.199E+02 0.624E+01   -.703E-04 0.273E-03 0.880E-04
   -.530E+02 0.514E+02 -.268E+02   0.517E+02 -.506E+02 0.244E+02   0.673E+01 -.932E+01 0.926E+01   -.270E-04 -.338E-03 0.330E-04
   0.458E+02 0.254E+01 -.662E+01   -.491E+02 -.384E+01 0.700E+01   -.586E+00 -.158E+01 0.265E+01   0.544E-04 0.144E-03 -.194E-04
   -.369E+02 0.683E+02 0.232E+02   0.650E+02 -.930E+02 -.214E+02   0.234E+02 -.256E+02 -.148E+01   -.642E-04 -.340E-03 -.406E-04
   -.530E+02 -.514E+02 0.268E+02   0.517E+02 0.506E+02 -.244E+02   0.673E+01 0.932E+01 -.926E+01   -.270E-04 0.338E-03 -.330E-04
   0.345E+02 -.241E+02 -.452E+01   -.358E+02 0.254E+02 0.415E+01   -.588E+00 0.878E+00 -.163E+01   0.769E-04 0.241E-03 -.668E-05
   -.134E+02 0.746E+01 0.503E+01   0.147E+02 -.746E+01 -.598E+01   0.454E+00 0.188E+01 -.730E+00   -.338E-04 0.282E-04 0.657E-04
   -.353E+02 -.374E+02 -.120E+02   0.335E+02 0.380E+02 0.103E+02   0.428E+01 -.814E+00 0.138E+01   -.152E-03 0.205E-03 -.669E-04
   0.232E+02 -.255E+02 -.113E+02   -.207E+02 0.267E+02 0.999E+01   -.314E+01 -.147E+01 0.138E+01   0.159E-03 0.186E-03 -.778E-04
   0.458E+02 -.254E+01 0.662E+01   -.491E+02 0.384E+01 -.700E+01   -.586E+00 0.158E+01 -.265E+01   0.544E-04 -.145E-03 0.194E-04
   0.444E+02 -.459E+02 0.877E+01   -.727E+02 0.716E+02 -.882E+01   -.231E+02 0.236E+02 -.153E+01   0.467E-04 0.302E-03 0.270E-05
   0.392E+02 0.173E+02 0.309E+02   -.671E+02 0.682E+01 -.288E+02   -.295E+02 0.199E+02 -.624E+01   -.703E-04 -.273E-03 -.880E-04
   -.900E+01 -.331E+02 0.981E+01   0.840E+01 0.338E+02 -.972E+01   -.116E+00 -.134E+01 -.492E+00   -.121E-03 0.177E-03 0.486E-04
   0.734E+01 0.977E+01 -.177E+02   0.247E+02 0.149E+02 0.159E+02   0.219E+02 0.199E+02 0.163E+01   -.116E-03 -.270E-03 0.676E-04
   -.501E+01 0.318E+02 0.548E+01   0.252E+01 -.334E+02 -.401E+01   0.370E+01 0.151E+01 -.274E+01   0.352E-04 -.133E-03 -.306E-04
   -.501E+01 -.318E+02 -.548E+01   0.252E+01 0.334E+02 0.401E+01   0.370E+01 -.151E+01 0.274E+01   0.352E-04 0.133E-03 0.306E-04
   -.353E+02 0.374E+02 0.120E+02   0.335E+02 -.380E+02 -.103E+02   0.428E+01 0.814E+00 -.138E+01   -.152E-03 -.205E-03 0.669E-04
   -.900E+01 0.331E+02 -.981E+01   0.840E+01 -.338E+02 0.972E+01   -.116E+00 0.134E+01 0.492E+00   -.121E-03 -.176E-03 -.486E-04
   0.345E+02 0.241E+02 0.452E+01   -.358E+02 -.254E+02 -.415E+01   -.588E+00 -.878E+00 0.163E+01   0.769E-04 -.242E-03 0.668E-05
   0.444E+02 0.459E+02 -.877E+01   -.727E+02 -.716E+02 0.882E+01   -.231E+02 -.236E+02 0.153E+01   0.467E-04 -.302E-03 -.270E-05
   -.369E+02 -.683E+02 -.232E+02   0.650E+02 0.930E+02 0.214E+02   0.234E+02 0.256E+02 0.148E+01   -.642E-04 0.340E-03 0.406E-04
   -.370E+02 0.232E+02 -.170E+02   0.344E+02 -.194E+02 0.135E+02   0.249E+01 -.261E+01 0.474E+01   -.219E-04 -.254E-03 0.151E-04
   -.501E+01 -.318E+02 -.548E+01   0.252E+01 0.334E+02 0.401E+01   0.370E+01 -.151E+01 0.274E+01   0.352E-04 0.133E-03 0.306E-04
   0.101E+02 -.242E+02 -.400E+01   -.107E+02 0.238E+02 0.390E+01   0.172E+00 0.648E+00 0.644E+00   0.404E-04 0.974E-04 0.974E-05
   0.393E+02 -.737E+00 -.418E+01   -.401E+02 0.199E+01 0.573E+01   0.995E+00 0.218E+01 -.103E+01   0.994E-05 -.122E-03 -.287E-04
   -.905E+01 0.268E+02 0.374E+01   0.937E+01 -.261E+02 -.370E+01   0.299E+00 -.102E+01 -.801E+00   -.379E-04 -.111E-03 0.342E-05
   0.105E+02 -.259E+02 0.831E+01   -.109E+02 0.233E+02 -.748E+01   -.115E+01 0.201E+01 0.288E+00   0.370E-04 -.490E-04 0.713E-04
   0.861E+01 0.574E+01 -.118E+01   -.952E+01 -.574E+01 0.591E+00   -.872E+00 0.162E+01 -.138E+01   -.544E-04 0.410E-04 -.242E-04
   -.905E+01 -.268E+02 -.374E+01   0.937E+01 0.261E+02 0.370E+01   0.299E+00 0.102E+01 0.801E+00   -.379E-04 0.112E-03 -.342E-05
   -.538E+02 -.243E+01 -.112E+02   0.569E+02 0.177E+01 0.114E+02   0.775E+00 -.241E+01 0.271E+01   -.728E-05 0.153E-03 0.212E-05
   0.101E+02 0.242E+02 0.400E+01   -.107E+02 -.238E+02 -.390E+01   0.172E+00 -.648E+00 -.644E+00   0.404E-04 -.971E-04 -.974E-05
   0.290E+02 -.307E+02 0.300E+02   -.282E+02 0.315E+02 -.271E+02   -.375E+01 -.136E+01 -.705E+01   0.110E-03 0.152E-03 0.761E-04
   -.370E+02 -.232E+02 0.170E+02   0.344E+02 0.194E+02 -.135E+02   0.249E+01 0.261E+01 -.474E+01   -.219E-04 0.253E-03 -.151E-04
   0.105E+02 0.259E+02 -.831E+01   -.109E+02 -.233E+02 0.748E+01   -.115E+01 -.201E+01 -.288E+00   0.370E-04 0.498E-04 -.713E-04
   -.574E+01 -.454E+01 -.236E+01   0.651E+01 0.465E+01 0.276E+01   0.971E+00 -.171E+01 0.156E+01   0.353E-04 -.224E-04 -.298E-04
   0.393E+02 0.737E+00 0.418E+01   -.401E+02 -.199E+01 -.573E+01   0.995E+00 -.218E+01 0.103E+01   0.993E-05 0.121E-03 0.288E-04
   -.796E+00 0.337E+02 0.477E+01   0.275E+00 -.330E+02 -.431E+01   -.371E+00 -.104E+01 -.110E+01   -.520E-04 -.114E-03 0.138E-04
   -.501E+01 0.318E+02 0.548E+01   0.252E+01 -.334E+02 -.401E+01   0.370E+01 0.151E+01 -.274E+01   0.352E-04 -.133E-03 -.306E-04
   -.370E+02 0.232E+02 -.170E+02   0.344E+02 -.194E+02 0.135E+02   0.249E+01 -.261E+01 0.474E+01   -.219E-04 -.254E-03 0.151E-04
   -.370E+02 -.232E+02 0.170E+02   0.344E+02 0.194E+02 -.135E+02   0.249E+01 0.261E+01 -.474E+01   -.219E-04 0.253E-03 -.151E-04
   0.290E+02 0.307E+02 -.300E+02   -.282E+02 -.315E+02 0.271E+02   -.375E+01 0.136E+01 0.705E+01   0.110E-03 -.152E-03 -.761E-04
   -.796E+00 -.337E+02 -.477E+01   0.275E+00 0.330E+02 0.431E+01   -.371E+00 0.104E+01 0.110E+01   -.520E-04 0.115E-03 -.138E-04
   -.538E+02 0.243E+01 0.112E+02   0.569E+02 -.177E+01 -.114E+02   0.775E+00 0.241E+01 -.271E+01   -.728E-05 -.154E-03 -.211E-05
   -.574E+01 0.454E+01 0.236E+01   0.651E+01 -.465E+01 -.276E+01   0.971E+00 0.171E+01 -.156E+01   0.353E-04 0.231E-04 0.298E-04
   0.861E+01 -.574E+01 0.118E+01   -.952E+01 0.574E+01 -.591E+00   -.872E+00 -.162E+01 0.138E+01   -.544E-04 -.403E-04 0.242E-04
   -.185E+02 -.296E-02 -.650E-03   -.155E-12 0.146E-12 -.178E-14   0.186E+02 0.444E-15 -.111E-14   -.280E-03 -.115E-05 -.436E-08

 POSITION                                       TOTAL-FORCE (eV/Angst)
      6.36446     10.18631      0.76476        -0.721092      0.242970     -0.099271
      8.65874     17.75704      0.00000        53.928291    -44.579247      0.190545
      0.51838      5.31940      4.58856         1.664845     -1.876847      1.687877
      0.51838     17.75704      3.82380       -57.385073    -44.056786      4.145852
      2.81266     12.89014      3.82380         5.421428     -8.545056      6.843340
      6.36446     17.21627      1.52952        -3.877109     -2.880044      3.029682
      1.77590     12.89014      0.00000        51.472586    -50.305378      0.287569
      2.81266     18.83857      7.64760         5.421428      8.545056     -6.843340
      6.36446     18.83857      3.82380        -1.916734      2.135100     -2.008605
      0.51838      6.94170      6.88284         1.664845      1.876847     -1.687877
      1.77590      2.07480      3.05904         2.537978     -0.287327     -0.291391
      6.36446      2.07480      3.05904        -0.721092     -0.242970      0.099271
      6.36446     14.51244      2.29428        -3.877109      2.880044     -3.029682
      7.40122     18.83857      7.64760       -51.328110     49.307454     -1.590805
      0.51838     13.97167      7.64760       -57.385073     44.056786     -4.145852
      2.81266      2.07480      6.88284        -0.710783     -0.589492     -0.404034
      8.65873     13.97167      3.82380        53.928291     44.579247     -0.190545
      8.65874      9.64553      2.29428         1.210977     -0.089150     -1.267297
      8.65874      2.61557      1.52952         1.210977      0.089150      1.267297
      1.77590     10.18631      0.76476         2.537978      0.287327      0.291391
      2.81266     10.18631      4.58856        -0.710783      0.589492      0.404034
      6.36446     12.89014      0.00000        -1.916734     -2.135100      2.008605
      7.40121     12.89014      3.82380       -51.328110    -49.307454      1.590805
      1.77590     18.83857      3.82380        51.472586     50.305378     -0.287569
      1.77590     14.51244      2.29428        -0.149449      1.203679      1.159948
      8.65874      2.61557      1.52952         1.210977      0.089150      1.267297
      5.10694      2.61557      5.35332        -0.429934      0.270027      0.548955
      7.40121     14.51244      6.11808         0.245880      3.435145      0.519134
      4.07018      9.64553      2.29428         0.615051     -0.354359     -0.757773
      8.65874      5.31940      0.76476        -1.519463     -0.608315      1.123639
      4.07018      6.94170      3.05904        -1.785226      1.618651     -1.973203
      4.07018      2.61557      1.52952         0.615051      0.354359      0.757773
      2.81266     17.21627      5.35332         3.833428     -3.067116      2.899778
      5.10694      9.64553      6.11808        -0.429934     -0.270027     -0.548955
      7.40121      2.07480      6.88284        -3.016344     -0.589734     -4.153569
      1.77590     17.21627      1.52952        -0.149449     -1.203679     -1.159948
      8.65873      6.94170      3.05904        -1.519463      0.608315     -1.123639
      5.10694      5.31940      4.58856         1.740643     -1.607075      1.962219
      7.40121     17.21627      5.35332         0.245880     -3.435145     -0.519134
      0.51838      9.64553      6.11808        -0.893316     -0.382813     -0.639292
      8.65874      9.64553      2.29428         1.210977     -0.089150     -1.267297
      1.77590     14.51244      2.29428        -0.149449      1.203679      1.159948
      1.77590     17.21627      1.52952        -0.149449     -1.203679     -1.159948
      7.40121     10.18631      4.58856        -3.016344      0.589734      4.153569
      0.51838      2.61557      5.35332        -0.893316      0.382813      0.639292
      2.81266     14.51244      6.11808         3.833428      3.067116     -2.899778
      5.10694      6.94170      6.88284         1.740643      1.607075     -1.962219
      4.07018      5.31940      0.76476        -1.785226     -1.618651      1.973203
    total drift:                                0.048939     -0.002958     -0.000650

  FREE ENERGIE OF THE ION-ELECTRON SYSTEM (eV)
  free  energy   TOTEN  =      -540.86937580 eV

  energy  without entropy=     -540.86735370  energy(sigma->0) =     -540.86836475