 vasp.6.4.3 19Mar24 (build Oct 22 2024 11:23:12) complex

 executed on             LinuxIFC date 2025.06.08  16:20:48

 INCAR:
   SYSTEM = Si and Ge interface calculation
   ISTART = 0
   ICHARG = 2
   LWAVE = .FALSE.
   LREAL = AUTO
   ENCUT = 700
   ENAUG = 900
   ADDGRID = .TRUE.
   LMAXMIX = 6
   LASPH = .TRUE.
   LMIXTAU = .TRUE.
   NCORE = 16
   NELM = 100
   NBANDS = 288
   EDIFF = 1d-7
   AMIX = 0.6
   ISMEAR = 0
   SIGMA = 0.01
   NELECT = 480
   ISPIN = 2
   NUPDOWN = 1
   LVTOT = .FALSE.
   LVHAR = .TRUE.

 POTCAR:    PAW_PBE Si 05Jan2001
|           W    W    AA    RRRRR   N    N  II  N    N   GGGG   !!!           |
|           W    W   A  A   R    R  NN   N  II  NN   N  G    G  !!!           |
|           W    W  A    A  R    R  N N  N  II  N N  N  G       !!!           |
|           W WW W  AAAAAA  RRRRR   N  N N  II  N  N N  G  GGG   !            |
|           WW  WW  A    A  R   R   N   NN  II  N   NN  G    G                |
|           W    W  A    A  R    R  N    N  II  N    N   GGGG   !!!           |
|     You use a magnetic or noncollinear calculation, but did not specify     |
|     the initial magnetic moment with the MAGMOM tag. Note that a            |
|     default of 8.333e-3 will be used for all atoms. This ferromagnetic      |
|     setup may break the symmetry of the crystal, in particular it may       |
|     rule out finding an antiferromagnetic solution. Thence, we              |
|     recommend setting the initial magnetic moment manually or verifying     |
|     carefully that this magnetic setup is desired.                          |

 POTCAR:    PAW_PBE Si 05Jan2001
   VRHFIN =Si: s2p2

   TITEL  = PAW_PBE Si 05Jan2001
   POMASS =   28.085; ZVAL   =    4.000    mass and valenz
   ENMAX  =  245.345; ENMIN  =  184.009 eV

 Optimization of the real space projectors (new method)

 maximal supplied QI-value         = 19.84
 optimisation between [QCUT,QGAM] = [ 13.49, 26.99] = [ 50.98,203.92] Ry
 Optimized for a Real-space Cutoff    1.07 Angstroem

   l    n(q)    QCUT    max X(q) W(low)/X(q) W(high)/X(q)  e(spline)
   0      9    13.493   159.560    0.22E-03    0.15E-03    0.72E-07
   0      9    13.493   115.863    0.21E-03    0.15E-03    0.71E-07
   1      8    13.493    88.339    0.15E-03    0.11E-03    0.13E-06
   1      8    13.493    48.592    0.15E-03    0.10E-03    0.13E-06
  PAW_PBE Si 05Jan2001                  :

 POSCAR: Si+Si
  positions in direct lattice

 exchange-correlation table for PE
   RHO(1)=    0.500       N(1)  =     2000
   RHO(2)=  100.500       N(2)  =     4000

 ion  position               nearest neighbor table
   1  0.036  0.000  0.000-  75 1.36  78 1.92 120 1.92  58 2.35  16 2.35
   2  0.536  0.000  0.200-  59 2.35  46 2.35  28 2.35  17 2.35
   3  0.036  0.000  0.400-  73 1.36  47 2.35  60 2.35  29 2.35  18 2.35
   4  0.636  0.200  0.000-  87 1.92 105 2.19  46 2.35  19 2.35 117 2.58  72 2.78 119 2.85 108 3.10

   5  0.136  0.200  0.200-  49 2.35  47 2.35  16 2.35  20 2.35 120 2.85
   6  0.636  0.200  0.400- 103 2.19  48 2.35  21 2.35  50 2.35  17 2.35  70 2.78
   7  0.236  0.400  0.000-  84 0.86 102 2.19  49 2.35  22 2.35  66 2.78 117 3.10
   8  0.736  0.400  0.200-  52 2.35  23 2.35  50 2.35  19 2.35
   9  0.236  0.400  0.400- 100 2.19  24 2.35  51 2.35  53 2.35  20 2.35  64 2.78  82 2.85
  10  0.836  0.600  0.000- 114 0.86  96 2.19  25 2.35  52 2.35  69 2.78  81 3.10
  11  0.336  0.600  0.200-  55 2.35  26 2.35  22 2.35  53 2.35
  12  0.836  0.600  0.400-  94 2.19  27 2.35  23 2.35  54 2.35  56 2.35  67 2.78 112 2.85
  13  0.436  0.800  0.000- 111 1.92  93 2.19  55 2.35  28 2.35  81 2.58  63 2.78  77 2.85  90 3.10

[...]

 118  0.136  0.150  0.600-  18 1.82  71 2.35 104 2.35 100 2.35  73 2.35  51 3.04
 119  0.636  0.150  0.800-  72 2.35  74 2.35 105 2.35 101 2.35   4 2.85
 120  0.136  0.150  0.000-  16 1.82   1 1.92  75 2.35 102 2.35  34 2.58   5 2.85  49 3.04  31 3.10

  LATTYP: Found a simple tetragonal cell.
 ALAT       =    12.1440858840
 C/A-ratio  =     1.1180340313

  Lattice vectors:

 A1 = (   0.0000000000,  12.1440858840,   0.0000000000)
 A2 = ( -12.1440858840,   0.0000000000,   0.0000000000)
 A3 = (   0.0000000000,   0.0000000000,  13.5775012970)

Analysis of symmetry for initial positions (statically):
 Subroutine PRICEL returns following result:

  Warning from LATTYP: Monoclinic adjustment (A1->A3, A2->A1, A3->A2)!
  LATTYP: Found a simple tetragonal cell.
 ALAT       =     8.5871654799
 C/A-ratio  =     1.5811388902

[...]

   2 primitive cells build up your supercell.

 Routine SETGRP: Setting up the symmetry group for a
 simple tetragonal supercell.

 Subroutine GETGRP returns: Found  4 space group operations
 (whereof  1 operations were pure point group operations)
 out of a pool of 16 trial point group operations.

The static configuration has the point symmetry C_1 .
 The point group associated with its full space group is C_2v.

Analysis of symmetry for dynamics (positions and initial velocities):
 Subroutine PRICEL returns following result:

[...]

The dynamic configuration has the point symmetry C_1 .
 The point group associated with its full space group is C_2v.

Analysis of structural, dynamic, and magnetic symmetry:
 Subroutine PRICEL returns following result:

  Warning from LATTYP: Monoclinic adjustment (A1->A3, A2->A1, A3->A2)!
  LATTYP: Found a simple tetragonal cell.
 ALAT       =     8.5871654799
 C/A-ratio  =     1.5811388902

  Lattice vectors:

 A1 = (   6.0720422134,   6.0720436706,   0.0000000000)
 A2 = (  -6.0720436706,   6.0720436706,   0.0000000000)
 A3 = (   0.0000000000,   0.0000000000,  13.5775012970)

   2 primitive cells build up your supercell.

 Routine SETGRP: Setting up the symmetry group for a
 simple tetragonal supercell.

 Subroutine GETGRP returns: Found  4 space group operations
 (whereof  1 operations were pure point group operations)
 out of a pool of 16 trial point group operations.

The overall configuration has the point symmetry C_1 .
 The point group associated with its full space group is C_2v.

 Subroutine INISYM returns: Found  4 space group operations
 (whereof  1 operations are pure point group operations),
 and found     2 'primitive' translations

                                     Primitive cell

  volume of cell :    1001.1971

  direct lattice vectors                    reciprocal lattice vectors
     6.072042213  6.072043671  0.000000000     0.082344609  0.082344609  0.000000000
    -6.072043671  6.072043671  0.000000000    -0.082344609  0.082344589  0.000000000
     0.000000000  0.000000000 13.577501297     0.000000000  0.000000000  0.073651254

  length of vectors
     8.587165480  8.587166510 13.577501297     0.116452862  0.116452848  0.073651254

  position of ions in fractional coordinates (direct lattice)
     0.035956185  0.964043815  0.000000000
     0.535956204  0.464043860  0.200000003
     0.035956264  0.964043976  0.400000036
     0.635956228  0.764043730  0.000000000
     0.135956287  0.264043731  0.200000003
     0.635956407  0.764043759  0.400000036
     0.235956177  0.564043797  0.000000000
     0.735956192  0.064043902  0.200000003
     0.235956311  0.564043783  0.400000036
     0.835956275  0.364043733  0.000000000
     0.335956335  0.864043733  0.200000003
     0.835956454  0.364043808  0.400000036
     0.435956240  0.164043592  0.000000000
     0.935956299  0.664043771  0.200000003
     0.435956359  0.164043711  0.400000036
     0.235956311  0.064043695  0.100000009
     0.735956430  0.564043636  0.300000042
     0.235956669  0.064043545  0.500000000
     0.835956275  0.864043687  0.100000009
     0.335956335  0.364043867  0.300000042
     0.835956335  0.864043747  0.500000000
     0.435956240  0.664043750  0.100000009
     0.935956299  0.164043757  0.300000042
     0.435956359  0.664043831  0.500000000
     0.035956264  0.464043676  0.100000009
     0.535956383  0.964043675  0.300000042
     0.035956383  0.464043675  0.500000000
     0.635956228  0.264043758  0.100000009
     0.135956287  0.764043819  0.300000042
     0.635956287  0.264043937  0.500000000
     0.235956252  0.364043580  0.500000000
     0.735956252  0.864043818  0.699999988
     0.235956311  0.364043879  0.900000095
     0.435956240  0.764043738  0.500000000
     0.935956299  0.264043829  0.699999988
     0.435956359  0.764043859  0.900000095
     0.635956228  0.164043746  0.500000000
     0.135956287  0.664043927  0.699999988
     0.635956407  0.164043925  0.900000095
     0.835956335  0.564043683  0.500000000
     0.335956335  0.064043891  0.699999988
     0.835956454  0.564043922  0.900000095
     0.035956189  0.964043811  0.500000000
     0.535956264  0.464043912  0.699999988
     0.035956383  0.964043977  0.900000095
     0.935956240  0.764043842  0.600000024
     0.435956359  0.264043843  0.800000072
     0.935956359  0.764043961  0.000000000
     0.135956287  0.164043779  0.600000024
     0.635956407  0.664043747  0.800000072
     0.135956526  0.164043778  0.000000000
     0.335956246  0.564043860  0.600000024
     0.835956335  0.064043889  0.800000072
     0.335956335  0.564044129  0.000000000
     0.535956383  0.964043557  0.600000024
     0.035956383  0.464043675  0.800000072
     0.535956502  0.964043794  0.000000000
     0.735956252  0.364043782  0.600000024
     0.235956311  0.864043873  0.800000072
     0.735956430  0.364043836  0.000000000

  ion indices of the primitive-cell ions
   primitive index   ion index
                 1           1
                 2           2
                 3           3
                 4           4
                 5           5
                 6           6
                 7          43
                 8          44
                 9          45
                10          31
                11          32
                12          33
                13          13
                14          14
                15          15
                16          16
                17          17
                18          18
                19          58
                20          59
                21          60
                22          46
                23          47
                24          48
                25          25
                26          26
                27          27
                28          28
                29          29
                30          30
                31          61
                32          62
                33          63
                34         103
                35         104
                36         105
                37          91
                38          92
                39          93
                40          70
                41          71
                42          72
                43          73
                44          74
                45          75
                46          76
                47          77
                48          78
                49         118
                50         119
                51         120
                52         106
                53         107
                54         108
                55         109
                56         110
                57         111
[...]
     0.000000000  0.000000000 13.577501297     0.000000000  0.000000000  0.073651254

  length of vectors
    12.144085884 17.174330960 13.577501297     0.116452862  0.082344609  0.073651254

 FORCES acting on ions
    electron-ion (+dipol)            ewald-force                    non-local-force                 convergence-correction
   -.110E-04 0.530E-05 -.707E+02   -.189E-03 0.152E-03 0.870E+02   0.549E-19 0.264E-19 0.531E+02   0.786E-06 0.100E-05 0.220E-04
   0.106E-04 -.176E-04 -.185E+02   0.220E-04 0.478E-04 0.190E+02   -.449E-19 0.449E-19 -.212E+00   -.782E-06 0.991E-06 -.604E-04
   0.477E-04 -.176E-03 0.117E+03   -.574E-04 0.155E-03 -.134E+03   -.251E-20 0.296E-19 -.531E+02   0.841E-06 0.105E-05 -.799E-04
   -.390E+02 0.928E+00 -.408E+01   0.354E+02 -.127E+01 0.481E+01   0.121E+02 -.111E+01 0.729E+00   -.155E-04 -.593E-04 -.269E-05
   0.316E+01 -.175E+01 -.223E+02   -.234E+01 0.145E+01 0.223E+02   -.660E+00 0.147E+00 0.412E+00   -.127E-05 0.782E-05 -.513E-05
   -.979E+01 -.121E+02 0.466E+02   0.921E+01 0.132E+02 -.464E+02   0.149E+01 -.193E-01 -.149E+01   0.105E-04 -.426E-05 0.910E-05
   0.773E+02 0.524E+02 0.172E+01   -.222E+03 -.201E+03 -.274E+00   -.381E+02 -.309E+02 0.304E+00   0.942E-05 -.471E-04 0.257E-04
   -.254E+01 -.890E+00 -.172E+02   0.188E+01 0.163E+01 0.173E+02   0.758E+00 -.485E+00 0.541E-01   -.237E-04 0.127E-04 -.327E-04
   0.177E+02 -.525E+01 0.520E+02   -.166E+02 0.523E+01 -.514E+02   -.253E+01 0.146E+01 -.342E+01   0.170E-04 -.266E-04 0.192E-04
   -.773E+02 -.524E+02 0.172E+01   0.222E+03 0.201E+03 -.274E+00   0.381E+02 0.309E+02 0.304E+00   -.897E-05 0.455E-04 0.257E-04
   0.254E+01 0.890E+00 -.172E+02   -.188E+01 -.163E+01 0.173E+02   -.758E+00 0.485E+00 0.541E-01   0.233E-04 -.143E-04 -.328E-04
   -.177E+02 0.525E+01 0.520E+02   0.166E+02 -.523E+01 -.514E+02   0.253E+01 -.146E+01 -.342E+01   -.165E-04 0.249E-04 0.193E-04
   0.390E+02 -.928E+00 -.408E+01   -.354E+02 0.127E+01 0.481E+01   -.121E+02 0.111E+01 0.729E+00   0.142E-04 0.599E-04 -.253E-05
   -.316E+01 0.175E+01 -.223E+02   0.234E+01 -.145E+01 0.223E+02   0.660E+00 -.147E+00 0.412E+00   0.250E-05 -.720E-05 -.514E-05
   0.979E+01 0.121E+02 0.466E+02   -.921E+01 -.132E+02 -.464E+02   -.149E+01 0.193E-01 -.149E+01   -.119E-04 0.492E-05 0.889E-05
   -.335E+02 0.771E+00 -.661E+02   0.301E+02 -.123E+00 0.637E+02   0.112E+02 -.108E+01 0.127E+02   0.358E-04 0.373E-04 0.356E-04
   0.308E+01 0.148E+01 0.221E+02   -.253E+01 -.209E+01 -.223E+02   -.584E+00 0.150E+00 -.242E+00   0.298E-05 -.180E-04 0.203E-04
   -.472E+02 -.284E+02 0.239E+02   0.446E+02 0.261E+02 -.222E+02   0.135E+02 0.901E+01 -.112E+02   0.439E-04 0.898E-04 -.500E-05
   0.335E+02 -.772E+00 -.661E+02   -.301E+02 0.123E+00 0.637E+02   -.112E+02 0.108E+01 0.127E+02   -.357E-04 -.433E-04 0.358E-04
   -.308E+01 -.148E+01 0.221E+02   0.253E+01 0.209E+01 -.223E+02   0.584E+00 -.150E+00 -.242E+00   -.320E-05 0.122E-04 0.202E-04
   0.472E+02 0.284E+02 0.239E+02   -.446E+02 -.261E+02 -.222E+02   -.135E+02 -.901E+01 -.112E+02   -.437E-04 -.955E-04 -.505E-05
   -.273E+01 -.286E+02 -.721E+02   0.410E+01 0.268E+02 0.688E+02   -.159E+01 0.939E+01 0.130E+02   0.330E-04 0.215E-04 0.349E-05
   0.224E+01 -.123E+01 0.179E+02   -.189E+01 0.798E+00 -.173E+02   -.372E+00 0.227E+00 -.104E+01   -.265E-04 0.123E-04 -.104E-04
   -.658E+02 0.267E+02 0.218E+02   0.211E+03 -.179E+03 -.171E+02   0.378E+02 -.214E+02 -.142E+02   0.656E-04 -.397E-04 0.294E-04
   -.104E-04 -.379E-04 -.379E+02   -.363E-04 -.351E-04 0.368E+02   -.234E-18 -.102E-19 0.131E+01   0.187E-06 0.374E-05 -.365E-04
   -.553E-04 -.764E-04 0.198E+02   -.114E-04 -.691E-04 -.190E+02   -.891E-19 0.348E-19 -.123E+01   -.327E-06 0.360E-05 0.285E-04
   0.162E-03 -.255E-04 -.104E+02   -.226E-03 -.180E-04 0.980E+01   0.143E-18 0.200E-19 0.800E+00   0.410E-06 0.349E-05 -.915E-05
   0.273E+01 0.286E+02 -.721E+02   -.410E+01 -.268E+02 0.688E+02   0.159E+01 -.939E+01 0.130E+02   -.334E-04 -.191E-04 0.348E-05
   -.224E+01 0.123E+01 0.179E+02   0.189E+01 -.798E+00 -.173E+02   0.372E+00 -.227E+00 -.104E+01   0.271E-04 -.101E-04 -.107E-04
   0.658E+02 -.267E+02 0.218E+02   -.211E+03 0.179E+03 -.171E+02   -.378E+02 0.214E+02 -.142E+02   -.661E-04 0.419E-04 0.293E-04
   -.773E+02 -.524E+02 0.172E+01   0.222E+03 0.201E+03 -.274E+00   0.381E+02 0.309E+02 0.304E+00   -.983E-05 0.427E-04 0.257E-04
   0.254E+01 0.890E+00 -.172E+02   -.188E+01 -.163E+01 0.173E+02   -.758E+00 0.485E+00 0.541E-01   0.243E-04 -.171E-04 -.329E-04
   -.177E+02 0.525E+01 0.520E+02   0.166E+02 -.523E+01 -.514E+02   0.253E+01 -.146E+01 -.342E+01   -.178E-04 0.225E-04 0.191E-04
   0.390E+02 -.928E+00 -.408E+01   -.354E+02 0.127E+01 0.481E+01   -.121E+02 0.111E+01 0.729E+00   0.157E-04 0.522E-04 -.275E-05
   -.316E+01 0.175E+01 -.223E+02   0.234E+01 -.145E+01 0.223E+02   0.660E+00 -.147E+00 0.412E+00   0.939E-06 -.148E-04 -.492E-05
   0.979E+01 0.121E+02 0.466E+02   -.921E+01 -.132E+02 -.464E+02   -.149E+01 0.193E-01 -.149E+01   -.100E-04 -.245E-05 0.911E-05
   0.102E-03 0.293E-04 -.707E+02   -.228E-03 0.498E-04 0.870E+02   -.100E-19 0.100E-19 0.531E+02   -.758E-06 -.104E-05 0.220E-04
   0.660E-04 -.752E-04 -.185E+02   0.630E-04 0.184E-04 0.190E+02   -.691E-19 -.122E-19 -.212E+00   0.750E-06 -.964E-06 -.604E-04
   0.585E-04 -.182E-03 0.117E+03   0.104E-03 0.681E-04 -.134E+03   -.596E-19 -.217E-19 -.531E+02   -.852E-06 -.106E-05 -.797E-04
   -.390E+02 0.928E+00 -.408E+01   0.354E+02 -.127E+01 0.481E+01   0.121E+02 -.111E+01 0.729E+00   -.144E-04 -.528E-04 -.258E-05
   0.316E+01 -.175E+01 -.223E+02   -.234E+01 0.145E+01 0.223E+02   -.660E+00 0.147E+00 0.412E+00   -.219E-05 0.142E-04 -.489E-05
   -.979E+01 -.121E+02 0.466E+02   0.921E+01 0.132E+02 -.464E+02   0.149E+01 -.193E-01 -.149E+01   0.114E-04 0.180E-05 0.886E-05
   0.773E+02 0.524E+02 0.172E+01   -.222E+03 -.201E+03 -.274E+00   -.381E+02 -.309E+02 0.304E+00   0.932E-05 -.411E-04 0.258E-04
   -.254E+01 -.890E+00 -.172E+02   0.188E+01 0.163E+01 0.173E+02   0.758E+00 -.485E+00 0.541E-01   -.238E-04 0.186E-04 -.330E-04
   0.177E+02 -.525E+01 0.520E+02   -.166E+02 0.523E+01 -.514E+02   -.253E+01 0.146E+01 -.342E+01   0.172E-04 -.208E-04 0.191E-04
   -.273E+01 -.286E+02 -.721E+02   0.410E+01 0.268E+02 0.688E+02   -.159E+01 0.939E+01 0.130E+02   0.325E-04 0.210E-04 0.344E-05
   0.224E+01 -.123E+01 0.179E+02   -.189E+01 0.798E+00 -.173E+02   -.372E+00 0.227E+00 -.104E+01   -.261E-04 0.120E-04 -.108E-04
   -.658E+02 0.267E+02 0.218E+02   0.211E+03 -.179E+03 -.171E+02   0.378E+02 -.214E+02 -.142E+02   0.651E-04 -.398E-04 0.294E-04
   -.203E-04 -.160E-04 -.379E+02   0.535E-05 0.499E-04 0.368E+02   0.401E-20 -.401E-20 0.131E+01   -.225E-06 -.370E-05 -.365E-04
   -.305E-04 -.166E-04 0.198E+02   0.314E-04 0.402E-04 -.190E+02   0.935E-19 0.149E-19 -.123E+01   0.346E-06 -.361E-05 0.288E-04
   0.181E-03 -.763E-04 -.104E+02   -.180E-04 0.398E-04 0.980E+01   0.831E-19 0.254E-19 0.800E+00   -.403E-06 -.351E-05 -.909E-05
   0.273E+01 0.286E+02 -.721E+02   -.410E+01 -.268E+02 0.688E+02   0.159E+01 -.939E+01 0.130E+02   -.321E-04 -.233E-04 0.346E-05
   -.224E+01 0.123E+01 0.179E+02   0.189E+01 -.798E+00 -.173E+02   0.372E+00 -.227E+00 -.104E+01   0.256E-04 -.142E-04 -.105E-04
   0.658E+02 -.267E+02 0.218E+02   -.211E+03 0.179E+03 -.171E+02   -.378E+02 0.214E+02 -.142E+02   -.645E-04 0.376E-04 0.295E-04
   -.335E+02 0.771E+00 -.661E+02   0.301E+02 -.123E+00 0.637E+02   0.112E+02 -.108E+01 0.127E+02   0.343E-04 0.422E-04 0.359E-04
   0.308E+01 0.148E+01 0.221E+02   -.253E+01 -.209E+01 -.223E+02   -.584E+00 0.150E+00 -.242E+00   0.470E-05 -.134E-04 0.202E-04
   -.472E+02 -.284E+02 0.239E+02   0.446E+02 0.261E+02 -.222E+02   0.135E+02 0.901E+01 -.112E+02   0.420E-04 0.942E-04 -.518E-05
   0.335E+02 -.772E+00 -.661E+02   -.301E+02 0.123E+00 0.637E+02   -.112E+02 0.108E+01 0.127E+02   -.344E-04 -.362E-04 0.357E-04
   -.308E+01 -.148E+01 0.221E+02   0.253E+01 0.209E+01 -.223E+02   0.584E+00 -.150E+00 -.242E+00   -.451E-05 0.192E-04 0.202E-04
   0.472E+02 0.284E+02 0.239E+02   -.446E+02 -.261E+02 -.222E+02   -.135E+02 -.901E+01 -.112E+02   -.422E-04 -.885E-04 -.513E-05
[...]
   0.224E+01 0.123E+01 0.179E+02   -.189E+01 -.798E+00 -.173E+02   -.372E+00 -.227E+00 -.104E+01   -.260E-04 -.100E-04 -.503E-05
   -.658E+02 -.267E+02 0.218E+02   0.211E+03 0.179E+03 -.171E+02   0.378E+02 0.214E+02 -.142E+02   0.649E-04 0.419E-04 0.333E-04
   -.664E-04 -.338E-04 -.379E+02   -.131E-03 -.346E-04 0.368E+02   -.185E-18 -.460E-20 0.131E+01   -.328E-06 0.350E-05 -.369E-04
   -.515E-04 -.681E-04 0.198E+02   -.498E-04 -.705E-05 -.190E+02   0.278E-19 -.697E-21 -.123E+01   0.197E-06 0.359E-05 0.340E-04
   -.174E-03 -.275E-03 -.104E+02   0.149E-05 0.223E-04 0.980E+01   -.152E-19 0.423E-19 0.800E+00   -.156E-06 0.372E-05 -.526E-05
   0.273E+01 -.286E+02 -.721E+02   -.410E+01 0.268E+02 0.688E+02   0.159E+01 0.939E+01 0.130E+02   -.320E-04 0.212E-04 0.304E-05
   -.224E+01 -.123E+01 0.179E+02   0.189E+01 0.798E+00 -.173E+02   0.372E+00 0.227E+00 -.104E+01   0.256E-04 0.122E-04 -.533E-05
   0.658E+02 0.267E+02 0.218E+02   -.211E+03 -.179E+03 -.171E+02   -.378E+02 -.214E+02 -.142E+02   -.647E-04 -.396E-04 0.331E-04
   -.335E+02 -.772E+00 -.661E+02   0.301E+02 0.123E+00 0.637E+02   0.112E+02 0.108E+01 0.127E+02   0.341E-04 -.433E-04 0.353E-04
   0.308E+01 -.148E+01 0.221E+02   -.253E+01 0.209E+01 -.223E+02   -.584E+00 -.150E+00 -.242E+00   0.477E-05 0.121E-04 0.255E-04
   -.472E+02 0.284E+02 0.239E+02   0.446E+02 -.261E+02 -.222E+02   0.135E+02 -.901E+01 -.112E+02   0.421E-04 -.956E-04 -.134E-05
   0.335E+02 0.771E+00 -.661E+02   -.301E+02 -.123E+00 0.637E+02   -.112E+02 -.108E+01 0.127E+02   -.343E-04 0.376E-04 0.354E-04
   -.308E+01 0.148E+01 0.221E+02   0.253E+01 -.209E+01 -.223E+02   0.584E+00 0.150E+00 -.242E+00   -.463E-05 -.180E-04 0.255E-04
   0.472E+02 -.284E+02 0.239E+02   -.446E+02 0.261E+02 -.222E+02   -.135E+02 0.901E+01 -.112E+02   -.422E-04 0.895E-04 -.136E-05
   -.911E-03 -.779E-02 0.327E+02   0.924E-13 -.362E-12 -.135E-12   0.533E-14 0.302E-13 -.327E+02   0.102E-08 0.198E-08 0.287E-03

 POSITION                                       TOTAL-FORCE (eV/Angst)
      0.43665      0.00000      0.00000        -0.000000     -0.000000     69.408044
      6.50870      0.00000      2.71550        -0.000000      0.000000      0.240468
      0.43665      0.00000      5.43100        -0.000000     -0.000000    -69.329884
      5.29429      2.42882      0.00000         8.505326     -1.458987      1.456405
     -0.77775      2.42882      2.71550         0.163240     -0.149574      0.477929
      5.29429      2.42882      5.43100         0.908321      1.102984     -1.274599
     -1.99216      4.85763      0.00000      -182.784774   -179.907157      1.747978
      4.07988      4.85764      2.71550         0.090467      0.256450      0.158984
     -1.99216      4.85764      5.43100        -1.382110      1.444641     -2.817356
      2.86547      7.28645      0.00000       182.784774    179.907157      1.747978
     -3.20657      7.28645      2.71550        -0.090467     -0.256450      0.158984
      2.86547      7.28645      5.43100         1.382110     -1.444641     -2.817356
     -4.42098      9.71527      0.00000        -8.505326      1.458987      1.456405
      1.65106      9.71527      2.71550        -0.163240      0.149574      0.477929
     -4.42098      9.71527      5.43100        -0.908321     -1.102984     -1.274599
      1.04386      1.82161      1.35775         7.730037     -0.426763     10.270676
      7.11590      1.82161      4.07325        -0.037152     -0.451827     -0.441350
      1.04386      1.82161      6.78875        10.844145      6.712703     -9.409409
      5.90149      4.25043      1.35775        -7.730037      0.426763     10.270676
     -0.17055      4.25043      4.07325         0.037152      0.451827     -0.441350
      5.90150      4.25043      6.78875       -10.844145     -6.712703     -9.409409
     -1.38496      6.67925      1.35775        -0.221718      7.527166      9.594960
      4.68709      6.67925      4.07325        -0.016591     -0.201715     -0.427223
     -1.38496      6.67925      6.78875       182.717635   -173.378580     -9.496675
     -8.67141      9.10807      1.35775        -0.000000      0.000000      0.231852
     -2.59937      9.10807      4.07325        -0.000000     -0.000000     -0.422651
     -8.67141      9.10807      6.78875        -0.000000     -0.000000      0.191530
     -3.81378     11.53688      1.35775         0.221718     -7.527166      9.594960
     -9.88582     11.53688      4.07325         0.016591      0.201715     -0.427223
     -3.81378     11.53688      6.78875      -182.717635    173.378580     -9.496675
      8.93752      1.21441      0.00000       182.784774    179.907157      1.747978
      2.86547      1.21441      2.71550        -0.090467     -0.256450      0.158984
      8.93752      1.21441      5.43100         1.382110     -1.444641     -2.817356
      1.65106      3.64323      0.00000        -8.505326      1.458987      1.456405
      7.72311      3.64323      2.71550        -0.163240      0.149574      0.477929
      1.65106      3.64323      5.43100        -0.908321     -1.102984     -1.274599
     -5.63539      6.07204      0.00000        -0.000000      0.000000     69.408044
      0.43665      6.07204      2.71550        -0.000000      0.000000      0.240468
     -5.63539      6.07204      5.43100        -0.000000     -0.000000    -69.329884
     -0.77775      8.50086      0.00000         8.505326     -1.458987      1.456405
     -6.84980      8.50086      2.71550         0.163240     -0.149574      0.477929
     -0.77775      8.50086      5.43100         0.908321      1.102984     -1.274599
     -8.06421     10.92968      0.00000      -182.784774   -179.907157      1.747978
     -1.99216     10.92968      2.71550         0.090467      0.256450      0.158984
     -8.06421     10.92968      5.43100        -1.382110      1.444641     -2.817356
      4.68709      0.60720      1.35775        -0.221718      7.527166      9.594960
     10.75913      0.60720      4.07325        -0.016591     -0.201715     -0.427223
      4.68709      0.60721      6.78875       182.717635   -173.378580     -9.496675
     -2.59937      3.03602      1.35775        -0.000000     -0.000000      0.231852
      3.47268      3.03602      4.07325        -0.000000     -0.000000     -0.422651
     -2.59937      3.03602      6.78875        -0.000000      0.000000      0.191530
      2.25827      5.46484      1.35775         0.221718     -7.527166      9.594960
     -3.81378      5.46484      4.07325         0.016591      0.201715     -0.427223
      2.25827      5.46484      6.78875      -182.717635    173.378580     -9.496675
     -5.02818      7.89366      1.35775         7.730037     -0.426763     10.270676
      1.04386      7.89366      4.07325        -0.037152     -0.451827     -0.441350
     -5.02819      7.89366      6.78875        10.844145      6.712703     -9.409409
     -0.17055     10.32247      1.35775        -7.730037      0.426763     10.270676
     -6.24259     10.32248      4.07325         0.037152      0.451827     -0.441350
     -0.17055     10.32247      6.78875       -10.844145     -6.712703     -9.409409
[...]
     -7.45700     11.53688      8.14650        -0.221718     -7.527166      9.594960
     -1.38496     11.53688     10.86200        -0.016591      0.201715     -0.427223
     -7.45700     11.53689      0.00000       182.717635    173.378580     -9.496675
     -2.59936      9.10807      8.14650        -0.000000     -0.000000      0.231852
     -8.67141      9.10807     10.86200        -0.000000      0.000000     -0.422651
     -2.59937      9.10807      0.00000        -0.000000      0.000000      0.191530
      2.25827      6.67925      8.14650         0.221718      7.527166      9.594960
     -3.81377      6.67925     10.86200         0.016591     -0.201715     -0.427223
      2.25827      6.67925      0.00000      -182.717635   -173.378580     -9.496675
      7.11590      4.25043      8.14650         7.730037      0.426763     10.270676
      1.04386      4.25043     10.86200        -0.037152      0.451827     -0.441350
      7.11590      4.25043      0.00000        10.844145     -6.712703     -9.409409
     -0.17055      1.82161      8.14650        -7.730037     -0.426763     10.270676
      5.90150      1.82161     10.86200         0.037152     -0.451827     -0.441350
     -0.17055      1.82161      0.00000       -10.844145      6.712703     -9.409409
    total drift:                               -0.000911     -0.007788      0.002047

  FREE ENERGIE OF THE ION-ELECTRON SYSTEM (eV)
  free  energy   TOTEN  =       266.55706704 eV

  energy  without entropy=      266.55891115  energy(sigma->0) =      266.55798910