 vasp.6.4.3 19Mar24 (build Oct 22 2024 11:23:12) complex

 executed on             LinuxIFC date 2025.06.10  10:33:50

 INCAR:
   SYSTEM = Si and Ge interface calculation
   ISTART = 0
   ICHARG = 2
   LWAVE = .FALSE.
   LREAL = AUTO
   ENCUT = 700
   ENAUG = 900
   ADDGRID = .TRUE.
   LMAXMIX = 6
   LASPH = .TRUE.
   LMIXTAU = .TRUE.
   NCORE = 16
   NELM = 100
   NBANDS = 634
   EDIFF = 1d-7
   AMIX = 0.6
   ISMEAR = 0
   SIGMA = 0.01
   NELECT = 1056
   ISPIN = 2
   NUPDOWN = 1
   LVTOT = .FALSE.
   LVHAR = .TRUE.

 POTCAR:    PAW_PBE Si 05Jan2001
 POTCAR:    PAW_PBE Sn 08Apr2002
|           W    W    AA    RRRRR   N    N  II  N    N   GGGG   !!!           |
|           W    W   A  A   R    R  NN   N  II  NN   N  G    G  !!!           |
|           W    W  A    A  R    R  N N  N  II  N N  N  G       !!!           |
|           W WW W  AAAAAA  RRRRR   N  N N  II  N  N N  G  GGG   !            |
|           WW  WW  A    A  R   R   N   NN  II  N   NN  G    G                |
|           W    W  A    A  R    R  N    N  II  N    N   GGGG   !!!           |
|     You use a magnetic or noncollinear calculation, but did not specify     |
|     the initial magnetic moment with the MAGMOM tag. Note that a            |
|     default of 3.788e-3 will be used for all atoms. This ferromagnetic      |
|     setup may break the symmetry of the crystal, in particular it may       |
|     rule out finding an antiferromagnetic solution. Thence, we              |
|     recommend setting the initial magnetic moment manually or verifying     |
|     carefully that this magnetic setup is desired.                          |

 POTCAR:    PAW_PBE Si 05Jan2001
   VRHFIN =Si: s2p2

   TITEL  = PAW_PBE Si 05Jan2001
   POMASS =   28.085; ZVAL   =    4.000    mass and valenz
   ENMAX  =  245.345; ENMIN  =  184.009 eV

 POTCAR:    PAW_PBE Sn 08Apr2002
   VRHFIN =Sn: s2p2

   TITEL  = PAW_PBE Sn 08Apr2002
   POMASS =  118.710; ZVAL   =    4.000    mass and valenz
   ENMAX  =  103.236; ENMIN  =   77.427 eV

 Optimization of the real space projectors (new method)

 maximal supplied QI-value         = 19.84
 optimisation between [QCUT,QGAM] = [ 13.49, 26.99] = [ 50.98,203.92] Ry
 Optimized for a Real-space Cutoff    1.07 Angstroem

   l    n(q)    QCUT    max X(q) W(low)/X(q) W(high)/X(q)  e(spline)
   0      9    13.493   159.560    0.22E-03    0.15E-03    0.72E-07
   0      9    13.493   115.863    0.21E-03    0.15E-03    0.71E-07
   1      8    13.493    88.339    0.15E-03    0.11E-03    0.13E-06
   1      8    13.493    48.592    0.15E-03    0.10E-03    0.13E-06
 Optimization of the real space projectors (new method)

 maximal supplied QI-value         = 12.47
 optimisation between [QCUT,QGAM] = [ 12.47, 27.06] = [ 43.56,205.12] Ry
 Optimized for a Real-space Cutoff    1.58 Angstroem

   l    n(q)    QCUT    max X(q) W(low)/X(q) W(high)/X(q)  e(spline)
   0     13    12.472    14.688    0.45E-04    0.45E-04    0.25E-05
   0     13    12.472     7.308    0.94E-04    0.11E-03    0.61E-05
   1     12    12.472    45.102    0.34E-03    0.14E-03    0.21E-05
   1     12    12.472    30.691    0.31E-03    0.13E-03    0.20E-05
   2     12    12.472     7.156    0.86E-04    0.11E-03    0.17E-05
 WARNING: PSMAXN for non-local potential too small
          PSMAXN should be >   13.5545592237991       NTYP=           2
  PAW_PBE Si 05Jan2001                  :
  PAW_PBE Sn 08Apr2002                  :

 POSCAR: Si+Sn
  positions in direct lattice

 exchange-correlation table for PE
   RHO(1)=    0.500       N(1)  =     2000
   RHO(2)=  100.500       N(2)  =     4000

 ion  position               nearest neighbor table
   1  0.996  0.997  0.000- 145 2.35  49 2.35 258 2.94
   2  0.881  0.920  0.142-  76 2.35 146 2.35  50 2.35 145 2.35
   3  0.765  0.843  0.284-  77 2.35  51 2.35 147 2.35 146 2.35
   4  0.073  0.382  0.000-  43 2.35 154 2.35 192 2.99
   5  0.957  0.305  0.142-  73 2.35  44 2.35 155 2.35 154 2.35
   6  0.842  0.228  0.284-  74 2.35  45 2.35 155 2.35 156 2.35
   7  0.227  0.151  0.000- 118 2.35  46 2.35 186 2.89
   8  0.111  0.074  0.142-  49 2.35  47 2.35 118 2.35 119 2.35
   9  0.996  0.997  0.284-  50 2.35  48 2.35 120 2.35 119 2.35
  10  0.150  0.766  0.000- 189 2.32  52 2.35 121 2.35
  11  0.034  0.690  0.142-  40 2.35 122 2.35 121 2.35  53 2.35
  12  0.919  0.613  0.284-  41 2.35 123 2.35  54 2.35 122 2.35
  13  0.304  0.536  0.000- 243 2.32  55 2.35 124 2.35
  14  0.188  0.459  0.142-  43 2.35 125 2.35  56 2.35 124 2.35
  15  0.073  0.382  0.284-  44 2.35  57 2.35 126 2.35 125 2.35
  16  0.457  0.305  0.000- 127 2.35  58 2.35 201 2.94 246 3.37
  17  0.342  0.228  0.142-  46 2.35 128 2.35  59 2.35 127 2.35
  18  0.227  0.151  0.284-  47 2.35  60 2.35 129 2.35 128 2.35
  19  0.611  0.074  0.000- 130 2.35  61 2.35 195 2.84
  20  0.496  0.997  0.142-  64 2.35 131 2.35 130 2.35  62 2.35
  21  0.381  0.920  0.284-  65 2.35  63 2.35 132 2.35 131 2.35
  22  0.381  0.920  0.000- 240 2.26 133 2.35  64 2.35
  23  0.265  0.843  0.142-  52 2.35 134 2.35 133 2.35  65 2.35
  24  0.150  0.766  0.284-  53 2.35  66 2.35 135 2.35 134 2.35
  25  0.534  0.690  0.000- 198 2.26 136 2.35  67 2.35
  26  0.419  0.613  0.142-  55 2.35 137 2.35  68 2.35 136 2.35
  27  0.304  0.536  0.284-  56 2.35 138 2.35  69 2.35 137 2.35
  28  0.688  0.459  0.000- 139 2.35  70 2.35 252 2.89
  29  0.573  0.382  0.142-  58 2.35 140 2.35 139 2.35  71 2.35
  30  0.457  0.305  0.284- 141 2.35  59 2.35  72 2.35 140 2.35
  31  0.842  0.228  0.000- 142 2.35  73 2.35
  32  0.727  0.151  0.142-  61 2.35  74 2.35 143 2.35 142 2.35
  33  0.611  0.074  0.284-  62 2.35 144 2.35  75 2.35 143 2.35
  34  0.765  0.843  0.000- 148 2.35  76 2.35 249 2.84
  35  0.650  0.766  0.142-  67 2.35 149 2.35  77 2.35 148 2.35
  36  0.534  0.690  0.284-  68 2.35  78 2.35 150 2.35 149 2.35
  37  0.919  0.613  0.000-  40 2.35 151 2.35 261 2.99 207 3.37
  38  0.804  0.536  0.142-  70 2.35  41 2.35 152 2.35 151 2.35
  39  0.688  0.459  0.284-  42 2.35  71 2.35 153 2.35 152 2.35
  40  0.015  0.593  0.071-  37 2.35  11 2.35  82 2.35  83 2.35
  41  0.900  0.516  0.213-  83 2.35  38 2.35  12 2.35  84 2.35
  42  0.784  0.440  0.355- 169 2.26  39 2.35  84 2.35
  43  0.169  0.363  0.071-  14 2.35   4 2.35  86 2.35  85 2.35
  44  0.054  0.286  0.213-  15 2.35   5 2.35  87 2.35  86 2.35
  45  0.938  0.209  0.355-   6 2.35  87 2.35 226 2.89
  46  0.323  0.132  0.071-  17 2.35   7 2.35  88 2.35  89 2.35
  47  0.207  0.055  0.213-  18 2.35   8 2.35  89 2.35  90 2.35
  48  0.092  0.978  0.355-   9 2.35  90 2.35
  49  0.092  0.978  0.071-   8 2.35   1 2.35  91 2.35  92 2.35
  50  0.977  0.901  0.213-   9 2.35   2 2.35  92 2.35  93 2.35
  51  0.861  0.824  0.355-   3 2.35  93 2.35 166 2.84
  52  0.246  0.747  0.071-  23 2.35  10 2.35  94 2.35  95 2.35
  53  0.131  0.670  0.213-  24 2.35  95 2.35  11 2.35  96 2.35
  54  0.015  0.593  0.355-  12 2.35  96 2.35 223 2.84
  55  0.400  0.516  0.071-  26 2.35  97 2.35  13 2.35  98 2.35
  56  0.284  0.440  0.213-  27 2.35  98 2.35  14 2.35  99 2.35
  57  0.169  0.363  0.355-  99 2.35  15 2.35 235 2.99 178 3.37
  58  0.554  0.286  0.071-  29 2.35 101 2.35 100 2.35  16 2.35
  59  0.438  0.209  0.213-  30 2.35 102 2.35  17 2.35 101 2.35
  60  0.323  0.132  0.355-  18 2.35 102 2.35 163 2.99
[...]
 250  0.014  0.560  0.550- 223 2.82 233 2.82 178 2.82 179 2.82
 251  0.848  0.560  0.720- 179 2.82 224 2.82 234 2.82 180 2.82
 252  0.681  0.560  0.890- 225 2.82 180 2.82 109 2.89  28 2.89
 253  0.014  0.227  0.550- 226 2.82 181 2.82 236 2.82 182 2.82
 254  0.848  0.227  0.720- 182 2.82 227 2.82 237 2.82 183 2.82
 255  0.681  0.227  0.890- 100 2.32 183 2.82 228 2.82
 256  0.348  0.894  0.550- 229 2.82 212 2.82 158 2.82 157 2.82
 257  0.181  0.894  0.720- 230 2.82 213 2.82 158 2.82 159 2.82
 258  0.014  0.894  0.890- 231 2.82 159 2.82   1 2.94 115 2.94
 259  0.348  0.560  0.550- 232 2.82 161 2.82 215 2.82 160 2.82
 260  0.181  0.560  0.720- 233 2.82 216 2.82 161 2.82 162 2.82
 261  0.014  0.560  0.890- 234 2.82 162 2.82  82 2.84  37 2.99
 262  0.348  0.227  0.550- 235 2.82 164 2.82 163 2.82 218 2.82
 263  0.181  0.227  0.720- 236 2.82 164 2.82 219 2.82 165 2.82
 264  0.014  0.227  0.890-  79 2.26 237 2.82 165 2.82

  LATTYP: Found a simple tetragonal cell.
 ALAT       =    19.5817508700
 C/A-ratio  =     0.9754107470

  Lattice vectors:

 A1 = (  19.5817508700,   0.0000000000,   0.0000000000)
 A2 = (   0.0000000000,  19.5817489620,   0.0000000000)
 A3 = (   0.0000000000,   0.0000000000,  19.1002502440)

Analysis of symmetry for initial positions (statically):
 Subroutine PRICEL returns following result:

[...]

   2 primitive cells build up your supercell.

 Routine SETGRP: Setting up the symmetry group for a
 simple tetragonal supercell.

 Subroutine GETGRP returns: Found  2 space group operations
 (whereof  1 operations were pure point group operations)
 out of a pool of 16 trial point group operations.

The static configuration has the point symmetry C_1 .
 The point group associated with its full space group is C_1h.

Analysis of symmetry for dynamics (positions and initial velocities):
 Subroutine PRICEL returns following result:

[...]

The dynamic configuration has the point symmetry C_1 .
 The point group associated with its full space group is C_1h.

Analysis of structural, dynamic, and magnetic symmetry:
 Subroutine PRICEL returns following result:

  LATTYP: Found a simple tetragonal cell.
 ALAT       =    13.8463898008
 C/A-ratio  =     1.3794390104

  Lattice vectors:

 A1 = (   9.7908765903,  -9.7908756559,   0.0000000000)
 A2 = (   9.7908765903,   9.7908733061,   0.0000000000)
 A3 = (   0.0000000000,   0.0000000000,  19.1002502440)

   2 primitive cells build up your supercell.

 Routine SETGRP: Setting up the symmetry group for a
 simple tetragonal supercell.

 Subroutine GETGRP returns: Found  2 space group operations
 (whereof  1 operations were pure point group operations)
 out of a pool of 16 trial point group operations.

The overall configuration has the point symmetry C_1 .
 The point group associated with its full space group is C_1h.

 Subroutine INISYM returns: Found  2 space group operations
 (whereof  1 operations are pure point group operations),
 and found     2 'primitive' translations

                                     Primitive cell

  volume of cell :    3661.9475

  direct lattice vectors                    reciprocal lattice vectors
     9.790876590 -9.790875656  0.000000000     0.051067944 -0.051067961  0.000000000
     9.790876590  9.790873306  0.000000000     0.051067957  0.051067961  0.000000000
     0.000000000  0.000000000 19.100250244     0.000000000  0.000000000  0.052355335

  length of vectors
    13.846389801 13.846388139 19.100250244     0.072220991  0.072221000  0.052355335

  position of ions in fractional coordinates (direct lattice)
     0.998630764  0.993155005  0.000000000
     0.960169284  0.800847234  0.142170906
     0.921707806  0.608539464  0.284341902
     0.690938657  0.454693578  0.000000000
     0.652476918  0.262385728  0.142170906
     0.614015439  0.070077957  0.284341902
     0.075554048  0.377770454  0.000000000
     0.037092541  0.185462669  0.142170906
     0.998630764  0.993154885  0.284341902
[...]
     0.000000000  0.000000000 19.100250244     0.000000000  0.000000000  0.052355335

  length of vectors
    19.581750870 19.581748962 19.100250244     0.051067956  0.051067961  0.052355335

 FORCES acting on ions
    electron-ion (+dipol)            ewald-force                    non-local-force                 convergence-correction
   -.474E+00 -.662E+01 0.125E+03   0.131E+01 0.768E+01 -.125E+03   -.139E+00 -.110E+01 -.703E+00   -.440E-05 -.104E-04 0.567E-04
   0.154E+00 0.202E+00 0.276E+02   -.157E+00 -.135E+00 -.275E+02   -.373E-01 -.511E-01 0.372E-01   -.127E-04 -.169E-04 0.507E-05
   -.226E+00 -.867E+00 -.751E+02   0.142E+00 0.119E+01 0.759E+02   0.157E+00 -.389E-01 -.858E+00   -.399E-04 0.176E-04 -.136E-04
   0.804E+01 0.108E+01 0.128E+03   -.714E+01 -.729E+00 -.127E+03   0.940E-02 -.284E+00 -.163E+01   -.113E-04 -.514E-05 0.384E-04
   0.188E+00 -.471E+00 0.276E+02   0.118E-02 0.127E+00 -.273E+02   -.134E+00 0.302E+00 -.183E+00   -.175E-05 0.479E-05 0.821E-05
   -.102E+00 -.694E-01 -.780E+02   0.164E-01 0.168E+00 0.787E+02   0.801E-01 -.500E-01 -.559E+00   0.183E-04 -.313E-05 -.649E-04
   -.116E+01 -.564E+01 0.127E+03   0.128E+01 0.595E+01 -.125E+03   0.233E+00 -.356E+00 -.231E+01   0.323E-04 0.192E-04 0.389E-04
   0.249E+00 -.449E+00 0.273E+02   -.258E+00 -.436E-01 -.272E+02   -.436E-01 0.461E+00 -.325E-01   0.154E-04 0.142E-05 0.120E-04
   -.118E+01 -.687E+00 -.769E+02   0.163E+01 0.497E+00 0.774E+02   -.417E+00 0.853E-01 -.497E+00   0.505E-05 -.101E-04 -.209E-04
   0.763E+01 -.842E+01 0.111E+03   -.617E+01 0.843E+01 -.110E+03   -.141E+01 0.976E+00 0.164E+01   -.117E-04 -.715E-05 0.373E-04
   0.264E+00 -.795E+00 0.278E+02   -.261E-01 0.134E+00 -.275E+02   -.146E+00 0.562E+00 -.229E+00   -.114E-04 0.152E-06 -.458E-05
   0.536E+00 0.865E+00 -.751E+02   -.504E+00 -.113E+01 0.759E+02   -.723E-01 0.474E-01 -.928E+00   0.314E-04 -.160E-04 -.317E-04
   0.117E+02 0.574E+01 0.112E+03   -.104E+02 -.608E+01 -.111E+03   -.188E+01 -.468E+00 0.169E+01   -.259E-04 0.351E-06 0.433E-04
   0.227E+00 -.109E+01 0.273E+02   0.830E-01 0.267E+00 -.271E+02   -.212E+00 0.740E+00 -.110E+00   0.528E-05 -.611E-05 0.171E-04
   0.179E+00 0.682E+00 -.788E+02   -.123E+00 -.140E+01 0.787E+02   -.178E+00 0.203E+00 0.212E+00   0.142E-04 0.558E-06 0.419E-05
   0.101E+01 0.421E+01 0.127E+03   -.105E+01 -.441E+01 -.126E+03   -.205E+00 0.273E+00 -.255E+01   -.260E-04 -.432E-04 0.365E-04
   0.206E-01 -.962E-01 0.275E+02   -.297E-01 -.127E-02 -.269E+02   -.116E-02 0.892E-01 -.646E+00   -.121E-05 -.114E-04 -.346E-04
   -.608E+00 -.435E+00 -.805E+02   0.912E+00 -.126E-01 0.797E+02   -.317E+00 0.185E+00 0.119E+01   -.244E-04 -.351E-05 -.290E-04
   -.964E+01 -.139E+01 0.126E+03   0.853E+01 0.125E+01 -.125E+03   0.228E+00 0.144E+00 -.194E+01   -.357E-05 0.985E-05 0.339E-04
   -.244E+00 0.953E+00 0.274E+02   -.105E+00 -.257E+00 -.271E+02   0.235E+00 -.616E+00 -.207E+00   -.172E-04 0.338E-05 0.120E-04
   0.261E+00 -.917E+00 -.794E+02   0.623E+00 0.811E+00 0.787E+02   -.732E+00 0.146E+00 0.113E+01   0.248E-04 0.937E-05 -.261E-04
   -.982E+01 -.715E+01 0.109E+03   0.889E+01 0.735E+01 -.108E+03   0.178E+01 0.877E+00 0.297E+01   0.533E-05 0.142E-04 0.471E-04
   0.151E+00 -.320E+00 0.276E+02   -.162E+00 -.563E-01 -.273E+02   -.526E-01 0.339E+00 -.362E+00   0.141E-04 0.711E-05 -.385E-05
   -.117E+01 0.337E+00 -.772E+02   0.104E+01 -.750E+00 0.771E+02   0.533E-03 -.651E-02 0.354E+00   -.306E-04 -.534E-05 -.479E-04
   -.544E+01 0.946E+01 0.108E+03   0.428E+01 -.934E+01 -.107E+03   0.117E+01 -.142E+01 0.291E+01   0.110E-04 0.203E-04 0.500E-04
   -.508E-01 0.135E+00 0.277E+02   0.166E+00 0.100E+00 -.272E+02   -.178E-01 -.217E+00 -.458E+00   -.108E-04 0.147E-04 0.142E-04
   -.474E+00 0.102E+01 -.795E+02   -.489E+00 -.105E+01 0.788E+02   0.777E+00 -.116E+00 0.119E+01   -.159E-04 -.127E-04 -.173E-04
   0.379E+00 0.731E+01 0.126E+03   -.115E+01 -.833E+01 -.125E+03   0.719E-01 0.105E+01 -.968E+00   0.289E-04 0.362E-05 0.608E-04
   -.211E+00 0.487E+00 0.272E+02   0.242E+00 0.311E-01 -.271E+02   0.282E-01 -.487E+00 -.670E-01   -.405E-06 -.475E-05 0.123E-04
   0.440E+00 0.334E+00 -.809E+02   -.655E+00 0.242E-01 0.800E+02   0.231E+00 -.148E+00 0.145E+01   0.118E-04 0.111E-05 -.244E-04
   -.702E+00 -.812E-01 0.129E+03   0.637E+00 -.658E-02 -.131E+03   -.171E-01 0.732E-01 0.106E+01   0.128E-05 0.478E-05 0.366E-04
   -.232E+00 0.654E+00 0.276E+02   -.629E-02 -.172E+00 -.273E+02   0.180E+00 -.426E+00 -.203E+00   0.802E-06 -.776E-05 0.368E-05
   0.675E-01 -.789E+00 -.790E+02   0.144E+00 0.150E+01 0.788E+02   -.331E-01 -.146E+00 0.486E+00   -.146E-04 -.195E-04 0.203E-07
   -.682E+01 -.248E+00 0.123E+03   0.597E+01 -.722E+00 -.122E+03   0.309E+00 0.912E+00 -.925E+00   0.209E-04 -.262E-04 0.391E-04
   -.287E+00 0.836E+00 0.278E+02   0.607E-01 -.114E+00 -.275E+02   0.148E+00 -.623E+00 -.239E+00   0.559E-05 0.159E-05 0.138E-04
   0.109E+01 -.122E+00 -.777E+02   -.109E+01 0.519E+00 0.775E+02   0.749E-01 -.311E-01 0.570E+00   0.244E-04 0.203E-04 -.286E-04
   0.532E+01 0.167E+01 0.124E+03   -.492E+01 -.105E+01 -.123E+03   -.925E-01 -.605E+00 -.623E+00   -.173E-04 0.181E-04 0.342E-04
   -.244E+00 -.856E-01 0.276E+02   0.192E+00 0.122E+00 -.275E+02   0.782E-01 -.343E-01 0.333E-01   0.142E-04 0.134E-04 -.100E-04
   0.113E+01 0.668E+00 -.775E+02   -.165E+01 -.357E+00 0.779E+02   0.493E+00 -.122E+00 -.283E+00   -.426E-05 0.213E-04 -.274E-04
   -.226E+00 -.867E+00 0.751E+02   0.143E+00 0.119E+01 -.759E+02   0.157E+00 -.389E-01 0.858E+00   -.443E-04 0.198E-04 0.275E-05
   -.287E+00 0.836E+00 -.278E+02   0.608E-01 -.114E+00 0.275E+02   0.148E+00 -.623E+00 0.239E+00   -.134E-06 0.347E-06 -.243E-04
   -.544E+01 0.946E+01 -.108E+03   0.428E+01 -.934E+01 0.107E+03   0.117E+01 -.142E+01 -.291E+01   0.957E-05 0.167E-04 -.561E-04
   0.535E+00 0.865E+00 0.751E+02   -.504E+00 -.113E+01 -.759E+02   -.723E-01 0.474E-01 0.928E+00   0.271E-04 -.195E-04 0.171E-04
   -.244E+00 -.856E-01 -.276E+02   0.192E+00 0.121E+00 0.275E+02   0.782E-01 -.343E-01 -.333E-01   0.553E-05 0.105E-04 -.303E-05
   0.379E+00 0.731E+01 -.126E+03   -.115E+01 -.833E+01 0.125E+03   0.719E-01 0.105E+01 0.968E+00   0.201E-04 0.209E-05 -.649E-04
   0.179E+00 0.682E+00 0.788E+02   -.123E+00 -.140E+01 -.787E+02   -.178E+00 0.203E+00 -.212E+00   0.162E-04 -.482E-05 -.161E-04
   0.188E+00 -.471E+00 -.276E+02   0.116E-02 0.127E+00 0.273E+02   -.134E+00 0.302E+00 0.183E+00   -.344E-06 0.144E-05 -.223E-04
   -.702E+00 -.811E-01 -.129E+03   0.637E+00 -.654E-02 0.131E+03   -.171E-01 0.732E-01 -.106E+01   -.164E-05 0.456E-05 -.395E-04
   -.103E+00 -.695E-01 0.780E+02   0.165E-01 0.167E+00 -.787E+02   0.801E-01 -.500E-01 0.559E+00   0.161E-04 -.374E-05 0.512E-04
   -.232E+00 0.653E+00 -.276E+02   -.617E-02 -.172E+00 0.273E+02   0.180E+00 -.426E+00 0.203E+00   -.472E-05 -.607E-05 -.173E-04
   -.964E+01 -.139E+01 -.126E+03   0.853E+01 0.125E+01 0.125E+03   0.228E+00 0.144E+00 0.194E+01   -.732E-05 0.128E-04 -.403E-04
   -.118E+01 -.688E+00 0.769E+02   0.163E+01 0.497E+00 -.774E+02   -.417E+00 0.853E-01 0.497E+00   0.216E-05 -.318E-05 0.813E-05
   0.154E+00 0.202E+00 -.276E+02   -.157E+00 -.135E+00 0.275E+02   -.373E-01 -.511E-01 -.372E-01   -.178E-04 -.121E-04 -.187E-04
   -.682E+01 -.247E+00 -.123E+03   0.597E+01 -.722E+00 0.122E+03   0.309E+00 0.912E+00 0.925E+00   0.136E-04 -.250E-04 -.426E-04
   -.117E+01 0.337E+00 0.772E+02   0.104E+01 -.750E+00 -.771E+02   0.533E-03 -.651E-02 -.354E+00   -.301E-04 -.612E-05 0.393E-04
   0.264E+00 -.795E+00 -.278E+02   -.262E-01 0.133E+00 0.275E+02   -.146E+00 0.562E+00 0.229E+00   -.961E-05 -.196E-05 -.661E-05
   0.532E+01 0.167E+01 -.124E+03   -.492E+01 -.105E+01 0.123E+03   -.925E-01 -.605E+00 0.623E+00   -.200E-04 0.152E-04 -.340E-04
   -.474E+00 0.102E+01 0.795E+02   -.489E+00 -.106E+01 -.788E+02   0.777E+00 -.116E+00 -.119E+01   -.111E-04 -.195E-04 0.139E-04
   0.227E+00 -.109E+01 -.273E+02   0.830E-01 0.267E+00 0.271E+02   -.212E+00 0.740E+00 0.110E+00   0.131E-04 -.122E-04 -.263E-04
   0.804E+01 0.108E+01 -.128E+03   -.714E+01 -.729E+00 0.127E+03   0.940E-02 -.284E+00 0.163E+01   -.485E-05 -.919E-05 -.398E-04
[...]
   0.898E-02 0.999E-01 0.166E+02   -.294E-01 -.262E-01 -.167E+02   0.114E+00 -.188E+00 0.365E-01   0.160E-04 0.127E-04 0.170E-04
   0.288E+01 -.600E+00 0.900E+02   -.273E+01 0.546E+00 -.899E+02   0.362E+00 -.122E+00 0.157E+01   0.337E-04 0.254E-04 0.454E-04
   -.643E+00 0.491E+00 -.527E+02   0.387E+00 0.326E+00 0.528E+02   0.354E+00 -.659E+00 -.177E+00   0.215E-04 0.846E-05 -.143E-04
   0.142E-01 -.374E-01 0.167E+02   0.469E-02 -.902E-03 -.168E+02   -.412E-01 0.522E-01 0.137E+00   -.433E-06 -.225E-05 0.208E-04
   -.530E+01 0.817E+01 0.101E+03   0.490E+01 -.787E+01 -.100E+03   0.789E+00 -.106E+01 -.246E+01   -.117E-06 -.768E-05 0.472E-04
   -.493E+00 0.103E+01 -.529E+02   0.232E+00 -.450E+00 0.528E+02   0.136E+00 -.384E+00 0.548E-01   0.137E-04 0.192E-04 -.116E-04
   -.820E-01 -.155E+00 0.167E+02   -.196E-02 -.330E-01 -.167E+02   0.316E-01 0.185E+00 0.860E-01   0.453E-05 -.326E-05 0.941E-05
   -.348E+01 0.762E+00 0.891E+02   0.335E+01 -.670E+00 -.890E+02   -.540E+00 0.150E+00 0.165E+01   -.135E-04 -.347E-04 0.342E-04
   0.640E+00 -.124E+01 -.531E+02   -.303E+00 0.477E+00 0.529E+02   -.207E+00 0.531E+00 0.241E+00   -.792E-05 -.191E-04 -.153E-04
   -.338E-01 -.306E+00 0.166E+02   0.200E-01 -.405E-02 -.167E+02   -.613E-01 0.346E+00 0.420E-01   -.949E-05 -.426E-05 0.377E-05
   0.152E+01 0.340E+01 0.918E+02   -.192E+01 -.406E+01 -.916E+02   0.526E+00 0.524E+00 0.965E+00   -.263E-04 0.182E-04 0.448E-04
   -.129E+00 0.217E+00 -.535E+02   0.610E-01 -.122E-01 0.527E+02   0.606E-01 -.128E+00 0.103E+01   -.326E-05 0.241E-05 -.651E-05
   0.159E+00 0.344E+00 0.168E+02   -.170E-01 0.355E-01 -.167E+02   -.933E-02 -.467E+00 -.161E+00   0.131E-04 0.852E-05 0.892E-05
   0.407E+01 -.859E+01 0.103E+03   -.372E+01 0.830E+01 -.103E+03   -.711E+00 0.143E+01 -.370E+01   0.102E-05 0.600E-05 0.458E-04
   -.121E+01 -.117E+01 0.133E-01   -.181E-12 0.135E-12 0.144E-11   0.130E+01 0.137E+01 -.888E-15   -.288E-05 -.225E-04 -.243E-03

 POSITION                                       TOTAL-FORCE (eV/Angst)
     19.50133     19.52813      0.00000         0.696335     -0.049132     -0.610843
     17.24190     18.02184      2.71550        -0.040755      0.014610      0.121218
     14.98246     16.51556      5.43100         0.073382      0.281802     -0.101886
      1.42587      7.47783      0.00000         0.902116      0.065823     -0.644546
     18.74818      5.97154      2.71550         0.055026     -0.042958      0.099750
     16.48875      4.46525      5.43100        -0.006330      0.047225      0.140647
      4.43844      2.95896      0.00000         0.354596     -0.044259     -0.972787
      2.17901      1.45267      2.71550        -0.052481     -0.033189      0.058080
     19.50133     19.52813      5.43100         0.030712     -0.105769      0.062514
      2.93216     15.00927      0.00000         0.050183      0.987134      2.638104
      0.67272     13.50298      2.71550         0.091715     -0.099715      0.070270
     17.99504     11.99669      5.43100        -0.041405     -0.220412     -0.107003
      5.94473     10.49040      0.00000        -0.637396     -0.814373      2.503276
      3.68530      8.98411      2.71550         0.097989     -0.084234      0.056114
      1.42587      7.47783      5.43100        -0.122166     -0.511696      0.177381
      8.95731      5.97154      0.00000        -0.248363      0.077270     -1.108636
      6.69788      4.46525      2.71550        -0.010596     -0.009081     -0.051390
      4.43844      2.95896      5.43100        -0.014781     -0.263777      0.476139
     11.96989      1.45267      0.00000        -0.888234     -0.003726     -0.526242
      9.71045     19.52813      2.71550        -0.114300      0.080124      0.036167
      7.45102     18.02184      5.43100         0.151431      0.038989      0.476930
      7.45102     18.02185      0.00000         0.853315      1.080556      3.591427
      5.19159     16.51556      2.71550        -0.063904     -0.038253     -0.006145
      2.93216     15.00927      5.43100        -0.124854     -0.420197      0.268784
     10.46360     13.50298      0.00000         0.016312     -1.298915      3.669599
      8.20416     11.99669      2.71550         0.096741      0.017436     -0.027548
      5.94473     10.49040      5.43100        -0.186472     -0.150697      0.455252
     13.47617      8.98412      0.00000        -0.698033      0.032744     -0.609948
     11.21674      7.47783      2.71550         0.059002      0.031226      0.040718
      8.95731      5.97154      5.43100         0.014974      0.209528      0.534570
     16.48875      4.46525      0.00000        -0.082289     -0.015280     -0.818751
     14.22932      2.95896      2.71550        -0.058454      0.054520      0.089282
     11.96989      1.45267      5.43100         0.177640      0.559656      0.216304
     14.98247     16.51556      0.00000        -0.542243     -0.058461     -0.272530
     12.72303     15.00927      2.71550        -0.078309      0.097584      0.066829
     10.46360     13.50298      5.43100         0.083184      0.365403      0.350191
     17.99504     11.99669      0.00000         0.313843      0.015491     -0.437161
     15.73561     10.49040      2.71550         0.025520      0.000781      0.119750
     13.47617      8.98411      5.43100        -0.031600      0.187834      0.120530
      0.29615     11.62012      1.35775         0.073382      0.281802      0.101886
     17.61847     10.11383      4.07325        -0.078309      0.097584     -0.066829
     15.35903      8.60754      6.78875         0.016312     -1.298915     -3.669599
      3.30873      7.10126      1.35775        -0.041405     -0.220412      0.107003
      1.04929      5.59497      4.07325         0.025520      0.000781     -0.119750
     18.37161      4.08868      6.78875        -0.698033      0.032744      0.609948
      6.32131      2.58239      1.35775        -0.122166     -0.511696     -0.177381
      4.06187      1.07610      4.07325         0.055026     -0.042958     -0.099750
      1.80244     19.15156      6.78875        -0.082289     -0.015280      0.818751
      1.80244     19.15156      1.35775        -0.006330      0.047225     -0.140647
     19.12476     17.64527      4.07325        -0.058454      0.054520     -0.089282
     16.86532     16.13898      6.78875        -0.888234     -0.003726      0.526242
      4.81502     14.63270      1.35775         0.030712     -0.105769     -0.062514
      2.55558     13.12641      4.07325        -0.040755      0.014610     -0.121218
      0.29615     11.62012      6.78875        -0.542243     -0.058461      0.272530
      7.82759     10.11383      1.35775        -0.124854     -0.420197     -0.268784
      5.56816      8.60754      4.07325         0.091715     -0.099715     -0.070270
      3.30873      7.10125      6.78875         0.313843      0.015491      0.437161
     10.84017      5.59497      1.35775        -0.186472     -0.150697     -0.455252
      8.58074      4.08868      4.07325         0.097989     -0.084234     -0.056114
      6.32130      2.58239      6.78875         0.902116      0.065823      0.644546
[...]
      0.27935     10.97080     10.51105        -0.103707     -0.062029      0.278426
     16.59748     10.97080     13.75565         0.092954     -0.115013     -0.070856
     13.33385     10.97080     17.00025         0.512874     -0.176617      1.683937
      0.27935      4.44355     10.51105         0.097095      0.157872     -0.097553
     16.59748      4.44355     13.75565        -0.022587      0.013107      0.014672
     13.33385      4.44355     17.00025         0.390302     -0.762317     -1.900415
      6.80660     17.49805     10.51105        -0.126122      0.195457     -0.036777
      3.54298     17.49805     13.75565        -0.052676     -0.003702      0.017789
      0.27935     17.49805     17.00025        -0.670563      0.242079      1.721144
      6.80660     10.97080     10.51105         0.129715     -0.234621      0.022545
      3.54298     10.97080     13.75565        -0.075506      0.035789     -0.085215
      0.27935     10.97080     17.00025         0.119359     -0.137388      1.180078
      6.80660      4.44355     10.51105        -0.008247      0.075943      0.208165
      3.54298      4.44355     13.75565         0.132823     -0.088454     -0.099780
      0.27935      4.44355     17.00025        -0.361583      1.140927     -2.954482
    total drift:                                0.086554      0.191138      0.013023

  FREE ENERGIE OF THE ION-ELECTRON SYSTEM (eV)
  free  energy   TOTEN  =     -1172.48267739 eV

  energy  without entropy=    -1172.47490333  energy(sigma->0) =    -1172.47879036