 vasp.6.4.3 19Mar24 (build Oct 22 2024 11:23:12) complex

 executed on             LinuxIFC date 2025.06.04  01:43:13

 INCAR:
   SYSTEM = Si and Ge interface calculation
   ISTART = 0
   ICHARG = 2
   LWAVE = .FALSE.
   LREAL = AUTO
   ENCUT = 700
   ENAUG = 900
   ADDGRID = .TRUE.
   LMAXMIX = 6
   LASPH = .TRUE.
   LMIXTAU = .TRUE.
   NCORE = 16
   NELM = 100
   NBANDS = 173
   EDIFF = 1d-7
   AMIX = 0.6
   ISMEAR = 0
   SIGMA = 0.01
   NELECT = 288
   ISPIN = 2
   NUPDOWN = 1
   LVTOT = .FALSE.
   LVHAR = .TRUE.

 POTCAR:    PAW_PBE C 08Apr2002
 POTCAR:    PAW_PBE Si 05Jan2001
|           W    W    AA    RRRRR   N    N  II  N    N   GGGG   !!!           |
|           W    W   A  A   R    R  NN   N  II  NN   N  G    G  !!!           |
|           W    W  A    A  R    R  N N  N  II  N N  N  G       !!!           |
|           W WW W  AAAAAA  RRRRR   N  N N  II  N  N N  G  GGG   !            |
|           WW  WW  A    A  R   R   N   NN  II  N   NN  G    G                |
|           W    W  A    A  R    R  N    N  II  N    N   GGGG   !!!           |
|     You use a magnetic or noncollinear calculation, but did not specify     |
|     the initial magnetic moment with the MAGMOM tag. Note that a            |
|     default of 0.014 will be used for all atoms. This ferromagnetic         |
|     setup may break the symmetry of the crystal, in particular it may       |
|     rule out finding an antiferromagnetic solution. Thence, we              |
|     recommend setting the initial magnetic moment manually or verifying     |
|     carefully that this magnetic setup is desired.                          |

 POTCAR:    PAW_PBE C 08Apr2002
   VRHFIN =C: s2p2

   TITEL  = PAW_PBE C 08Apr2002
   POMASS =   12.011; ZVAL   =    4.000    mass and valenz
   ENMAX  =  400.000; ENMIN  =  300.000 eV

 POTCAR:    PAW_PBE Si 05Jan2001
   VRHFIN =Si: s2p2

   TITEL  = PAW_PBE Si 05Jan2001
   POMASS =   28.085; ZVAL   =    4.000    mass and valenz
   ENMAX  =  245.345; ENMIN  =  184.009 eV

 Optimization of the real space projectors (new method)

 maximal supplied QI-value         = 25.13
 optimisation between [QCUT,QGAM] = [ 13.32, 26.89] = [ 49.69,202.52] Ry
 Optimized for a Real-space Cutoff    1.01 Angstroem

   l    n(q)    QCUT    max X(q) W(low)/X(q) W(high)/X(q)  e(spline)
   0      8    13.321   115.676    0.29E-03    0.42E-03    0.11E-06
   0      8    13.321    87.132    0.29E-03    0.42E-03    0.11E-06
   1      8    13.321     4.429    0.39E-03    0.33E-03    0.98E-07
   1      8    13.321     2.733    0.30E-03    0.26E-03    0.97E-07
 Optimization of the real space projectors (new method)

 maximal supplied QI-value         = 19.84
 optimisation between [QCUT,QGAM] = [ 13.49, 26.99] = [ 50.98,203.92] Ry
 Optimized for a Real-space Cutoff    1.07 Angstroem

   l    n(q)    QCUT    max X(q) W(low)/X(q) W(high)/X(q)  e(spline)
   0      9    13.493   159.560    0.22E-03    0.15E-03    0.72E-07
   0      9    13.493   115.863    0.21E-03    0.15E-03    0.71E-07
   1      8    13.493    88.339    0.15E-03    0.11E-03    0.13E-06
   1      8    13.493    48.592    0.15E-03    0.10E-03    0.13E-06
  PAW_PBE C 08Apr2002                   :
  PAW_PBE Si 05Jan2001                  :

 POSCAR: C+Si
  positions in direct lattice

 exchange-correlation table for PE
   RHO(1)=    0.500       N(1)  =     2000
   RHO(2)=  100.500       N(2)  =     4000

 ion  position               nearest neighbor table
   1  0.037  0.000  0.000-  54 0.16  13 1.54  46 1.54  57 2.18  69 2.23
   2  0.537  0.000  0.155-  22 1.54  14 1.54  37 1.54  47 1.54  60 1.79
   3  0.037  0.000  0.310-  49 0.91  15 1.54  23 1.54  48 1.54  38 1.54
   4  0.787  0.250  0.000-  51 1.30  16 1.54  37 1.54  72 1.76  60 1.82
   5  0.287  0.250  0.155-  17 1.54  13 1.54  40 1.54  38 1.54  66 2.51  54 2.55
   6  0.787  0.250  0.310-  39 1.54  14 1.54  41 1.54  18 1.54  67 1.98  55 2.02  64 2.15
   7  0.537  0.500  0.000-  66 0.16  40 1.54  19 1.54  69 2.18  57 2.23
   8  0.037  0.500  0.155-  43 1.54  20 1.54  41 1.54  16 1.54  72 1.79
   9  0.537  0.500  0.310-  61 0.91  17 1.54  21 1.54  42 1.54  44 1.54
  10  0.287  0.750  0.000-  63 1.30  22 1.54  43 1.54  60 1.76  72 1.82
  11  0.787  0.750  0.155-  46 1.54  23 1.54  44 1.54  19 1.54  54 2.51  66 2.55
  12  0.287  0.750  0.310-  45 1.54  24 1.54  20 1.54  47 1.54  55 1.98  67 2.02  52 2.15
  13  0.349  0.187  0.077-   5 1.54  28 1.54   1 1.54  26 1.54  54 1.66  57 1.89
  14  0.849  0.187  0.232-   2 1.54   6 1.54  29 1.54  27 1.54  55 2.26
  15  0.349  0.187  0.387-  49 1.39   3 1.54  30 1.54  64 1.79  70 2.52
  16  0.099  0.437  0.077-  29 1.54   4 1.54  31 1.54   8 1.54  72 1.63  51 1.92
  17  0.599  0.437  0.232-   9 1.54   5 1.54  32 1.54  30 1.54  61 2.24
  18  0.099  0.437  0.387-  67 1.36   6 1.54  33 1.54  58 1.77  64 2.54
  19  0.849  0.687  0.077-   7 1.54  34 1.54  32 1.54  11 1.54  66 1.66  69 1.89
  20  0.349  0.687  0.232-  35 1.54   8 1.54  12 1.54  33 1.54  67 2.26
  21  0.849  0.687  0.387-  61 1.39   9 1.54  36 1.54  52 1.79  58 2.52
  22  0.599  0.938  0.077-   2 1.54  10 1.54  25 1.54  35 1.54  60 1.63  63 1.92
  23  0.099  0.937  0.232-  11 1.54   3 1.54  26 1.54  36 1.54  49 2.24
  24  0.599  0.937  0.387-  55 1.36  27 1.54  12 1.54  70 1.77  52 2.54
  25  0.912  0.125  0.000-  40 1.54  22 1.54  60 1.94  51 2.07  63 2.11  66 2.39  54 2.43
  26  0.412  0.125  0.155-  41 1.54  37 1.54  13 1.54  23 1.54
  27  0.912  0.125  0.310-  38 1.54  24 1.54  14 1.54  42 1.54  70 1.73  55 2.14  61 2.55  49 2.59

  28  0.662  0.375  0.000-  57 1.09  13 1.54  43 1.54  72 1.63
  29  0.162  0.375  0.155-  16 1.54  44 1.54  14 1.54  40 1.54  66 2.41
  30  0.662  0.375  0.310-  45 1.54  41 1.54  15 1.54  17 1.54  67 1.85  52 2.47  64 2.50
  31  0.412  0.625  0.000-  46 1.54  16 1.54  72 1.94  63 2.07  51 2.11  54 2.39  66 2.43
  32  0.912  0.625  0.155-  47 1.54  43 1.54  19 1.54  17 1.54
  33  0.412  0.625  0.310-  44 1.54  48 1.54  18 1.54  20 1.54  58 1.73  67 2.14  49 2.55  61 2.59

  34  0.162  0.875  0.000-  69 1.09  19 1.54  37 1.54  60 1.63
  35  0.662  0.875  0.155-  20 1.54  46 1.54  38 1.54  22 1.54  54 2.41
  36  0.162  0.875  0.310-  47 1.54  21 1.54  39 1.54  23 1.54  55 1.85  64 2.47  52 2.50
  37  0.474  0.062  0.077-  60 1.48  26 1.54   2 1.54   4 1.54  34 1.54  69 2.52
  38  0.974  0.062  0.232-  27 1.54   5 1.54  35 1.54   3 1.54  49 2.14
  39  0.474  0.062  0.387-  55 1.18  64 1.25   6 1.54  36 1.54
  40  0.224  0.312  0.077-  66 1.44   7 1.54   5 1.54  25 1.54  29 1.54  51 2.50
  41  0.724  0.312  0.232-  26 1.54   6 1.54  30 1.54   8 1.54  67 2.11
  42  0.224  0.312  0.387-  61 1.13  70 1.29   9 1.54  27 1.54
  43  0.974  0.562  0.077-  72 1.48   8 1.54  28 1.54  32 1.54  10 1.54  57 2.52
  44  0.474  0.562  0.232-  33 1.54  29 1.54  11 1.54   9 1.54  61 2.14
  45  0.974  0.562  0.387-  67 1.18  52 1.25  12 1.54  30 1.54
  46  0.724  0.812  0.077-  54 1.44  11 1.54  31 1.54  35 1.54   1 1.54  63 2.50
  47  0.224  0.812  0.232-  36 1.54  32 1.54  12 1.54   2 1.54  55 2.11
  48  0.724  0.812  0.387-  49 1.13  58 1.29  33 1.54   3 1.54
  49  0.000  0.985  0.387-   3 0.91  48 1.13  15 1.39  38 2.14  23 2.24  58 2.28  70 2.28  64 2.50
                            33 2.55  27 2.59
  50  0.000  0.652  0.660-  59 2.28  71 2.28  52 2.35  65 2.50
  51  0.000  0.319  0.932-   4 1.30  16 1.92  25 2.07  31 2.11  60 2.28  72 2.28  53 2.35  40 2.50
                            66 2.50
  52  0.000  0.652  0.455-  45 1.25  21 1.79  12 2.15  67 2.28  55 2.28  50 2.35  30 2.47  61 2.50
                            36 2.50  24 2.54
  53  0.000  0.319  0.728-  68 2.28  56 2.28  51 2.35  62 2.50
  54  0.000  0.985  0.000-   1 0.16  46 1.44  13 1.66  69 2.28  57 2.28  31 2.39  35 2.41  25 2.43
                            63 2.50  11 2.51   5 2.55
  55  0.500  0.985  0.387-  39 1.18  24 1.36  36 1.85  12 1.98   6 2.02  47 2.11  27 2.14  14 2.26
                            64 2.28  52 2.28  70 2.50
  56  0.500  0.652  0.660-  65 2.28  53 2.28  58 2.35  71 2.50
  57  0.500  0.319  0.932-  28 1.09  13 1.89   1 2.18   7 2.23  66 2.28  54 2.28  59 2.35  72 2.50
                            43 2.52
  58  0.500  0.652  0.455-  48 1.29  33 1.73  18 1.77  49 2.28  61 2.28  56 2.35  67 2.50  21 2.52

  59  0.500  0.319  0.728-  62 2.28  50 2.28  57 2.35  68 2.50
  60  0.500  0.985  1.000-  37 1.48  34 1.63  22 1.63  10 1.76   2 1.79   4 1.82  25 1.94  51 2.28
                            63 2.28  69 2.50
  61  0.500  0.485  0.387-   9 0.91  42 1.13  21 1.39  44 2.14  17 2.24  70 2.28  58 2.28  52 2.50
                            27 2.55  33 2.59
  62  0.500  0.152  0.660-  59 2.28  71 2.28  64 2.35  53 2.50
  63  0.500  0.819  0.932-  10 1.30  22 1.92  31 2.07  25 2.11  72 2.28  60 2.28  65 2.35  46 2.50
                            54 2.50
  64  0.500  0.152  0.455-  39 1.25  15 1.79   6 2.15  67 2.28  55 2.28  62 2.35  36 2.47  49 2.50
                            30 2.50  18 2.54
  65  0.500  0.819  0.728-  56 2.28  68 2.28  63 2.35  50 2.50
  66  0.500  0.485  1.000-   7 0.16  40 1.44  19 1.66  69 2.28  57 2.28  25 2.39  29 2.41  31 2.43
                            51 2.50   5 2.51  11 2.55
  67  0.000  0.485  0.387-  45 1.18  18 1.36  30 1.85   6 1.98  12 2.02  41 2.11  33 2.14  20 2.26
                            52 2.28  64 2.28  58 2.50
  68  0.000  0.152  0.660-  53 2.28  65 2.28  70 2.35  59 2.50
  69  0.000  0.819  0.932-  34 1.09  19 1.89   7 2.18   1 2.23  54 2.28  66 2.28  71 2.35  60 2.50
                            37 2.52
  70  0.000  0.152  0.455-  42 1.29  27 1.73  24 1.77  61 2.28  49 2.28  68 2.35  55 2.50  15 2.52

  71  0.000  0.819  0.728-  62 2.28  50 2.28  69 2.35  56 2.50
  72  0.000  0.485  0.000-  43 1.48  28 1.63  16 1.63   4 1.76   8 1.79  10 1.82  31 1.94  63 2.28
                            51 2.28  57 2.50

  LATTYP: Found a base centered orthorhombic cell.
 ALAT       =     7.1336007583
 B/A-ratio  =     1.9999998207
 C/A-ratio  =     1.6139929421

  Lattice vectors:

 A1 = (   4.7853641510,   6.3804864880,   0.0000000000)
 A2 = (  -7.9756073950,   0.0000000000,   0.0000000000)
 A3 = (   0.0000000000,   0.0000000000,  11.5135812760)

Analysis of symmetry for initial positions (statically):
 Subroutine PRICEL returns following result:

  LATTYP: Found a simple orthorhombic cell.
 ALAT       =     3.5668017132
 B/A-ratio  =     1.9999982567
 C/A-ratio  =     3.2279846770

[...]

   2 primitive cells build up your supercell.

 Routine SETGRP: Setting up the symmetry group for a
 base centered orthorhombic supercell.

 Subroutine GETGRP returns: Found  1 space group operations
 (whereof  1 operations were pure point group operations)
 out of a pool of  8 trial point group operations.

The static configuration has the point symmetry C_1 .

Analysis of symmetry for dynamics (positions and initial velocities):
 Subroutine PRICEL returns following result:

[...]

The dynamic configuration has the point symmetry C_1 .

Analysis of structural, dynamic, and magnetic symmetry:
 Subroutine PRICEL returns following result:

  LATTYP: Found a simple orthorhombic cell.
 ALAT       =     3.5668017132
 B/A-ratio  =     1.9999982567
 C/A-ratio  =     3.2279846770

  Lattice vectors:

[...]
  Fock        0.00000     0.00000     0.00000     0.00000     0.00000     0.00000
  Total    2458.83787  1539.24695   781.01855  1372.59416   -42.17231   -79.26438
  in kB    6723.76436  4209.11598  2135.71815  3753.39904  -115.32141  -216.75078

 VOLUME and BASIS-vectors are now :
  energy-cutoff  :      700.00
  volume of cell :      585.91
      direct lattice vectors                 reciprocal lattice vectors
     7.975607395  0.000000000  0.000000000     0.125382300  0.219419011  0.000000000
   -11.165850639  6.380486488  0.000000000     0.000000000  0.156727861  0.000000000
     0.000000000  0.000000000 11.513581276     0.000000000  0.000000000  0.086853949

  length of vectors
     7.975607395 12.860281036 11.513581276     0.252716093  0.156727861  0.086853949

 FORCES acting on ions
    electron-ion (+dipol)            ewald-force                    non-local-force                 convergence-correction
   0.426E+02 0.256E+02 0.458E+03   0.722E+04 0.528E+04 -.469E+03   -.139E+02 -.162E+01 0.154E+01   -.173E-03 0.200E-04 0.246E-03
   -.157E+01 -.246E+01 0.570E+02   0.327E+01 0.243E+01 -.493E+02   -.131E+01 -.301E+00 -.159E+01   0.104E-03 0.713E-04 0.849E-03
   -.113E+02 -.111E+02 -.190E+03   0.396E+02 0.282E+02 0.106E+02   0.147E+01 0.434E+01 -.647E+01   0.774E-04 0.496E-03 -.541E-03
   0.487E+02 0.280E+02 0.420E+03   -.733E+02 -.390E+02 -.415E+03   -.231E+01 0.822E-01 0.166E+02   0.220E-04 0.107E-03 0.298E-03
   -.279E+00 0.129E+01 0.717E+02   -.607E+00 -.917E+00 -.715E+02   0.151E+01 0.135E+00 0.154E+01   -.135E-03 0.203E-03 0.785E-03
   -.144E+02 -.539E+01 -.236E+03   0.178E+02 0.659E+01 0.232E+03   -.519E+00 -.887E+00 0.205E+01   0.294E-03 0.704E-04 0.466E-03
   0.426E+02 0.256E+02 0.458E+03   0.722E+04 0.528E+04 -.469E+03   -.139E+02 -.162E+01 0.154E+01   -.648E-04 -.198E-03 0.410E-03
   -.157E+01 -.246E+01 0.570E+02   0.327E+01 0.243E+01 -.493E+02   -.131E+01 -.301E+00 -.159E+01   0.551E-05 0.409E-04 0.739E-03
   -.113E+02 -.111E+02 -.190E+03   0.396E+02 0.282E+02 0.106E+02   0.147E+01 0.434E+01 -.647E+01   0.504E-05 -.193E-03 0.552E-03
   0.487E+02 0.280E+02 0.420E+03   -.733E+02 -.390E+02 -.415E+03   -.231E+01 0.822E-01 0.166E+02   0.173E-03 -.246E-04 0.287E-03
   -.279E+00 0.129E+01 0.717E+02   -.606E+00 -.917E+00 -.715E+02   0.151E+01 0.135E+00 0.154E+01   0.298E-04 -.232E-03 0.785E-03
   -.144E+02 -.539E+01 -.236E+03   0.178E+02 0.659E+01 0.232E+03   -.519E+00 -.887E+00 0.205E+01   -.392E-04 0.257E-04 0.417E-03
   -.221E+02 -.234E+02 0.218E+03   0.231E+02 0.247E+02 -.209E+03   0.179E+00 0.270E+01 -.102E+01   0.728E-04 0.298E-03 0.693E-03
   -.332E+01 -.939E+01 -.748E+02   0.430E+01 0.113E+02 0.742E+02   -.101E+01 -.128E+01 -.645E+00   0.971E-04 0.246E-04 0.870E-03
   -.331E+01 -.630E+02 -.450E+03   0.349E+01 0.832E+02 0.462E+03   0.782E+01 0.354E+00 -.142E+02   0.145E-03 0.823E-03 0.271E-03
   -.280E+02 -.329E+01 0.217E+03   0.367E+02 0.413E+01 -.209E+03   -.229E+01 -.833E+00 0.131E+01   -.110E-03 0.232E-04 0.643E-03
   -.118E+02 0.249E+01 -.748E+02   0.120E+02 -.317E+01 0.735E+02   -.406E+00 0.137E+01 -.266E+00   -.205E-03 0.191E-03 0.845E-03
   -.513E+02 0.390E+02 -.450E+03   0.739E+02 -.478E+02 0.461E+03   0.154E+01 0.247E+01 -.135E+02   0.152E-03 -.168E-03 0.294E-04
   -.221E+02 -.234E+02 0.218E+03   0.231E+02 0.247E+02 -.209E+03   0.179E+00 0.270E+01 -.102E+01   0.101E-03 -.997E-05 0.880E-03
   -.332E+01 -.939E+01 -.748E+02   0.430E+01 0.113E+02 0.742E+02   -.101E+01 -.128E+01 -.645E+00   -.189E-03 -.174E-03 0.607E-03
   -.331E+01 -.630E+02 -.450E+03   0.349E+01 0.832E+02 0.462E+03   0.782E+01 0.354E+00 -.142E+02   0.162E-03 -.521E-03 -.751E-04
   -.280E+02 -.329E+01 0.217E+03   0.367E+02 0.413E+01 -.209E+03   -.229E+01 -.833E+00 0.131E+01   -.182E-04 -.348E-04 0.619E-03
   -.118E+02 0.249E+01 -.748E+02   0.120E+02 -.317E+01 0.735E+02   -.406E+00 0.137E+01 -.266E+00   0.448E-03 -.109E-03 0.260E-03
   -.513E+02 0.390E+02 -.450E+03   0.739E+02 -.478E+02 0.461E+03   0.154E+01 0.247E+01 -.135E+02   -.327E-03 0.320E-03 0.102E-03
   -.253E+02 -.993E+01 0.452E+03   0.298E+02 0.127E+02 -.464E+03   -.353E+01 -.262E+01 0.118E+02   -.533E-04 -.111E-03 0.271E-03
   -.496E+01 -.249E+01 0.800E+02   0.351E+01 0.160E+01 -.794E+02   0.788E+00 0.297E+00 -.352E+00   0.182E-03 0.157E-03 0.664E-03
   0.584E+01 0.191E+01 -.220E+03   -.456E+01 -.158E+01 0.212E+03   -.539E+00 -.600E+00 0.102E+01   -.464E-03 0.320E-03 0.570E-03
   -.195E+02 -.965E+01 0.405E+03   0.626E+02 0.367E+02 -.358E+03   0.813E+01 0.192E+01 0.214E+02   0.129E-03 0.772E-04 0.323E-03
   0.619E+01 0.136E+01 0.728E+02   -.529E+01 -.246E+01 -.720E+02   -.946E+00 0.993E+00 0.129E+01   -.369E-04 -.629E-04 0.965E-03
   0.223E+02 0.101E+02 -.242E+03   -.290E+02 -.148E+02 0.239E+03   0.339E+01 0.224E+01 0.151E+01   -.683E-05 0.421E-03 0.262E-03
   -.253E+02 -.993E+01 0.452E+03   0.298E+02 0.127E+02 -.464E+03   -.353E+01 -.262E+01 0.118E+02   -.264E-03 -.467E-04 0.273E-03
   -.496E+01 -.249E+01 0.800E+02   0.351E+01 0.160E+01 -.794E+02   0.788E+00 0.297E+00 -.352E+00   0.105E-03 -.119E-03 0.921E-03
   0.584E+01 0.191E+01 -.220E+03   -.456E+01 -.158E+01 0.212E+03   -.539E+00 -.600E+00 0.102E+01   -.167E-03 -.698E-03 0.199E-03
   -.195E+02 -.965E+01 0.405E+03   0.626E+02 0.367E+02 -.358E+03   0.813E+01 0.192E+01 0.214E+02   0.156E-03 0.125E-03 0.347E-03
   0.619E+01 0.136E+01 0.728E+02   -.529E+01 -.246E+01 -.720E+02   -.946E+00 0.993E+00 0.129E+01   -.265E-03 -.869E-04 0.627E-03
   0.223E+02 0.101E+02 -.242E+03   -.290E+02 -.148E+02 0.239E+03   0.339E+01 0.224E+01 0.151E+01   0.380E-03 -.935E-04 0.346E-03
   0.437E+02 -.186E+02 0.224E+03   -.559E+02 0.252E+02 -.216E+03   0.234E+00 -.172E+01 0.364E+01   0.146E-03 0.125E-03 0.668E-03
   0.948E+01 -.232E+01 -.684E+02   -.121E+02 0.352E+01 0.656E+02   0.222E+01 -.918E+00 0.140E+01   -.600E-03 0.278E-03 0.302E-03
   0.212E+02 0.319E+01 -.419E+03   -.501E+02 0.252E+01 0.405E+03   0.156E+00 0.110E+01 -.166E+02   0.445E-03 0.125E-03 0.386E-04
   0.130E+02 0.525E+02 0.218E+03   -.152E+02 -.627E+02 -.212E+03   -.385E+01 -.975E+01 0.101E+02   -.749E-04 -.111E-03 0.782E-03
   0.482E+01 0.110E+02 -.672E+02   -.487E+01 -.121E+02 0.651E+02   0.371E+00 0.107E+01 0.486E+00   0.162E-03 0.209E-03 0.638E-03
   0.183E+02 0.261E+02 -.422E+03   -.369E+02 -.595E+02 0.413E+03   -.160E+01 -.128E+02 -.134E+02   -.518E-03 0.229E-03 0.156E-03
   0.437E+02 -.186E+02 0.224E+03   -.559E+02 0.252E+02 -.216E+03   0.234E+00 -.172E+01 0.364E+01   0.146E-03 0.124E-04 0.670E-03
   0.948E+01 -.232E+01 -.684E+02   -.121E+02 0.352E+01 0.656E+02   0.222E+01 -.918E+00 0.140E+01   0.140E-03 -.373E-03 0.830E-03
   0.212E+02 0.319E+01 -.419E+03   -.501E+02 0.252E+01 0.405E+03   0.156E+00 0.110E+01 -.166E+02   0.342E-04 0.105E-03 -.716E-04
   0.130E+02 0.525E+02 0.218E+03   -.152E+02 -.627E+02 -.212E+03   -.385E+01 -.975E+01 0.101E+02   -.259E-03 -.250E-03 0.648E-03
   0.482E+01 0.110E+02 -.672E+02   -.487E+01 -.121E+02 0.651E+02   0.371E+00 0.107E+01 0.486E+00   0.148E-03 -.932E-05 0.727E-03
   0.183E+02 0.261E+02 -.422E+03   -.369E+02 -.595E+02 0.413E+03   -.160E+01 -.128E+02 -.134E+02   -.484E-03 -.993E-03 0.424E-03
   0.614E+01 -.506E+02 -.604E+03   -.185E+02 0.435E+02 0.659E+03   -.558E+01 0.411E+02 0.134E+03   -.143E-03 0.256E-03 0.341E-03
   -.102E+02 -.595E+01 -.827E+02   0.804E+01 0.423E+01 0.824E+02   0.300E+01 0.183E+01 0.178E+00   0.436E-04 -.138E-04 -.580E-03
   -.758E+02 -.286E+02 0.543E+03   0.706E+02 0.242E+02 -.543E+03   0.344E+02 0.152E+02 -.307E+02   -.802E-04 -.609E-05 -.800E-05
   0.579E+02 -.347E+02 -.551E+03   -.556E+02 0.355E+02 0.546E+03   -.323E+02 0.189E+02 0.404E+02   0.314E-04 -.269E-05 -.324E-03
   0.106E+02 0.484E+01 0.827E+02   -.792E+01 -.403E+01 -.823E+02   -.342E+01 -.142E+01 -.146E+00   0.726E-04 0.694E-05 -.575E-03
   0.164E+03 0.919E+02 0.467E+03   -.724E+04 -.527E+04 -.473E+03   -.176E+03 -.115E+03 -.743E+01   -.164E-03 0.577E-05 0.245E-03
   -.462E+02 0.190E+02 -.440E+03   0.512E+02 -.216E+02 0.449E+03   0.271E+02 -.186E+02 -.158E+01   0.253E-03 0.187E-03 0.602E-04
   -.110E+02 -.483E+01 -.826E+02   0.830E+01 0.394E+01 0.824E+02   0.354E+01 0.144E+01 0.208E+00   -.161E-04 -.691E-04 -.559E-03
   0.821E+02 0.391E+02 0.590E+03   -.831E+02 -.341E+02 -.594E+03   -.560E+02 -.354E+02 -.699E+02   0.851E-04 0.491E-04 -.129E-04
   -.793E+01 0.565E+02 -.561E+03   0.105E+02 -.531E+02 0.560E+03   -.281E+00 -.309E+02 0.334E+02   -.825E-04 -.615E-03 0.440E-05
   0.108E+02 0.597E+01 0.823E+02   -.843E+01 -.415E+01 -.825E+02   -.324E+01 -.227E+01 0.415E+00   -.860E-04 -.370E-04 -.561E-03
   -.175E+02 0.444E+01 0.485E+03   0.154E+02 -.653E+01 -.492E+03   0.112E+02 0.309E+00 -.143E+02   0.120E-03 0.355E-04 0.324E-03
   0.614E+01 -.506E+02 -.604E+03   -.185E+02 0.435E+02 0.659E+03   -.558E+01 0.411E+02 0.134E+03   -.809E-04 -.187E-03 -.390E-04
   -.102E+02 -.595E+01 -.827E+02   0.804E+01 0.423E+01 0.824E+02   0.300E+01 0.183E+01 0.178E+00   0.539E-04 0.526E-04 -.528E-03
   -.758E+02 -.286E+02 0.543E+03   0.706E+02 0.242E+02 -.543E+03   0.344E+02 0.152E+02 -.307E+02   -.181E-04 -.421E-04 -.732E-05
   0.579E+02 -.347E+02 -.551E+03   -.556E+02 0.355E+02 0.546E+03   -.323E+02 0.189E+02 0.404E+02   0.351E-03 0.141E-03 -.184E-03
   0.106E+02 0.484E+01 0.827E+02   -.792E+01 -.403E+01 -.823E+02   -.342E+01 -.142E+01 -.146E+00   0.379E-04 0.573E-04 -.499E-03
   0.164E+03 0.919E+02 0.467E+03   -.724E+04 -.527E+04 -.473E+03   -.176E+03 -.115E+03 -.743E+01   -.496E-04 -.137E-03 0.370E-03
   -.462E+02 0.190E+02 -.440E+03   0.512E+02 -.216E+02 0.449E+03   0.271E+02 -.186E+02 -.158E+01   0.108E-03 0.665E-04 -.595E-05
   -.110E+02 -.483E+01 -.826E+02   0.830E+01 0.394E+01 0.824E+02   0.354E+01 0.144E+01 0.208E+00   -.221E-04 0.364E-04 -.668E-03
   0.821E+02 0.391E+02 0.590E+03   -.831E+02 -.341E+02 -.594E+03   -.560E+02 -.354E+02 -.699E+02   0.767E-04 0.594E-04 -.272E-04
   -.793E+01 0.565E+02 -.561E+03   0.105E+02 -.531E+02 0.560E+03   -.281E+00 -.309E+02 0.334E+02   -.510E-03 0.248E-03 -.114E-03
   0.108E+02 0.597E+01 0.823E+02   -.843E+01 -.415E+01 -.825E+02   -.324E+01 -.227E+01 0.415E+00   -.381E-04 -.394E-04 -.599E-03
   -.175E+02 0.444E+01 0.485E+03   0.154E+02 -.653E+01 -.492E+03   0.112E+02 0.309E+00 -.143E+02   0.383E-04 0.556E-04 0.316E-03
   0.404E+03 0.278E+03 -.185E+03   0.922E-12 0.587E-11 0.512E-12   -.404E+03 -.278E+03 0.185E+03   -.407E-03 0.387E-03 0.190E-01

 POSITION                                       TOTAL-FORCE (eV/Angst)
      0.29497      0.00000      0.00000      7252.152629   5305.675213     -8.948770
      4.28278      0.00000      1.78340         0.381595     -0.331279      6.052549
      0.29497      0.00000      3.56680        29.775632     21.385998   -186.277517
      3.48522      1.59512      0.00000       -26.887006    -10.920828     22.082743
     -0.50259      1.59512      1.78340         0.626905      0.507246      1.730796
      3.48522      1.59512      3.56680         2.896968      0.316380     -2.405980
     -1.30015      3.19024      0.00000      7252.152629   5305.675213     -8.948770
     -5.28795      3.19024      1.78340         0.381595     -0.331279      6.052549
     -1.30015      3.19024      3.56680        29.775632     21.385998   -186.277517
     -6.08551      4.78536      0.00000       -26.887006    -10.920828     22.082743
     -2.09771      4.78536      1.78340         0.626905      0.507246      1.730796
     -6.08551      4.78536      3.56680         2.896968      0.316380     -2.405980
      0.69375      1.19634      0.89170         1.238103      4.071938      8.008035
      4.68156      1.19634      2.67510        -0.029617      0.598404     -1.235392
      0.69376      1.19634      4.45850         7.990595     20.517066     -3.007977
     -4.09161      2.79146      0.89170         6.418770      0.005767      8.964720
     -0.10381      2.79146      2.67510        -0.142744      0.697008     -1.566409
     -4.09161      2.79146      4.45850        24.070458     -6.310624     -2.829106
     -0.90137      4.38658      0.89170         1.238103      4.071938      8.008035
     -4.88917      4.38658      2.67510        -0.029617      0.598404     -1.235392
     -0.90137      4.38658      4.45850         7.990595     20.517066     -3.007977
     -5.68673      5.98171      0.89170         6.418770      0.005767      8.964720
     -9.67454      5.98171      2.67510        -0.142744      0.697008     -1.566409
     -5.68673      5.98171      4.45850        24.070458     -6.310624     -2.829106
      5.87790      0.79756      0.00000         0.977488      0.130615     -0.235675
      1.89010      0.79756      1.78340        -0.664526     -0.587037      0.165286
      5.87790      0.79756      3.56680         0.734714     -0.275940     -7.134060
      1.09253      2.39268      0.00000        51.168146     28.964165     68.928974
     -2.89527      2.39268      1.78340        -0.051139     -0.102726      2.151696
      1.09253      2.39268      3.56680        -3.305165     -2.482096     -1.176845
     -3.69283      3.98780      0.00000         0.977488      0.130615     -0.235675
      0.29497      3.98780      1.78340        -0.664526     -0.587037      0.165286
     -3.69283      3.98780      3.56680         0.734714     -0.275940     -7.134060
     -8.47819      5.58293      0.00000        51.168146     28.964165     68.928974
     -4.49039      5.58292      1.78340        -0.051139     -0.102726      2.151696
     -8.47819      5.58292      3.56680        -3.305165     -2.482096     -1.176845
      3.08644      0.39878      0.89170       -11.961231      4.920256     11.489514
      7.07424      0.39878      2.67510        -0.358249      0.275822     -1.410590
      3.08644      0.39878      4.45850       -28.697467      6.807458    -30.608577
     -1.69893      1.99390      0.89170        -5.983811    -19.905068     16.169543
      2.28888      1.99390      2.67510         0.316189     -0.011782     -1.666292
     -1.69893      1.99390      4.45850       -20.129334    -46.165035    -22.661318
      1.49132      3.58902      0.89170       -11.961231      4.920256     11.489514
     -2.49649      3.58902      2.67510        -0.358249      0.275822     -1.410590
      1.49132      3.58902      4.45850       -28.697467      6.807458    -30.608577
     -3.29405      5.18414      0.89170        -5.983811    -19.905068     16.169543
     -7.28185      5.18414      2.67510         0.316189     -0.011782     -1.666292
     -3.29405      5.18414      4.45850       -20.129334    -46.165035    -22.661318
    -11.00029      6.28588      4.45850       -17.987797     34.024284    188.853467
     -7.27834      4.15905      7.59409         0.787992      0.108577     -0.097025
     -3.55639      2.03222     10.72968        29.204365     10.764354    -30.447247
     -7.27834      4.15905      5.24240       -30.040488     19.740238     35.078300
     -3.55639      2.03222      8.37799        -0.762642     -0.603044      0.220500
    -11.00029      6.28588      0.00000     -7248.210400  -5291.108568    -13.236439
     -7.01249      6.28588      4.45850        32.053812    -21.183433      7.752904
     -3.29054      4.15905      7.59409         0.887555      0.552919      0.038209
      0.43141      2.03222     10.72968       -57.068681    -30.379204    -74.388506
     -3.29054      4.15905      5.24240         2.313434    -27.461244     32.145396
      0.43141      2.03222      8.37799        -0.833190     -0.451977      0.168570
     -7.01249      6.28588     11.51358         9.118135     -1.783824    -20.667476
     -1.42957      3.09564      4.45850       -17.987797     34.024284    188.853467
      2.29239      0.96881      7.59409         0.787992      0.108577     -0.097025
     -5.15151      5.22247     10.72968        29.204365     10.764354    -30.447247
      2.29238      0.96881      5.24240       -30.040488     19.740238     35.078300
     -5.15151      5.22247      8.37799        -0.762642     -0.603044      0.220500
     -1.42956      3.09564     11.51358     -7248.210400  -5291.108568    -13.236439
     -5.41737      3.09564      4.45850        32.053812    -21.183433      7.752904
     -1.69542      0.96881      7.59409         0.887555      0.552919      0.038209
     -9.13932      5.22247     10.72968       -57.068681    -30.379204    -74.388506
     -1.69542      0.96881      5.24240         2.313434    -27.461244     32.145396
     -9.13932      5.22247      8.37799        -0.833190     -0.451977      0.168570
     -5.41737      3.09564      0.00000         9.118135     -1.783824    -20.667476
    total drift:                                0.128238     -0.067115      0.025053

  FREE ENERGIE OF THE ION-ELECTRON SYSTEM (eV)
  free  energy   TOTEN  =      2078.21110375 eV

  energy  without entropy=     2078.21210537  energy(sigma->0) =     2078.21160456