 vasp.6.4.3 19Mar24 (build Oct 22 2024 11:23:12) complex

 executed on             LinuxIFC date 2025.06.09  13:41:53

 INCAR:
   SYSTEM = Si and Ge interface calculation
   ISTART = 0
   ICHARG = 2
   LWAVE = .FALSE.
   LREAL = AUTO
   ENCUT = 700
   ENAUG = 900
   ADDGRID = .TRUE.
   LMAXMIX = 6
   LASPH = .TRUE.
   LMIXTAU = .TRUE.
   NCORE = 16
   NELM = 100
   NBANDS = 548
   EDIFF = 1d-7
   AMIX = 0.6
   ISMEAR = 0
   SIGMA = 0.01
   NELECT = 912
   ISPIN = 2
   NUPDOWN = 1
   LVTOT = .FALSE.
   LVHAR = .TRUE.

 POTCAR:    PAW_PBE Ge 05Jan2001
 POTCAR:    PAW_PBE Si 05Jan2001
|           W    W    AA    RRRRR   N    N  II  N    N   GGGG   !!!           |
|           W    W   A  A   R    R  NN   N  II  NN   N  G    G  !!!           |
|           W    W  A    A  R    R  N N  N  II  N N  N  G       !!!           |
|           W WW W  AAAAAA  RRRRR   N  N N  II  N  N N  G  GGG   !            |
|           WW  WW  A    A  R   R   N   NN  II  N   NN  G    G                |
|           W    W  A    A  R    R  N    N  II  N    N   GGGG   !!!           |
|     You use a magnetic or noncollinear calculation, but did not specify     |
|     the initial magnetic moment with the MAGMOM tag. Note that a            |
|     default of 4.386e-3 will be used for all atoms. This ferromagnetic      |
|     setup may break the symmetry of the crystal, in particular it may       |
|     rule out finding an antiferromagnetic solution. Thence, we              |
|     recommend setting the initial magnetic moment manually or verifying     |
|     carefully that this magnetic setup is desired.                          |

 POTCAR:    PAW_PBE Ge 05Jan2001
   VRHFIN =Ge: s2p2

   TITEL  = PAW_PBE Ge 05Jan2001
   POMASS =   72.610; ZVAL   =    4.000    mass and valenz
   ENMAX  =  173.807; ENMIN  =  130.355 eV

 POTCAR:    PAW_PBE Si 05Jan2001
   VRHFIN =Si: s2p2

   TITEL  = PAW_PBE Si 05Jan2001
   POMASS =   28.085; ZVAL   =    4.000    mass and valenz
   ENMAX  =  245.345; ENMIN  =  184.009 eV

 Optimization of the real space projectors (new method)

 maximal supplied QI-value         = 16.25
 optimisation between [QCUT,QGAM] = [ 13.49, 26.98] = [ 50.95,203.80] Ry
 Optimized for a Real-space Cutoff    1.25 Angstroem

   l    n(q)    QCUT    max X(q) W(low)/X(q) W(high)/X(q)  e(spline)
   0     10    13.489    65.336    0.91E-04    0.11E-03    0.34E-06
   0     10    13.489    52.220    0.89E-04    0.11E-03    0.34E-06
   1     10    13.489    36.409    0.22E-03    0.27E-03    0.14E-06
   1     10    13.489    21.334    0.21E-03    0.27E-03    0.14E-06
   2      9    13.489     4.673    0.11E-03    0.12E-03    0.19E-06
 Optimization of the real space projectors (new method)

 maximal supplied QI-value         = 19.84
 optimisation between [QCUT,QGAM] = [ 13.49, 26.99] = [ 50.98,203.92] Ry
 Optimized for a Real-space Cutoff    1.07 Angstroem

   l    n(q)    QCUT    max X(q) W(low)/X(q) W(high)/X(q)  e(spline)
   0      9    13.493   159.560    0.22E-03    0.15E-03    0.72E-07
   0      9    13.493   115.863    0.21E-03    0.15E-03    0.71E-07
   1      8    13.493    88.339    0.15E-03    0.11E-03    0.13E-06
   1      8    13.493    48.592    0.15E-03    0.10E-03    0.13E-06
  PAW_PBE Ge 05Jan2001                  :
  PAW_PBE Si 05Jan2001                  :

 POSCAR: Ge+Si
  positions in direct lattice

 exchange-correlation table for PE
   RHO(1)=    0.500       N(1)  =     2000
   RHO(2)=  100.500       N(2)  =     4000

 ion  position               nearest neighbor table
   1  0.994  0.667  0.000- 204 0.99 117 2.21  31 2.45 100 2.45 171 2.82 141 2.93
   2  0.828  0.667  0.204-  32 2.45 100 2.45  49 2.45 101 2.45
   3  0.661  0.667  0.408- 187 1.79  50 2.45  33 2.45 101 2.45 102 2.45 220 2.92
   4  0.994  0.333  0.000- 144 1.84 207 2.33 111 2.36 103 2.45  34 2.45 174 2.76 200 2.92
   5  0.828  0.333  0.204-  35 2.45 103 2.45  52 2.45 104 2.45 228 2.88
   6  0.661  0.333  0.408- 190 1.69  53 2.45 104 2.45  36 2.45 105 2.45
   7  0.994  0.000  0.000- 114 1.42 201 1.71 147 2.15 106 2.45  28 2.45
   8  0.828  0.000  0.204- 106 2.45  29 2.45 107 2.45  46 2.45
   9  0.661  0.000  0.408- 107 2.45 108 2.45  47 2.45  30 2.45 130 2.62 193 2.98
  10  0.328  0.667  0.000- 183 2.13 150 2.34  40 2.45  82 2.45 126 2.56 216 2.68 213 2.74 152 2.74
                           159 3.03
  11  0.161  0.667  0.204-  41 2.45  31 2.45  82 2.45  83 2.45 150 2.98
  12  0.994  0.667  0.408- 112 2.24  32 2.45  42 2.45  84 2.45  83 2.45 196 2.85 199 2.94
  13  0.328  0.333  0.000- 153 0.55 186 2.05  43 2.45  85 2.45 120 2.70
  14  0.161  0.333  0.204-  44 2.45  34 2.45  85 2.45  86 2.45
  15  0.994  0.333  0.408- 136 2.40  35 2.45  45 2.45  87 2.45  86 2.45 169 2.79
  16  0.328  0.000  0.000- 156 1.24 123 1.93  88 2.45  37 2.45 213 3.02
  17  0.161  0.000  0.204-  88 2.45  89 2.45  38 2.45  28 2.45
  18  0.994  0.000  0.408- 109 1.48  90 2.45  89 2.45  29 2.45  39 2.45
  19  0.661  0.667  0.000- 225 0.93 192 1.75  91 2.45  49 2.45 159 2.96
  20  0.494  0.667  0.204-  40 2.45  50 2.45  92 2.45  91 2.45 159 3.00
  21  0.328  0.667  0.408- 178 2.17  41 2.45  51 2.45  93 2.45  92 2.45 121 2.59
  22  0.661  0.333  0.000- 195 1.64 162 1.90 228 2.30  94 2.45  52 2.45 221 2.90
  23  0.494  0.333  0.204-  95 2.45  43 2.45  53 2.45  94 2.45
  24  0.328  0.333  0.408- 181 2.09  44 2.45  96 2.45  54 2.45  95 2.45 115 2.73 148 2.83
  25  0.661  0.000  0.000- 222 1.68 165 2.20  97 2.45  46 2.45 135 2.59 198 2.96
  26  0.494  0.000  0.204-  98 2.45  97 2.45  37 2.45  47 2.45
  27  0.328  0.000  0.408- 118 1.97  99 2.45  98 2.45  38 2.45  48 2.45
  28  0.078  0.917  0.102- 147 1.46  55 2.45  56 2.45  17 2.45   7 2.45
  29  0.911  0.917  0.306-  57 2.45   8 2.45  18 2.45  56 2.45
  30  0.744  0.917  0.510- 130 1.08 163 2.25  57 2.45   9 2.45 193 2.83 217 2.86
  31  0.078  0.583  0.102-  11 2.45   1 2.45  58 2.45  59 2.45 150 2.56
  32  0.911  0.583  0.306-   2 2.45  12 2.45  60 2.45  59 2.45
  33  0.744  0.583  0.510- 133 0.90 220 1.73   3 2.45  60 2.45 187 2.95
  34  0.078  0.250  0.102- 144 2.02  14 2.45  61 2.45  62 2.45   4 2.45
  35  0.911  0.250  0.306-   5 2.45  63 2.45  15 2.45  62 2.45 136 2.87
  36  0.744  0.250  0.510- 223 2.06 190 2.27  63 2.45   6 2.45 136 2.62 160 2.65 134 2.75 127 2.82

  37  0.411  0.917  0.102- 156 2.33  65 2.45  64 2.45  16 2.45  26 2.45 213 2.87
  38  0.244  0.917  0.306-  66 2.45  65 2.45  17 2.45  27 2.45 175 3.03
  39  0.078  0.917  0.510- 142 1.40 109 1.70 175 2.14  66 2.45  18 2.45
  40  0.411  0.583  0.102- 216 1.75  10 2.45  20 2.45  68 2.45  67 2.45
  41  0.244  0.583  0.306-  11 2.45  21 2.45  69 2.45  68 2.45 178 2.97
  42  0.078  0.583  0.510- 112 1.59 169 2.30  12 2.45  69 2.45 145 2.53 202 3.03
  43  0.411  0.250  0.102- 219 2.07  13 2.45  71 2.45  70 2.45  23 2.45 153 2.72 186 2.81
  44  0.244  0.250  0.306-  14 2.45  72 2.45  24 2.45  71 2.45
  45  0.078  0.250  0.510- 172 1.32 139 1.98  15 2.45  72 2.45 115 2.92
  46  0.744  0.917  0.102- 168 2.28  73 2.45  74 2.45   8 2.45  25 2.45 222 2.88 135 2.97
  47  0.578  0.917  0.306-  75 2.45  74 2.45  26 2.45   9 2.45
  48  0.411  0.917  0.510- 184 1.75 151 2.30 121 2.42  75 2.45  27 2.45 208 2.84 182 2.93
  49  0.744  0.583  0.102- 225 1.78   2 2.45  19 2.45  76 2.45  77 2.45 138 2.91
  50  0.578  0.583  0.306-  20 2.45   3 2.45  78 2.45  77 2.45
  51  0.411  0.583  0.510- 211 1.70 178 1.95 124 2.34  21 2.45  78 2.45 185 2.87
  52  0.744  0.250  0.102- 228 2.10  79 2.45  80 2.45   5 2.45  22 2.45 165 2.68
  53  0.578  0.250  0.306-  81 2.45  23 2.45   6 2.45  80 2.45
  54  0.411  0.250  0.510- 181 0.49 214 2.03  24 2.45  81 2.45 148 2.69
  55  0.161  0.833  0.000- 180 1.64 147 1.90 213 2.30  82 2.45  28 2.45 206 2.90
  56  0.994  0.833  0.204- 100 2.45  83 2.45  28 2.45  29 2.45
  57  0.828  0.833  0.408- 196 2.09 101 2.45  84 2.45  29 2.45  30 2.45 130 2.73 163 2.83
  58  0.161  0.500  0.000- 207 1.68 150 2.20  85 2.45  31 2.45 120 2.59 183 2.96
  59  0.994  0.500  0.204- 103 2.45  86 2.45  31 2.45  32 2.45
  60  0.828  0.500  0.408- 133 1.97 104 2.45  87 2.45  32 2.45  33 2.45
  61  0.161  0.167  0.000- 210 0.93 177 1.75  88 2.45  34 2.45 144 2.96
  62  0.994  0.167  0.204- 106 2.45  89 2.45  34 2.45  35 2.45 144 3.00
  63  0.828  0.167  0.408- 193 2.17  35 2.45 107 2.45  36 2.45  90 2.45 136 2.59
  64  0.494  0.833  0.000- 159 1.84 222 2.33 126 2.36  37 2.45  91 2.45 189 2.76 215 2.92
  65  0.328  0.833  0.204-  82 2.45  37 2.45  38 2.45  92 2.45 213 2.88
  66  0.161  0.833  0.408- 175 1.69  83 2.45  93 2.45  38 2.45  39 2.45
  67  0.494  0.500  0.000- 129 1.42 216 1.71 162 2.15  94 2.45  40 2.45
  68  0.328  0.500  0.204-  85 2.45  95 2.45  40 2.45  41 2.45
  69  0.161  0.500  0.408-  86 2.45  96 2.45  41 2.45  42 2.45 115 2.62 178 2.98
  70  0.494  0.167  0.000- 219 0.99 132 2.21  43 2.45  97 2.45 186 2.82 156 2.93
  71  0.328  0.167  0.204-  88 2.45  43 2.45  44 2.45  98 2.45
  72  0.161  0.167  0.408- 172 1.79  89 2.45  44 2.45  45 2.45  99 2.45 205 2.92
  73  0.828  0.833  0.000- 168 0.55 171 2.05 100 2.45  46 2.45 135 2.70
  74  0.661  0.833  0.204-  91 2.45 101 2.45  46 2.45  47 2.45
  75  0.494  0.833  0.408- 121 2.40  92 2.45 102 2.45  47 2.45  48 2.45 184 2.79
  76  0.828  0.500  0.000- 141 1.24 138 1.93 103 2.45  49 2.45 228 3.02
  77  0.661  0.500  0.204-  94 2.45 104 2.45  49 2.45  50 2.45
  78  0.494  0.500  0.408- 124 1.48  95 2.45 105 2.45  50 2.45  51 2.45
  79  0.828  0.167  0.000- 198 2.13 165 2.34  52 2.45 106 2.45 111 2.56 201 2.68 228 2.74 167 2.74
                           144 3.03
  80  0.661  0.167  0.204-  97 2.45  52 2.45  53 2.45 107 2.45 165 2.98
  81  0.494  0.167  0.408- 127 2.24  98 2.45  53 2.45 108 2.45  54 2.45 181 2.85 214 2.94
  82  0.244  0.750  0.102- 213 2.10  65 2.45  55 2.45  11 2.45  10 2.45 150 2.68
  83  0.078  0.750  0.306-  66 2.45  56 2.45  12 2.45  11 2.45
  84  0.911  0.750  0.510- 196 0.49 199 2.03  57 2.45  12 2.45 163 2.69
  85  0.244  0.417  0.102- 153 2.28  68 2.45  58 2.45  14 2.45  13 2.45 207 2.88 120 2.97
  86  0.078  0.417  0.306-  69 2.45  59 2.45  15 2.45  14 2.45
  87  0.911  0.417  0.510- 169 1.75 166 2.30 136 2.42  60 2.45  15 2.45 223 2.84 197 2.93
  88  0.244  0.083  0.102- 210 1.78  71 2.45  61 2.45  17 2.45  16 2.45 123 2.91
  89  0.078  0.083  0.306-  72 2.45  62 2.45  18 2.45  17 2.45
  90  0.911  0.083  0.510- 226 1.70 193 1.95 109 2.34  63 2.45  18 2.45 170 2.87
  91  0.578  0.750  0.102- 159 2.02  74 2.45  19 2.45  20 2.45  64 2.45
  92  0.411  0.750  0.306-  75 2.45  20 2.45  21 2.45  65 2.45 121 2.87
  93  0.244  0.750  0.510- 208 2.06 175 2.27  21 2.45  66 2.45 121 2.62 145 2.65 119 2.75 112 2.82

  94  0.578  0.417  0.102- 162 1.46  77 2.45  22 2.45  67 2.45  23 2.45
  95  0.411  0.417  0.306-  78 2.45  23 2.45  68 2.45  24 2.45
  96  0.244  0.417  0.510- 115 1.08 148 2.25  24 2.45  69 2.45 178 2.83 202 2.86
  97  0.578  0.083  0.102-  80 2.45  25 2.45  70 2.45  26 2.45 165 2.56
  98  0.411  0.083  0.306-  81 2.45  26 2.45  27 2.45  71 2.45
  99  0.244  0.083  0.510- 118 0.90 205 1.73  27 2.45  72 2.45 172 2.95
 100  0.911  0.750  0.102- 204 2.07  56 2.45   2 2.45   1 2.45  73 2.45 168 2.72 171 2.81
 101  0.744  0.750  0.306-  57 2.45   3 2.45  74 2.45   2 2.45
[...]
     0.000000000  0.000000000 13.861000061     0.000000000  0.000000000  0.072144867

  length of vectors
    16.973400116 16.973400116 13.861000061     0.058915715  0.058915715  0.072144867

 FORCES acting on ions
    electron-ion (+dipol)            ewald-force                    non-local-force                 convergence-correction
   0.152E+02 0.501E+02 -.290E+02   -.216E+02 -.220E+03 0.293E+02   -.171E+01 -.328E+02 0.575E+00   -.223E-04 -.184E-03 0.110E-03
   -.408E+00 -.815E+00 -.238E+02   0.734E+00 0.535E+00 0.236E+02   -.241E+00 0.134E+00 0.360E+00   -.960E-04 -.253E-03 -.362E-03
   -.234E+02 -.188E+01 0.896E+02   0.267E+02 0.898E-02 -.930E+02   0.647E+01 -.827E-01 -.116E+02   -.270E-03 -.129E-03 -.143E-03
   -.306E+00 -.279E+02 -.291E+02   0.550E+00 0.320E+02 0.292E+02   -.411E+00 0.979E+01 0.576E+00   -.956E-04 0.460E-04 0.568E-04
   -.210E+01 -.128E+01 -.298E+02   0.167E+01 0.787E+00 0.298E+02   0.474E+00 0.726E+00 0.791E+00   0.118E-03 0.236E-04 -.907E-04
   0.174E+02 0.211E+02 0.909E+02   -.206E+02 -.247E+02 -.990E+02   -.537E+01 -.654E+01 -.140E+02   0.573E-03 0.536E-04 -.999E-04
   -.227E+02 -.195E+02 -.671E+02   0.302E+02 0.288E+02 0.101E+03   0.837E+01 0.675E+01 0.260E+02   -.735E-04 0.158E-03 0.384E-04
   0.268E+01 0.140E+01 -.266E+02   -.236E+01 -.136E+01 0.269E+02   -.318E+00 -.253E+00 0.263E+00   -.800E-04 0.208E-03 -.507E-04
   0.140E+01 -.638E+01 0.601E+02   -.211E+01 0.716E+01 -.606E+02   0.676E-01 0.149E+00 -.802E+00   0.450E-04 0.744E-04 -.804E-04
   -.106E+02 -.152E+02 -.407E+02   0.115E+02 0.159E+02 0.409E+02   0.107E+01 0.281E+01 0.245E+01   0.767E-04 0.191E-04 0.739E-05
   0.810E+00 -.224E+01 -.280E+02   -.988E+00 0.196E+01 0.283E+02   -.585E-01 0.428E+00 0.327E+00   0.854E-04 -.115E-03 -.118E-03
   0.128E+02 0.917E+01 0.699E+02   -.143E+02 -.814E+01 -.706E+02   -.224E+01 0.379E+00 -.183E+01   0.773E-03 -.944E-03 -.806E-03
   -.221E+02 -.224E+02 -.350E+02   0.714E+03 0.211E+03 0.350E+02   0.592E+01 0.579E+01 0.291E+01   -.266E-03 0.141E-03 -.114E-04
   0.694E+00 0.240E+01 -.249E+02   -.374E+00 -.194E+01 0.249E+02   -.432E+00 -.374E+00 0.198E+00   -.299E-03 0.957E-04 -.217E-03
   -.101E+02 -.324E+01 0.634E+02   0.107E+02 0.258E+01 -.639E+02   0.679E+00 0.198E+00 -.146E+01   -.226E-03 0.682E-05 -.106E-03
   0.388E+02 0.403E+02 -.389E+02   -.109E+03 -.675E+02 0.409E+02   -.326E+02 -.161E+02 0.380E+01   0.528E-04 -.128E-03 -.299E-05
   -.137E+01 -.949E+00 -.255E+02   0.113E+01 0.605E+00 0.259E+02   0.228E+00 0.412E+00 0.338E+00   -.355E-04 0.170E-05 -.230E-04
   -.956E-01 -.163E+02 0.105E+03   -.941E+00 0.250E+02 -.131E+03   0.160E+00 0.692E+01 -.271E+02   -.129E-04 0.409E-03 -.125E-03
   -.134E+01 -.304E+02 -.472E+02   -.126E+03 0.186E+03 0.530E+02   -.126E+02 0.221E+02 0.774E+01   -.554E-04 -.301E-04 0.125E-04
   0.699E+00 0.337E+01 -.276E+02   -.254E+00 -.266E+01 0.281E+02   -.430E+00 -.946E+00 -.134E+00   0.129E-04 0.766E-04 -.125E-03
   -.233E+01 -.102E+02 0.695E+02   0.174E+01 0.110E+02 -.705E+02   0.125E+01 0.154E+01 -.197E+01   0.182E-04 0.132E-03 -.484E-04
   0.137E+02 0.457E+02 -.576E+02   -.176E+02 -.544E+02 0.677E+02   -.283E+01 -.132E+02 0.139E+02   0.296E-03 0.959E-04 0.352E-04
   0.546E+00 -.135E+01 -.249E+02   -.611E+00 0.138E+01 0.250E+02   0.260E+00 0.122E+00 0.250E+00   0.212E-03 0.209E-03 -.321E-03
   0.106E+02 -.153E+02 0.797E+02   -.782E+01 0.131E+02 -.790E+02   -.299E+01 0.286E+01 -.472E+01   -.129E-02 0.109E-02 -.126E-02
   -.211E+02 -.220E+02 -.236E+02   0.271E+02 0.295E+02 0.231E+02   0.964E+01 0.999E+01 0.635E+00   0.273E-04 -.342E-04 0.982E-05
   -.111E+01 -.687E+00 -.260E+02   0.105E+01 0.700E+00 0.259E+02   0.972E-01 0.148E+00 0.385E+00   0.102E-03 -.225E-03 -.852E-04
   -.547E+01 0.236E+02 0.785E+02   0.603E+01 -.240E+02 -.789E+02   0.200E+01 -.536E+01 -.660E+01   -.465E-04 -.426E-03 -.146E-03
   0.121E+02 0.710E+01 -.106E+03   -.189E+02 -.941E+01 0.136E+03   -.528E+01 -.320E+01 0.286E+02   0.252E-04 -.448E-05 0.412E-04
   0.143E+01 0.801E+00 0.251E+02   -.164E+01 -.613E+00 -.252E+02   0.103E+00 -.164E+00 -.521E+00   -.338E-05 0.448E-03 -.448E-03
   -.320E+02 -.430E+02 0.283E+02   0.128E+03 0.128E+03 -.282E+02   0.258E+02 0.243E+02 -.898E+00   -.432E-03 0.545E-03 0.124E-04
   0.792E+01 0.403E+01 -.610E+02   -.810E+01 -.414E+01 0.614E+02   -.613E+00 0.322E+00 0.121E+01   -.706E-04 -.139E-03 -.608E-04
   -.126E+01 -.159E+01 0.247E+02   0.131E+01 0.147E+01 -.247E+02   0.269E-01 0.394E-01 -.360E+00   -.249E-04 -.484E-03 -.414E-03
   0.193E+02 0.139E+02 0.484E+02   -.240E+03 0.203E+02 -.545E+02   -.225E+02 -.102E+00 -.822E+01   -.293E-03 -.423E-03 -.998E-05
   -.198E+02 -.108E+02 -.750E+02   0.213E+02 0.989E+01 0.761E+02   0.292E+01 0.201E+01 0.509E+01   -.222E-03 0.182E-03 -.970E-04
   -.123E+00 0.181E+01 0.297E+02   0.551E+00 -.149E+01 -.300E+02   -.183E-01 -.554E+00 -.491E+00   -.779E-04 0.926E-04 -.432E-04
   0.804E+01 0.239E+02 0.423E+02   -.862E+01 -.251E+02 -.426E+02   -.162E+01 -.432E+01 -.329E+01   0.359E-03 0.734E-06 -.232E-04
   -.251E+01 0.116E+02 -.644E+02   0.376E+01 -.126E+02 0.650E+02   -.125E+00 -.133E+01 0.128E+01   0.642E-04 -.210E-03 -.407E-04
   -.242E+01 -.224E+01 0.274E+02   0.194E+01 0.181E+01 -.277E+02   0.461E+00 0.681E+00 -.392E+00   0.588E-04 -.145E-03 -.643E-04
   -.213E+01 0.242E+02 0.676E+02   -.251E+00 -.336E+02 -.106E+03   0.210E+01 -.962E+01 -.275E+02   0.421E-03 0.325E-03 0.134E-05
   -.766E+01 -.253E+02 -.876E+02   0.756E+01 0.298E+02 0.933E+02   0.300E+01 0.693E+01 0.117E+02   0.185E-04 0.146E-03 -.116E-03
   0.214E+01 0.301E+00 0.285E+02   -.204E+01 -.810E-01 -.285E+02   -.315E+00 -.436E+00 -.714E+00   -.592E-04 0.862E-04 -.121E-03
   0.853E+01 0.386E+02 0.238E+02   -.121E+02 -.544E+02 -.236E+02   -.345E+01 -.196E+02 -.366E+00   0.270E-03 -.370E-03 -.674E-04
   0.139E+02 0.617E+00 -.797E+02   -.147E+02 0.396E+00 0.800E+02   -.432E+01 0.138E+01 0.433E+01   -.190E-03 0.142E-03 -.118E-03
   0.173E+00 0.175E+01 0.239E+02   -.100E+00 -.116E+01 -.237E+02   -.293E+00 -.369E+00 -.291E+00   -.554E-03 0.371E-04 -.525E-03
   -.861E+01 -.572E+02 0.369E+02   -.325E+01 0.112E+03 -.387E+02   -.544E+01 0.346E+02 -.291E+01   -.374E-03 0.110E-03 -.338E-04
   0.250E+01 -.171E+02 -.696E+02   -.146E+01 0.158E+02 0.688E+02   -.479E+00 0.156E+01 0.199E+01   -.855E-04 -.348E-04 -.571E-04
   -.177E+00 0.965E+00 0.262E+02   0.200E+00 -.102E+01 -.260E+02   -.463E-01 0.343E-01 -.419E+00   -.179E-04 -.945E-04 -.809E-04
   0.271E+02 0.240E+02 0.302E+02   -.324E+02 -.283E+02 -.300E+02   -.104E+02 -.743E+01 -.111E+01   0.481E-04 -.341E-03 -.676E-05
   -.161E+02 0.170E+02 -.913E+02   0.182E+02 -.192E+02 0.947E+02   0.580E+01 -.550E+01 0.127E+02   0.598E-04 -.114E-03 -.119E-03
   0.123E+00 0.170E+01 0.257E+02   0.551E-01 -.159E+01 -.261E+02   -.293E+00 -.313E+00 -.159E+00   0.576E-04 0.108E-03 -.148E-03
   -.262E+02 -.387E+02 0.550E+02   0.310E+02 0.452E+02 -.621E+02   0.638E+01 0.997E+01 -.114E+02   -.251E-04 0.359E-03 -.183E-05
   0.978E+01 0.110E+02 -.713E+02   -.973E+01 -.113E+02 0.724E+02   -.187E+01 -.221E+01 0.297E+01   0.229E-03 0.104E-03 -.198E-04
   -.775E-01 -.321E+01 0.262E+02   -.274E+00 0.267E+01 -.266E+02   0.461E+00 0.665E+00 0.256E+00   0.607E-03 -.128E-04 -.356E-03
   0.117E+01 0.254E+02 0.359E+02   0.466E+03 -.821E+03 -.357E+02   -.362E+01 -.215E+01 -.375E+01   0.474E-03 -.780E-03 0.602E-04
   0.137E+02 0.457E+02 -.576E+02   -.176E+02 -.544E+02 0.677E+02   -.283E+01 -.132E+02 0.139E+02   0.125E-03 -.136E-03 0.727E-04
   0.546E+00 -.135E+01 -.249E+02   -.611E+00 0.138E+01 0.250E+02   0.260E+00 0.122E+00 0.250E+00   0.783E-04 -.157E-04 -.285E-03
   0.106E+02 -.153E+02 0.797E+02   -.782E+01 0.131E+02 -.790E+02   -.299E+01 0.286E+01 -.472E+01   -.114E-02 0.952E-03 -.123E-02
   -.211E+02 -.220E+02 -.236E+02   0.271E+02 0.295E+02 0.231E+02   0.964E+01 0.999E+01 0.635E+00   -.133E-03 -.272E-04 0.523E-04
   -.111E+01 -.687E+00 -.260E+02   0.105E+01 0.700E+00 0.259E+02   0.972E-01 0.148E+00 0.385E+00   -.565E-04 -.173E-03 -.199E-03
   -.547E+01 0.236E+02 0.785E+02   0.603E+01 -.240E+02 -.789E+02   0.200E+01 -.536E+01 -.660E+01   -.188E-04 -.331E-03 -.139E-03
[...]
   0.203E+01 -.182E+01 0.140E+02   -.204E+01 0.151E+01 -.138E+02   -.121E+00 0.567E+00 -.667E+00   0.611E-04 -.203E-03 0.689E-04
   0.526E+02 0.261E+02 -.624E+00   -.566E+02 -.250E+02 0.201E+00   -.199E+02 -.777E+01 -.154E+02   0.670E-05 0.159E-03 0.143E-04
   0.454E+01 0.285E+01 -.145E+02   -.536E+01 -.306E+01 0.145E+02   0.210E+00 -.664E-01 0.926E+00   -.613E-04 -.927E-04 0.801E-04
   -.183E+01 -.319E+01 0.119E+02   0.124E+01 0.218E+01 -.117E+02   0.887E+00 0.844E+00 -.841E+00   0.505E-04 0.167E-03 0.138E-03
   -.260E+02 -.463E+02 -.241E+02   0.295E+02 0.215E+03 0.241E+02   0.674E+01 0.325E+02 -.341E+01   0.157E-03 0.109E-03 -.291E-04
   0.209E+02 -.185E+02 -.541E+02   -.233E+02 0.191E+02 0.545E+02   -.758E+01 0.730E+01 0.171E+02   -.286E-03 -.189E-03 0.172E-03
   0.197E+01 0.444E+01 0.136E+02   -.133E+01 -.355E+01 -.140E+02   -.865E+00 -.762E+00 -.267E+00   0.356E-03 0.345E-04 0.129E-03
   0.271E+02 0.328E+02 -.410E+02   -.289E+02 -.341E+02 0.391E+02   -.140E+02 -.173E+02 0.138E+01   -.417E-04 -.182E-03 -.115E-05
   -.102E+02 -.181E+02 -.277E+02   0.102E+02 0.170E+02 0.287E+02   0.211E+01 0.449E+01 0.364E+01   0.157E-03 -.656E-04 -.454E-04
   -.299E+01 -.467E+00 0.115E+02   0.316E+01 0.502E+00 -.113E+02   -.127E+00 -.181E+00 -.579E+00   -.100E-03 0.104E-03 0.674E-04
   -.434E+01 0.166E+02 -.291E+01   0.137E+03 -.170E+03 0.586E+01   0.117E+02 -.190E+02 -.166E+02   0.229E-04 -.927E-04 0.239E-04
   0.122E+02 0.330E+02 -.502E+02   -.104E+02 -.348E+02 0.535E+02   -.499E+01 -.119E+02 0.169E+02   -.112E-03 0.471E-03 0.271E-04
   0.166E+01 0.113E+01 0.817E+01   -.108E+01 -.672E+00 -.792E+01   -.250E+00 -.462E+00 -.427E+00   -.183E-03 -.272E-03 0.411E-03
   -.227E+02 -.174E+02 -.186E+02   0.236E+02 0.179E+02 0.181E+02   0.313E+01 0.286E+01 -.277E+01   0.175E-03 0.641E-04 0.705E-04
   -.307E+02 0.245E+02 -.192E+01   -.220E-12 -.377E-12 0.721E-12   0.307E+02 -.243E+02 0.179E+01   0.514E-04 -.170E-03 0.293E-02

 POSITION                                       TOTAL-FORCE (eV/Angst)
     16.87674     11.31560      0.00000        -8.098517   -202.890409      0.951849
     14.04785     11.31560      2.82890         0.085179     -0.146374      0.213006
     11.21894     11.31560      5.65780         9.787639     -1.954852    -14.931135
     16.87674      5.65780      0.00000        -0.166070     13.940438      0.636881
     14.04785      5.65780      2.82890         0.041814      0.232959      0.788569
     11.21894      5.65780      5.65780        -8.482410    -10.160379    -22.149289
     16.87674      0.00000      0.00000        15.813541     16.082427     60.178857
     14.04785      0.00000      2.82890         0.008330     -0.211265      0.577557
     11.21894      0.00000      5.65780        -0.640697      0.924622     -1.298223
      5.56114     11.31560      0.00000         1.980891      3.528526      2.631968
      2.73224     11.31560      2.82890        -0.236428      0.153778      0.606143
     16.87674     11.31560      5.65780        -3.731664      1.410770     -2.463434
      5.56114      5.65780      0.00000       698.045059    194.430523      2.857697
      2.73224      5.65780      2.82890        -0.111349      0.087594      0.223970
     16.87674      5.65780      5.65780         1.263227     -0.461777     -1.903161
      5.56114      0.00000      0.00000      -102.497468    -43.305037      5.814695
      2.73224      0.00000      2.82890        -0.005970      0.067164      0.703086
     16.87674      0.00000      5.65780        -0.876450     15.597103    -53.065814
     11.21894     11.31560      0.00000      -140.406741    177.630890     13.505056
      8.39004     11.31560      2.82890         0.015359     -0.244839      0.362064
      5.56114     11.31560      5.65780         0.651762      2.367141     -2.901091
     11.21894      5.65780      0.00000        -6.676655    -21.836686     23.949167
      8.39004      5.65780      2.82890         0.195400      0.146204      0.381846
      5.56114      5.65780      5.65780        -0.251820      0.744289     -3.972359
     11.21894      0.00000      0.00000        15.729229     17.481014      0.198909
      8.39004      0.00000      2.82890         0.032396      0.160525      0.290190
      5.56114      0.00000      5.65780         2.559946     -5.775334     -6.999573
      1.31780     15.55895      1.41445       -12.042465     -5.504996     57.835654
     15.46229     15.55895      4.24335        -0.098059      0.023412     -0.571469
     12.63339     15.55895      7.07225       122.187093    109.245807     -0.825098
      1.31780      9.90115      1.41445        -0.790763      0.214849      1.563367
     15.46229      9.90115      4.24335         0.072482     -0.086491     -0.335382
     12.63339      9.90115      7.07225      -243.672208     34.079772    -14.361622
      1.31780      4.24335      1.41445         4.494015      1.134034      6.220177
     15.46229      4.24335      4.24335         0.409295     -0.236682     -0.723746
     12.63339      4.24335      7.07225        -2.196584     -5.592457     -3.616127
      6.97559     15.55895      1.41445         1.122986     -2.277704      1.832398
      4.14669     15.55895      4.24335        -0.015002      0.246453     -0.684529
      1.31779     15.55895      7.07225        -0.279684    -18.970955    -65.962179
      6.97559      9.90115      1.41445         2.897274     11.422021     17.426105
      4.14669      9.90115      4.24335        -0.217872     -0.216790     -0.713667
      1.31779      9.90115      7.07225        -7.068230    -35.458797     -0.114188
      6.97559      4.24335      1.41445        -5.097508      2.394210      4.656656
      4.14669      4.24335      4.24335        -0.219835      0.220044     -0.059791
      1.31779      4.24335      7.07225       -17.303354     89.607602     -4.646346
     12.63339     15.55895      1.41445         0.565765      0.295413      1.206516
      9.80449     15.55895      4.24335        -0.023234     -0.017885     -0.246161
      6.97559     15.55895      7.07225       -15.707301    -11.796424     -0.950568
     12.63339      9.90115      1.41445         7.832349     -7.713861     16.072725
      9.80449      9.90115      4.24335        -0.113903     -0.209971     -0.531120
      6.97559      9.90115      7.07225        11.154580     16.484740    -18.513972
     12.63339      4.24335      1.41445        -1.824958     -2.557992      4.056231
      9.80449      4.24335      4.24335         0.109542      0.120218     -0.137322
      6.97559      4.24335      7.07225       463.291779   -797.652064     -3.560702
      2.73224     14.14450      0.00000        -6.676655    -21.836686     23.949167
     16.87674     14.14450      2.82890         0.195400      0.146204      0.381846
     14.04784     14.14450      5.65780        -0.251820      0.744289     -3.972359
      2.73224      8.48670      0.00000        15.729229     17.481014      0.198909
     16.87674      8.48670      2.82890         0.032396      0.160525      0.290190
     14.04784      8.48670      5.65780         2.559946     -5.775334     -6.999573
[...]
      8.42567      3.81614      8.43000         2.474933     -0.123895      3.486095
      7.57700     14.84885     11.14550        -0.127127      0.255037     -0.395828
      6.72833      8.90816      0.00000       -23.920345     -6.685708    -15.840840
     10.12301     15.69752      8.43000        -0.616241     -0.281151      0.901243
      9.27434      9.75683     11.14550         0.295020     -0.164707     -0.572122
      8.42567      3.81614      0.00000        10.224693    201.115421     -3.398805
     11.82035     10.60550      8.43000        -9.900539      7.886961     17.524447
     10.97168      4.66481     11.14550        -0.222209      0.130585     -0.644743
     10.12301     15.69752      0.00000       -15.858765    -18.538040     -0.533275
     13.51769      5.51348      8.43000         2.142822      3.361573      4.606600
     12.66902     16.54619     11.14550         0.046328     -0.147217     -0.445727
     11.82035     10.60550      0.00000       144.312099   -172.188485    -13.622092
     15.21503      0.42146      8.43000        -3.206625    -13.643085     20.218797
     14.36636     11.45417     11.14550         0.329230     -0.000964     -0.171446
     13.51769      5.51348      0.00000         4.024960      3.344124     -3.307668
    total drift:                               -0.032590      0.127458     -0.126478

  FREE ENERGIE OF THE ION-ELECTRON SYSTEM (eV)
  free  energy   TOTEN  =      1109.08189694 eV

  energy  without entropy=     1109.08502401  energy(sigma->0) =     1109.08346047