 vasp.6.4.3 19Mar24 (build Oct 22 2024 11:23:12) complex

 executed on             LinuxIFC date 2025.06.09  04:26:18

 INCAR:
   SYSTEM = Si and Ge interface calculation
   ISTART = 0
   ICHARG = 2
   LWAVE = .FALSE.
   LREAL = AUTO
   ENCUT = 700
   ENAUG = 900
   ADDGRID = .TRUE.
   LMAXMIX = 6
   LASPH = .TRUE.
   LMIXTAU = .TRUE.
   NCORE = 16
   NELM = 100
   NBANDS = 404
   EDIFF = 1d-7
   AMIX = 0.6
   ISMEAR = 0
   SIGMA = 0.01
   NELECT = 672
   ISPIN = 2
   NUPDOWN = 1
   LVTOT = .FALSE.
   LVHAR = .TRUE.

 POTCAR:    PAW_PBE Sn 08Apr2002
 POTCAR:    PAW_PBE Ge 05Jan2001
|           W    W    AA    RRRRR   N    N  II  N    N   GGGG   !!!           |
|           W    W   A  A   R    R  NN   N  II  NN   N  G    G  !!!           |
|           W    W  A    A  R    R  N N  N  II  N N  N  G       !!!           |
|           W WW W  AAAAAA  RRRRR   N  N N  II  N  N N  G  GGG   !            |
|           WW  WW  A    A  R   R   N   NN  II  N   NN  G    G                |
|           W    W  A    A  R    R  N    N  II  N    N   GGGG   !!!           |
|     You use a magnetic or noncollinear calculation, but did not specify     |
|     the initial magnetic moment with the MAGMOM tag. Note that a            |
|     default of 5.952e-3 will be used for all atoms. This ferromagnetic      |
|     setup may break the symmetry of the crystal, in particular it may       |
|     rule out finding an antiferromagnetic solution. Thence, we              |
|     recommend setting the initial magnetic moment manually or verifying     |
|     carefully that this magnetic setup is desired.                          |

 POTCAR:    PAW_PBE Sn 08Apr2002
   VRHFIN =Sn: s2p2

   TITEL  = PAW_PBE Sn 08Apr2002
   POMASS =  118.710; ZVAL   =    4.000    mass and valenz
   ENMAX  =  103.236; ENMIN  =   77.427 eV

 POTCAR:    PAW_PBE Ge 05Jan2001
   VRHFIN =Ge: s2p2

   TITEL  = PAW_PBE Ge 05Jan2001
   POMASS =   72.610; ZVAL   =    4.000    mass and valenz
   ENMAX  =  173.807; ENMIN  =  130.355 eV

 Optimization of the real space projectors (new method)

 maximal supplied QI-value         = 12.47
 optimisation between [QCUT,QGAM] = [ 12.47, 27.06] = [ 43.56,205.12] Ry
 Optimized for a Real-space Cutoff    1.58 Angstroem

   l    n(q)    QCUT    max X(q) W(low)/X(q) W(high)/X(q)  e(spline)
   0     13    12.472    14.688    0.45E-04    0.45E-04    0.25E-05
   0     13    12.472     7.308    0.94E-04    0.11E-03    0.61E-05
   1     12    12.472    45.102    0.34E-03    0.14E-03    0.21E-05
   1     12    12.472    30.691    0.31E-03    0.13E-03    0.20E-05
   2     12    12.472     7.156    0.86E-04    0.11E-03    0.17E-05
 WARNING: PSMAXN for non-local potential too small
          PSMAXN should be >   13.5545592237991       NTYP=           1
 Optimization of the real space projectors (new method)

 maximal supplied QI-value         = 16.25
 optimisation between [QCUT,QGAM] = [ 13.49, 26.98] = [ 50.95,203.80] Ry
 Optimized for a Real-space Cutoff    1.25 Angstroem

   l    n(q)    QCUT    max X(q) W(low)/X(q) W(high)/X(q)  e(spline)
   0     10    13.489    65.336    0.91E-04    0.11E-03    0.34E-06
   0     10    13.489    52.220    0.89E-04    0.11E-03    0.34E-06
   1     10    13.489    36.409    0.22E-03    0.27E-03    0.14E-06
   1     10    13.489    21.334    0.21E-03    0.27E-03    0.14E-06
   2      9    13.489     4.673    0.11E-03    0.12E-03    0.19E-06
  PAW_PBE Sn 08Apr2002                  :
  PAW_PBE Ge 05Jan2001                  :

 POSCAR: Sn+Ge
  positions in direct lattice

 exchange-correlation table for PE
   RHO(1)=    0.500       N(1)  =     2000
   RHO(2)=  100.500       N(2)  =     4000

 ion  position               nearest neighbor table
   1  0.658  0.367  0.000- 114 2.36  37 2.81  55 2.81  68 2.81 144 3.13
   2  0.575  0.701  0.090-  43 2.81  56 2.81  38 2.81  69 2.81
   3  0.491  0.034  0.179-  44 2.81  57 2.81  39 2.81  70 2.81
   4  0.408  0.367  0.269-  45 2.81  40 2.81  58 2.81  71 2.81
   5  0.325  0.701  0.358-  46 2.81  59 2.81  41 2.81  72 2.81
   6  0.241  0.034  0.448- 157 2.40  91 2.61  60 2.81  47 2.81  42 2.81 115 3.18
   7  0.991  0.034  0.000-  49 2.81  61 2.81  56 2.81 132 3.08  84 3.31
   8  0.908  0.367  0.090-  37 2.81  50 2.81  62 2.81  57 2.81
   9  0.825  0.701  0.179-  38 2.81  63 2.81  51 2.81  58 2.81
  10  0.741  0.034  0.269-  52 2.81  39 2.81  64 2.81  59 2.81
  11  0.658  0.367  0.358-  40 2.81  65 2.81  60 2.81  53 2.81
  12  0.575  0.701  0.448- 109 2.64  54 2.81  41 2.81  66 2.81
  13  0.325  0.701  0.000- 162 2.09  43 2.81  62 2.81  67 2.81 120 2.95  96 3.27
  14  0.241  0.034  0.090-  49 2.81  44 2.81  68 2.81  63 2.81
  15  0.158  0.367  0.179-  50 2.81  69 2.81  45 2.81  64 2.81
  16  0.075  0.701  0.269-  51 2.81  70 2.81  46 2.81  65 2.81
  17  0.991  0.034  0.358-  47 2.81  52 2.81  66 2.81  71 2.81
  18  0.908  0.367  0.448- 127 2.37  48 2.81  53 2.81  72 2.81  85 3.16
  19  0.491  0.034  0.000-  67 2.81  37 2.81  44 2.81 144 3.08  96 3.31
  20  0.408  0.367  0.090-  68 2.81  61 2.81  38 2.81  45 2.81
  21  0.325  0.701  0.179-  62 2.81  69 2.81  39 2.81  46 2.81
  22  0.241  0.034  0.269-  70 2.81  63 2.81  47 2.81  40 2.81
  23  0.158  0.367  0.358-  71 2.81  64 2.81  41 2.81  48 2.81
  24  0.075  0.701  0.448-  97 2.64  72 2.81  65 2.81  42 2.81
  25  0.825  0.701  0.000- 150 2.09  55 2.81  38 2.81  49 2.81 108 2.95  84 3.27
  26  0.741  0.034  0.090-  56 2.81  67 2.81  50 2.81  39 2.81
  27  0.658  0.367  0.179-  57 2.81  68 2.81  51 2.81  40 2.81
  28  0.575  0.701  0.269-  58 2.81  69 2.81  52 2.81  41 2.81
  29  0.491  0.034  0.358-  59 2.81  70 2.81  42 2.81  53 2.81
  30  0.408  0.367  0.448- 139 2.37  60 2.81  71 2.81  54 2.81  73 3.16
  31  0.158  0.367  0.000- 102 2.36  61 2.81  43 2.81  50 2.81 132 3.13
  32  0.075  0.701  0.090-  55 2.81  62 2.81  44 2.81  51 2.81
  33  0.991  0.034  0.179-  56 2.81  63 2.81  52 2.81  45 2.81
  34  0.908  0.367  0.269-  57 2.81  64 2.81  53 2.81  46 2.81
  35  0.825  0.701  0.358-  58 2.81  65 2.81  47 2.81  54 2.81
  36  0.741  0.034  0.448- 145 2.40  79 2.61  59 2.81  48 2.81  66 2.81 103 3.18
  37  0.741  0.284  0.000-  78 2.12   8 2.81   1 2.81  19 2.81 144 2.84
  38  0.658  0.617  0.090-   9 2.81  20 2.81  25 2.81   2 2.81
  39  0.575  0.951  0.179-  10 2.81  21 2.81   3 2.81  26 2.81
  40  0.491  0.284  0.269-  11 2.81   4 2.81  22 2.81  27 2.81
  41  0.408  0.617  0.358-  23 2.81  12 2.81   5 2.81  28 2.81
  42  0.325  0.951  0.448- 115 2.40 133 2.71  24 2.81   6 2.81  29 2.81 157 3.05
  43  0.408  0.617  0.000- 138 2.44   2 2.81  13 2.81  31 2.81 120 3.10
  44  0.325  0.951  0.090-  14 2.81   3 2.81  32 2.81  19 2.81
  45  0.241  0.284  0.179-   4 2.81  15 2.81  33 2.81  20 2.81
  46  0.158  0.617  0.269-   5 2.81  16 2.81  21 2.81  34 2.81
  47  0.075  0.951  0.358-  17 2.81  22 2.81   6 2.81  35 2.81
  48  0.991  0.284  0.448- 163 2.68  18 2.81  36 2.81  23 2.81
  49  0.075  0.951  0.000-  14 2.81   7 2.81  25 2.81 108 3.15 168 3.33
  50  0.991  0.284  0.090-  15 2.81   8 2.81  26 2.81  31 2.81
  51  0.908  0.617  0.179-  16 2.81   9 2.81  27 2.81  32 2.81
  52  0.825  0.951  0.269-  10 2.81  17 2.81  33 2.81  28 2.81
  53  0.741  0.284  0.358-  18 2.81  34 2.81  11 2.81  29 2.81
  54  0.658  0.617  0.448-  73 2.43  12 2.81  35 2.81  30 2.81 139 3.07
  55  0.908  0.617  0.000- 126 2.44  32 2.81  25 2.81   1 2.81 108 3.10
  56  0.825  0.951  0.090-  26 2.81  33 2.81   7 2.81   2 2.81
  57  0.741  0.284  0.179-  27 2.81  34 2.81   3 2.81   8 2.81
  58  0.658  0.617  0.269-  35 2.81  28 2.81   4 2.81   9 2.81
  59  0.575  0.951  0.358-  29 2.81  36 2.81   5 2.81  10 2.81
  60  0.491  0.284  0.448- 151 2.68  30 2.81   6 2.81  11 2.81
[...]
 154  0.540  0.682  0.763- 100 2.43  76 2.43 101 2.44  93 2.44
 155  0.165  0.432  0.841-  77 2.43 101 2.43  94 2.44 102 2.44
 156  0.790  0.182  0.919- 102 2.43  78 2.43  95 2.44  67 3.33
 157  0.165  0.932  0.529-   6 2.40 115 2.43  91 2.43 116 2.44  42 3.05
 158  0.790  0.682  0.607- 116 2.43  92 2.43  73 2.44 117 2.44
 159  0.415  0.432  0.685- 117 2.43  93 2.43  74 2.44 118 2.44
 160  0.040  0.182  0.763- 118 2.43  94 2.43 119 2.44  75 2.44
 161  0.665  0.932  0.841- 119 2.43  95 2.43  76 2.44 120 2.44
 162  0.290  0.682  0.919-  13 2.09 120 2.43  96 2.43  77 2.44
 163  0.165  0.432  0.529- 109 2.43  85 2.43 110 2.44  48 2.68
 164  0.790  0.182  0.607- 110 2.43  86 2.43  79 2.44 111 2.44
 165  0.415  0.932  0.685- 111 2.43  87 2.43  80 2.44 112 2.44
 166  0.040  0.682  0.763-  88 2.43 112 2.43 113 2.44  81 2.44
 167  0.665  0.432  0.841-  89 2.43 113 2.43  82 2.44 114 2.44
 168  0.290  0.182  0.919- 114 2.43  90 2.43  83 2.44  49 3.33

  LATTYP: Found a simple orthorhombic cell.
 ALAT       =    11.2396249770
 B/A-ratio  =     1.4142134118
 C/A-ratio  =     2.2780314725

  Lattice vectors:

 A1 = (  -0.0000019070,  11.2396249770,   0.0000000000)
 A2 = ( -15.8952283860,   0.0000000000,   0.0000000000)
 A3 = (   0.0000000000,   0.0000000000,  25.6042194370)

Analysis of symmetry for initial positions (statically):
 Subroutine PRICEL returns following result:

[...]

   2 primitive cells build up your supercell.

 Routine SETGRP: Setting up the symmetry group for a
 simple orthorhombic supercell.

 Subroutine GETGRP returns: Found  1 space group operations
 (whereof  1 operations were pure point group operations)
 out of a pool of  8 trial point group operations.

The static configuration has the point symmetry C_1 .

Analysis of symmetry for dynamics (positions and initial velocities):
 Subroutine PRICEL returns following result:

[...]

The dynamic configuration has the point symmetry C_1 .

Analysis of structural, dynamic, and magnetic symmetry:
 Subroutine PRICEL returns following result:

  LATTYP: Found a simple orthorhombic cell.
 ALAT       =     7.9476146063
 B/A-ratio  =     1.4142136507
 C/A-ratio  =     3.2216231795

  Lattice vectors:

 A1 = (   7.9476146063,   0.0000000450,   0.0000000000)
 A2 = (  -0.0000010804,  11.2396250669,   0.0000000000)
 A3 = (   0.0000000000,   0.0000000000,  25.6042194370)

   2 primitive cells build up your supercell.

 Routine SETGRP: Setting up the symmetry group for a
 simple orthorhombic supercell.

 Subroutine GETGRP returns: Found  1 space group operations
 (whereof  1 operations were pure point group operations)
 out of a pool of  8 trial point group operations.

The overall configuration has the point symmetry C_1 .

 Subroutine INISYM returns: Found  1 space group operations
 (whereof  1 operations are pure point group operations),
 and found     2 'primitive' translations

                                     Primitive cell

  volume of cell :    2287.1790

  direct lattice vectors                    reciprocal lattice vectors
     7.947614606  0.000000045  0.000000000     0.125823917  0.000000012  0.000000000
    -0.000001080 11.239625067  0.000000000    -0.000000001  0.088970939  0.000000000
     0.000000000  0.000000000 25.604219437     0.000000000  0.000000000  0.039056063

  length of vectors
     7.947614606 11.239625067 25.604219437     0.125823917  0.088970939  0.039056063

  position of ions in fractional coordinates (direct lattice)
     0.581404856  0.367438073  0.000000015
[...]
     0.000000000  0.000000000 25.604219437     0.000000000  0.000000000  0.039056063

  length of vectors
    15.895228386 19.467601693 25.604219437     0.108966715  0.088970940  0.039056063

 FORCES acting on ions
    electron-ion (+dipol)            ewald-force                    non-local-force                 convergence-correction
   0.446E+01 -.944E+01 -.131E+03   -.402E+01 0.987E+01 0.131E+03   0.101E+00 0.875E+00 0.298E+01   0.531E-05 0.168E-04 0.246E-04
   -.923E+00 -.942E-01 -.744E+02   0.813E+00 -.536E-01 0.742E+02   0.153E+00 0.132E+00 0.138E+00   -.391E-05 -.173E-04 -.101E-04
   0.981E-01 0.440E-01 -.249E+02   -.821E-01 -.101E+00 0.248E+02   -.455E-02 0.621E-01 0.747E-01   0.251E-05 0.896E-06 0.102E-04
   0.136E+00 0.148E+00 0.248E+02   -.816E-01 -.148E+00 -.249E+02   -.625E-01 -.407E-01 0.786E-01   -.237E-05 0.248E-05 0.321E-04
   -.111E+01 -.147E+01 0.725E+02   0.811E+00 0.126E+01 -.721E+02   0.353E+00 0.262E+00 -.334E+00   -.769E-05 0.836E-06 0.127E-04
   0.799E+01 -.445E+01 0.140E+03   -.804E+01 0.428E+01 -.141E+03   -.120E+01 0.141E+01 -.214E+01   -.972E-06 0.757E-06 -.289E-04
   0.902E+01 0.124E+02 -.114E+03   -.856E+01 -.124E+02 0.115E+03   -.111E+01 -.695E+00 -.140E+01   -.142E-04 0.503E-05 0.352E-04
   -.925E+00 -.178E+01 -.733E+02   0.864E+00 0.183E+01 0.731E+02   0.950E-01 -.715E-01 0.268E+00   -.240E-05 0.119E-04 0.254E-05
   0.770E-01 0.757E-01 -.250E+02   -.822E-01 -.104E+00 0.250E+02   -.365E-02 -.967E-02 0.351E-01   0.391E-06 -.561E-05 0.129E-05
   -.337E-02 0.564E-02 0.250E+02   -.822E-01 -.147E-01 -.250E+02   0.551E-01 0.493E-01 -.232E-03   -.497E-05 -.381E-05 0.289E-04
   -.920E+00 0.651E+00 0.732E+02   0.864E+00 -.700E+00 -.731E+02   0.532E-01 0.632E-01 -.199E+00   0.581E-05 0.252E-05 0.146E-04
   0.844E+01 -.424E+01 0.118E+03   -.879E+01 0.410E+01 -.119E+03   0.205E+00 -.523E-01 0.292E+00   0.347E-05 0.202E-06 -.265E-04
   0.756E+01 0.113E+02 -.148E+03   -.767E+01 -.114E+02 0.150E+03   0.908E+00 0.126E+00 0.920E+01   0.132E-04 -.130E-04 0.571E-04
   -.958E+00 -.139E+00 -.723E+02   0.817E+00 -.120E-01 0.720E+02   0.198E+00 0.234E+00 0.406E+00   0.670E-05 0.711E-05 0.625E-05
   0.441E-01 0.103E-01 -.248E+02   -.816E-01 0.316E-01 0.249E+02   0.463E-02 -.407E-01 -.399E-01   -.166E-05 0.734E-05 -.491E-05
   0.281E-01 0.181E-01 0.248E+02   -.822E-01 -.112E-01 -.248E+02   0.308E-01 -.201E-01 -.618E-01   0.460E-05 -.655E-06 0.276E-04
   -.760E+00 -.113E+01 0.741E+02   0.819E+00 0.121E+01 -.742E+02   0.390E-01 -.108E-01 -.144E+00   0.587E-05 0.162E-05 0.116E-04
   0.417E+01 0.237E+02 0.130E+03   -.412E+01 -.235E+02 -.131E+03   0.393E+00 -.174E+01 -.269E+01   0.103E-04 -.397E-05 -.562E-04
   0.902E+01 0.124E+02 -.114E+03   -.856E+01 -.124E+02 0.115E+03   -.111E+01 -.695E+00 -.140E+01   -.148E-04 0.405E-05 0.351E-04
   -.925E+00 -.178E+01 -.733E+02   0.864E+00 0.183E+01 0.731E+02   0.950E-01 -.715E-01 0.268E+00   0.188E-05 0.122E-04 0.260E-05
   0.770E-01 0.757E-01 -.250E+02   -.823E-01 -.104E+00 0.250E+02   -.365E-02 -.967E-02 0.351E-01   -.187E-05 -.535E-05 0.259E-05
   -.342E-02 0.562E-02 0.250E+02   -.821E-01 -.146E-01 -.250E+02   0.551E-01 0.493E-01 -.232E-03   -.160E-05 -.401E-05 0.276E-04
   -.920E+00 0.651E+00 0.732E+02   0.864E+00 -.700E+00 -.731E+02   0.532E-01 0.632E-01 -.199E+00   0.111E-06 0.891E-06 0.149E-04
   0.844E+01 -.424E+01 0.118E+03   -.879E+01 0.410E+01 -.119E+03   0.205E+00 -.523E-01 0.292E+00   0.109E-04 -.733E-06 -.293E-04
   0.756E+01 0.113E+02 -.148E+03   -.767E+01 -.114E+02 0.150E+03   0.908E+00 0.126E+00 0.920E+01   0.193E-04 -.148E-04 0.573E-04
   -.958E+00 -.139E+00 -.723E+02   0.817E+00 -.120E-01 0.720E+02   0.198E+00 0.234E+00 0.406E+00   0.202E-05 0.549E-05 0.698E-05
   0.441E-01 0.103E-01 -.248E+02   -.816E-01 0.316E-01 0.249E+02   0.463E-02 -.407E-01 -.399E-01   0.194E-05 0.648E-05 -.725E-05
   0.282E-01 0.181E-01 0.248E+02   -.823E-01 -.112E-01 -.248E+02   0.308E-01 -.201E-01 -.618E-01   0.125E-05 0.439E-07 0.266E-04
   -.760E+00 -.113E+01 0.741E+02   0.819E+00 0.121E+01 -.742E+02   0.390E-01 -.108E-01 -.144E+00   0.915E-05 0.165E-05 0.122E-04
   0.417E+01 0.237E+02 0.130E+03   -.412E+01 -.235E+02 -.131E+03   0.393E+00 -.174E+01 -.269E+01   0.925E-05 -.588E-05 -.581E-04
   0.446E+01 -.944E+01 -.131E+03   -.402E+01 0.987E+01 0.131E+03   0.101E+00 0.875E+00 0.298E+01   0.238E-05 0.172E-04 0.259E-04
   -.923E+00 -.942E-01 -.744E+02   0.813E+00 -.536E-01 0.742E+02   0.153E+00 0.132E+00 0.138E+00   -.226E-05 -.173E-04 -.126E-04
   0.981E-01 0.440E-01 -.249E+02   -.822E-01 -.101E+00 0.248E+02   -.455E-02 0.621E-01 0.747E-01   0.207E-05 0.186E-07 0.110E-04
   0.136E+00 0.148E+00 0.248E+02   -.816E-01 -.148E+00 -.249E+02   -.625E-01 -.407E-01 0.786E-01   -.303E-05 0.266E-05 0.329E-04
   -.111E+01 -.147E+01 0.725E+02   0.811E+00 0.126E+01 -.721E+02   0.353E+00 0.262E+00 -.334E+00   -.405E-05 0.637E-06 0.110E-04
   0.799E+01 -.445E+01 0.140E+03   -.804E+01 0.428E+01 -.141E+03   -.120E+01 0.141E+01 -.214E+01   -.521E-05 0.832E-06 -.264E-04
   -.665E+01 -.108E+02 -.148E+03   0.673E+01 0.111E+02 0.149E+03   -.122E+01 -.163E+00 0.820E+01   -.287E-04 0.123E-04 0.553E-04
   0.804E+00 0.174E+01 -.731E+02   -.864E+00 -.183E+01 0.731E+02   0.344E-01 0.940E-01 0.103E+00   -.178E-05 -.137E-04 0.341E-05
   -.868E-01 -.518E-01 -.249E+02   0.822E-01 0.104E+00 0.248E+02   -.751E-02 -.563E-01 0.113E+00   -.140E-05 0.354E-06 0.121E-04
   -.530E-01 -.501E-01 0.249E+02   0.822E-01 0.147E-01 -.248E+02   -.824E-03 0.481E-01 -.947E-01   -.254E-05 -.395E-06 0.239E-04
   0.798E+00 -.709E+00 0.731E+02   -.864E+00 0.700E+00 -.731E+02   0.566E-01 -.135E-01 -.770E-01   -.584E-05 0.169E-05 0.152E-04
   -.840E+01 0.565E+01 0.139E+03   0.861E+01 -.531E+01 -.140E+03   0.115E+01 -.158E+01 -.181E+01   0.630E-05 -.456E-05 -.253E-04
   -.483E+01 0.908E+01 -.129E+03   0.431E+01 -.947E+01 0.129E+03   0.474E+00 -.574E+00 0.198E+01   0.730E-05 -.185E-04 0.254E-04
   0.889E+00 0.500E-01 -.722E+02   -.811E+00 0.559E-01 0.720E+02   -.167E+00 -.194E+00 0.310E+00   -.434E-05 -.485E-05 0.327E-05
   -.960E-01 -.870E-01 -.250E+02   0.821E-01 0.101E+00 0.250E+02   0.248E-01 0.194E-01 0.896E-01   0.923E-06 0.756E-05 0.799E-06
   -.145E+00 -.135E+00 0.248E+02   0.816E-01 0.148E+00 -.249E+02   0.828E-01 0.345E-01 0.310E-01   0.197E-05 -.274E-05 0.342E-04
   0.715E+00 0.111E+01 0.740E+02   -.812E+00 -.126E+01 -.741E+02   -.136E-01 0.742E-01 -.349E-01   -.459E-05 -.420E-05 0.103E-04
   -.811E+01 0.333E+01 0.117E+03   0.840E+01 -.308E+01 -.118E+03   -.219E-01 0.175E+00 0.480E+00   -.937E-05 0.440E-07 -.260E-04
   -.915E+01 -.128E+02 -.114E+03   0.892E+01 0.127E+02 0.115E+03   0.970E+00 0.884E+00 -.139E+01   0.991E-05 -.450E-05 0.422E-04
   0.815E+00 0.426E-01 -.743E+02   -.820E+00 0.968E-02 0.742E+02   -.227E-01 -.525E-01 -.735E-02   0.207E-05 0.157E-04 -.641E-05
   -.699E-01 -.102E-01 -.248E+02   0.816E-01 -.316E-01 0.249E+02   0.238E-01 0.490E-01 -.127E-01   0.142E-05 -.781E-05 -.509E-05
   -.608E-02 -.163E-01 0.250E+02   0.823E-01 0.111E-01 -.250E+02   -.509E-01 -.318E-01 -.847E-02   -.114E-05 0.127E-05 0.291E-04
   0.963E+00 0.133E+01 0.723E+02   -.817E+00 -.120E+01 -.720E+02   -.211E+00 -.175E+00 -.953E-01   0.888E-05 0.179E-05 0.103E-04
   -.430E+01 -.233E+02 0.129E+03   0.423E+01 0.231E+02 -.130E+03   -.439E-01 0.158E+01 -.201E+01   -.899E-05 0.817E-05 -.568E-04
   -.483E+01 0.908E+01 -.129E+03   0.431E+01 -.947E+01 0.129E+03   0.474E+00 -.574E+00 0.198E+01   0.118E-04 -.196E-04 0.239E-04
   0.889E+00 0.500E-01 -.722E+02   -.811E+00 0.559E-01 0.720E+02   -.167E+00 -.194E+00 0.310E+00   -.648E-05 -.591E-05 0.490E-05
   -.961E-01 -.870E-01 -.250E+02   0.822E-01 0.101E+00 0.250E+02   0.248E-01 0.194E-01 0.896E-01   0.117E-05 0.697E-05 0.731E-06
   -.145E+00 -.135E+00 0.248E+02   0.816E-01 0.148E+00 -.249E+02   0.828E-01 0.345E-01 0.310E-01   0.280E-05 -.206E-05 0.330E-04
   0.715E+00 0.111E+01 0.740E+02   -.812E+00 -.126E+01 -.741E+02   -.136E-01 0.742E-01 -.349E-01   -.577E-05 -.382E-05 0.123E-04
   -.811E+01 0.333E+01 0.117E+03   0.840E+01 -.308E+01 -.118E+03   -.219E-01 0.175E+00 0.480E+00   -.507E-05 0.322E-06 -.301E-04
[...]
   0.189E+01 0.458E+00 -.705E+02   -.189E+01 -.270E+00 0.702E+02   0.849E-01 -.263E+00 0.189E+00   0.298E-05 0.127E-04 0.253E-04
   -.953E+01 0.813E+01 -.120E+03   0.950E+01 -.901E+01 0.121E+03   0.358E+00 -.161E+00 -.636E-01   0.232E-04 0.179E-04 0.452E-04
   0.811E+01 0.300E+02 0.102E+03   -.778E+01 -.307E+02 -.101E+03   -.402E-01 -.134E+01 0.185E+01   0.344E-05 0.104E-04 -.476E-04
   -.186E+01 -.194E+01 0.721E+02   0.184E+01 0.206E+01 -.722E+02   0.882E-01 -.176E+00 0.146E+00   -.124E-04 0.122E-04 -.202E-04
   0.183E+00 0.813E+00 0.229E+02   -.222E+00 -.768E+00 -.230E+02   -.477E-02 -.883E-01 0.119E+00   -.208E-05 0.369E-05 -.269E-05
   0.146E+00 0.677E+00 -.227E+02   -.220E+00 -.776E+00 0.230E+02   0.254E-01 0.868E-01 -.173E+00   0.522E-05 0.184E-04 -.148E-04
   -.196E+01 -.203E+01 -.720E+02   0.187E+01 0.184E+01 0.725E+02   -.448E-01 0.314E+00 -.617E+00   0.141E-04 -.492E-05 0.213E-04
   0.111E+02 0.244E+02 -.927E+02   -.118E+02 -.248E+02 0.883E+02   -.101E+01 -.107E+01 -.597E+01   0.398E-05 -.170E-04 0.358E-04
   -.892E+01 0.289E+01 0.115E+03   0.926E+01 -.325E+01 -.115E+03   -.125E+00 -.534E-01 -.167E+00   0.684E-05 -.922E-05 -.421E-04
   0.182E+01 0.554E+00 0.704E+02   -.182E+01 -.495E+00 -.705E+02   0.448E-01 0.793E-01 0.127E-01   0.735E-05 -.688E-05 -.409E-04
   -.239E+00 0.386E+00 0.233E+02   0.222E+00 -.474E+00 -.233E+02   -.140E-02 0.483E-01 -.210E-01   0.340E-06 -.492E-05 -.488E-04
   -.243E+00 0.572E+00 -.234E+02   0.220E+00 -.466E+00 0.233E+02   0.215E-01 -.143E+00 0.944E-01   0.222E-05 -.198E-04 -.374E-05
   0.189E+01 0.458E+00 -.705E+02   -.189E+01 -.270E+00 0.702E+02   0.849E-01 -.263E+00 0.189E+00   0.312E-05 0.811E-05 0.224E-04
   -.953E+01 0.813E+01 -.120E+03   0.950E+01 -.901E+01 0.121E+03   0.358E+00 -.161E+00 -.636E-01   0.290E-04 0.186E-04 0.394E-04
   -.934E+00 -.439E-01 -.103E+02   -.178E-13 -.799E-13 -.512E-12   0.894E+00 0.660E-02 0.102E+02   -.142E-04 -.682E-05 -.303E-03

 POSITION                                       TOTAL-FORCE (eV/Angst)
      4.62078      4.12987      0.00000         0.535922      1.308102      3.318519
     -2.00223      7.87641      2.29428         0.042196     -0.015309     -0.031465
      7.26998      0.38333      4.58856         0.011622      0.005271     -0.002917
      0.64697      4.12987      6.88284        -0.008094     -0.040603      0.003018
     -5.97605      7.87641      9.17712         0.056123      0.046278      0.140567
      3.29616      0.38333     11.47140        -1.256893      1.239701     -3.567476
     15.21760      0.38332      0.00000        -0.651733     -0.708198     -0.460921
      8.59458      4.12987      2.29428         0.033954     -0.020239      0.110056
      1.97157      7.87641      4.58856        -0.008674     -0.038175     -0.003211
     11.24379      0.38333      6.88284        -0.030228      0.040528      0.009887
      4.62077      4.12987      9.17712        -0.002227      0.013989     -0.109209
     -2.00225      7.87641     11.47140        -0.146600     -0.196547     -0.038170
     -5.97604      7.87641      0.00000         0.801746     -0.038336     10.836297
      3.29618      0.38333      2.29428         0.057091      0.083294      0.081326
     -3.32684      4.12987      4.58856        -0.032653      0.001457     -0.009382
     -9.94986      7.87641      6.88284        -0.023075     -0.012971      0.007041
     15.21759      0.38333      9.17712         0.098357      0.063179     -0.196540
      8.59457      4.12987     11.47140         0.444979     -1.581052     -3.193290
      7.26999      0.38332      0.00000        -0.651733     -0.708198     -0.460921
      0.64697      4.12987      2.29428         0.033954     -0.020239      0.110056
     -5.97605      7.87641      4.58856        -0.008674     -0.038175     -0.003211
      3.29617      0.38333      6.88284        -0.030228      0.040528      0.009887
     -3.32685      4.12987      9.17712        -0.002227      0.013989     -0.109209
     -9.94986      7.87641     11.47140        -0.146600     -0.196547     -0.038170
      1.97158      7.87641      0.00000         0.801746     -0.038336     10.836297
     11.24379      0.38333      2.29428         0.057091      0.083294      0.081326
      4.62078      4.12987      4.58856        -0.032653      0.001457     -0.009382
     -2.00224      7.87641      6.88284        -0.023075     -0.012971      0.007041
      7.26998      0.38333      9.17712         0.098357      0.063179     -0.196540
      0.64696      4.12987     11.47140         0.444979     -1.581052     -3.193290
     -3.32683      4.12987      0.00000         0.535922      1.308102      3.318519
     -9.94985      7.87641      2.29428         0.042196     -0.015309     -0.031465
     15.21759      0.38333      4.58856         0.011622      0.005271     -0.002917
      8.59458      4.12987      6.88284        -0.008094     -0.040603      0.003018
      1.97156      7.87641      9.17712         0.056123      0.046278      0.140567
     11.24378      0.38333     11.47140        -1.256893      1.239701     -3.567476
      7.26999      3.19323      0.00000        -1.130145      0.153588      9.663261
      0.64697      6.93977      2.29428        -0.025028      0.008389      0.071423
     -5.97604     10.68632      4.58856        -0.011860     -0.003348      0.009100
      3.29617      3.19323      6.88284         0.028598      0.012872     -0.008396
     -3.32685      6.93978      9.17712        -0.009033     -0.022318     -0.115956
     -9.94986     10.68632     11.47139         1.361298     -1.241277     -3.186789
     -3.32683      6.93977      0.00000        -0.043223     -0.966528      2.330949
     -9.94985     10.68632      2.29428        -0.088120     -0.088189      0.057367
     -0.67763      3.19323      4.58856         0.011143      0.033619      0.005252
     -7.30065      6.93978      6.88284         0.019448      0.047992     -0.011773
    -13.92367     10.68632      9.17712        -0.110862     -0.073017     -0.139794
     11.24378      3.19324     11.47140         0.267454      0.423342      0.101923
    -13.92365     10.68631      0.00000         0.735443      0.798913     -0.516061
     11.24379      3.19323      2.29428        -0.026946     -0.000010     -0.038906
      4.62077      6.93978      4.58856         0.035746      0.007425      0.004657
     -2.00224     10.68632      6.88284         0.025550     -0.036706      0.001811
      7.26997      3.19324      9.17712        -0.064966     -0.049338      0.160802
      0.64696      6.93978     11.47140        -0.113005      1.392925     -2.612306
      4.62078      6.93977      0.00000        -0.043223     -0.966528      2.330949
     -2.00224     10.68632      2.29428        -0.088120     -0.088189      0.057367
      7.26998      3.19323      4.58856         0.011143      0.033619      0.005252
      0.64696      6.93978      6.88284         0.019448      0.047992     -0.011773
     -5.97605     10.68632      9.17712        -0.110862     -0.073017     -0.139794
      3.29616      3.19324     11.47139         0.267454      0.423342      0.101923
[...]
     -2.24803      7.66203     19.53798        -0.000918     -0.036453     -0.037191
     -4.23493      4.85212     21.53831         0.087287     -0.074687     -0.039553
      9.67339      2.04222     23.53864         0.336267     -1.048162      0.164950
    -12.18255     10.47194     13.53697         0.287913     -2.132391      3.067690
      1.72578      7.66203     15.53731         0.069060     -0.050184      0.054527
     -0.26113      4.85212     17.53764        -0.043092     -0.042742      0.048516
     -2.24803      2.04222     19.53798        -0.048081     -0.012144      0.055046
     -4.23493     10.47194     21.53831        -0.131363      0.128641     -0.113412
     -6.22183      7.66203     23.53864        -1.643567     -1.484938    -10.371984
     -4.23493      4.85212     13.53697         0.215443     -0.413232     -0.209704
      9.67339      2.04222     15.53731         0.042544      0.137681     -0.103762
     -8.20874     10.47194     17.53764        -0.018609     -0.039116     -0.072198
    -10.19564      7.66203     19.53798        -0.000918     -0.036453     -0.037191
      3.71268      4.85212     21.53831         0.087287     -0.074687     -0.039553
      1.72578      2.04222     23.53864         0.336267     -1.048162      0.164950
    total drift:                               -0.039486     -0.037286     -0.126509

  FREE ENERGIE OF THE ION-ELECTRON SYSTEM (eV)
  free  energy   TOTEN  =      -668.58256157 eV

  energy  without entropy=     -668.57959969  energy(sigma->0) =     -668.58108063