 vasp.6.4.3 19Mar24 (build Oct 22 2024 11:23:12) complex

 executed on             LinuxIFC date 2025.06.03  23:15:49

 INCAR:
   SYSTEM = Si and Ge interface calculation
   ISTART = 0
   ICHARG = 2
   LWAVE = .FALSE.
   LREAL = AUTO
   ENCUT = 700
   ENAUG = 900
   ADDGRID = .TRUE.
   LMAXMIX = 6
   LASPH = .TRUE.
   LMIXTAU = .TRUE.
   NCORE = 16
   NELM = 100
   NBANDS = 116
   EDIFF = 1d-7
   AMIX = 0.6
   ISMEAR = 0
   SIGMA = 0.01
   NELECT = 192
   ISPIN = 2
   NUPDOWN = 1
   LVTOT = .FALSE.
   LVHAR = .TRUE.

 POTCAR:    PAW_PBE Ge 05Jan2001
|           W    W    AA    RRRRR   N    N  II  N    N   GGGG   !!!           |
|           W    W   A  A   R    R  NN   N  II  NN   N  G    G  !!!           |
|           W    W  A    A  R    R  N N  N  II  N N  N  G       !!!           |
|           W WW W  AAAAAA  RRRRR   N  N N  II  N  N N  G  GGG   !            |
|           WW  WW  A    A  R   R   N   NN  II  N   NN  G    G                |
|           W    W  A    A  R    R  N    N  II  N    N   GGGG   !!!           |
|     You use a magnetic or noncollinear calculation, but did not specify     |
|     the initial magnetic moment with the MAGMOM tag. Note that a            |
|     default of 0.021 will be used for all atoms. This ferromagnetic         |
|     setup may break the symmetry of the crystal, in particular it may       |
|     rule out finding an antiferromagnetic solution. Thence, we              |
|     recommend setting the initial magnetic moment manually or verifying     |
|     carefully that this magnetic setup is desired.                          |

 POTCAR:    PAW_PBE Ge 05Jan2001
   VRHFIN =Ge: s2p2

   TITEL  = PAW_PBE Ge 05Jan2001
   POMASS =   72.610; ZVAL   =    4.000    mass and valenz
   ENMAX  =  173.807; ENMIN  =  130.355 eV

 Optimization of the real space projectors (new method)

 maximal supplied QI-value         = 16.25
 optimisation between [QCUT,QGAM] = [ 13.49, 26.98] = [ 50.95,203.80] Ry
 Optimized for a Real-space Cutoff    1.25 Angstroem

   l    n(q)    QCUT    max X(q) W(low)/X(q) W(high)/X(q)  e(spline)
   0     10    13.489    65.336    0.91E-04    0.11E-03    0.34E-06
   0     10    13.489    52.220    0.89E-04    0.11E-03    0.34E-06
   1     10    13.489    36.409    0.22E-03    0.27E-03    0.14E-06
   1     10    13.489    21.334    0.21E-03    0.27E-03    0.14E-06
   2      9    13.489     4.673    0.11E-03    0.12E-03    0.19E-06
  PAW_PBE Ge 05Jan2001                  :

 POSCAR: Ge+Ge
  positions in direct lattice

 exchange-correlation table for PE
   RHO(1)=    0.500       N(1)  =     2000
   RHO(2)=  100.500       N(2)  =     4000

 ion  position               nearest neighbor table
   1  0.006  0.994  0.000-  37 2.38  34 2.45  10 2.45  47 2.45  46 2.79
   2  0.172  0.828  0.300-  11 2.45  16 2.45  34 2.45  35 2.45
   3  0.339  0.661  0.600-  17 2.45  12 2.45  36 2.45  35 2.45
   4  0.672  0.328  0.000-  42 1.21  13 2.45  28 2.45
   5  0.839  0.161  0.300-  29 2.45  28 2.45  14 2.45  10 2.45
   6  0.006  0.994  0.600-  37 1.46  30 2.45  29 2.45  15 2.45  11 2.45  46 2.79
   7  0.339  0.661  0.000-  44 2.00  38 2.28  48 2.35  31 2.45  16 2.45  41 2.70  45 2.76
   8  0.506  0.494  0.300-  32 2.45  13 2.45  31 2.45  17 2.45  48 2.87
   9  0.672  0.328  0.600-  33 2.45  14 2.45  32 2.45  18 2.45
  10  0.089  0.161  0.150-   1 2.45  22 2.45  23 2.45   5 2.45
  11  0.256  0.994  0.450-   2 2.45  24 2.45  23 2.45   6 2.45
  12  0.422  0.828  0.750-  44 1.46  40 1.77   3 2.45  24 2.45  38 2.54  41 2.92
  13  0.756  0.494  0.150-  42 2.11  45 2.28   8 2.45  25 2.45   4 2.45  26 2.45  48 2.70
  14  0.922  0.328  0.450-  26 2.45   9 2.45  27 2.45   5 2.45
  15  0.089  0.161  0.750-  46 2.02  37 2.27  27 2.45   6 2.45  43 2.48
  16  0.422  0.828  0.150-  44 2.38   2 2.45  19 2.45   7 2.45  20 2.45
  17  0.589  0.661  0.450-   3 2.45  20 2.45  21 2.45   8 2.45
  18  0.756  0.494  0.750-  42 2.11  21 2.45   9 2.45
  19  0.506  0.994  0.000-  40 2.38  28 2.45  16 2.45  44 2.45  43 2.79
  20  0.672  0.828  0.300-  29 2.45  34 2.45  17 2.45  16 2.45
  21  0.839  0.661  0.600-  35 2.45  18 2.45  30 2.45  17 2.45
  22  0.172  0.328  0.000-  39 1.21  10 2.45  31 2.45
  23  0.339  0.161  0.300-  28 2.45  10 2.45  11 2.45  32 2.45
  24  0.506  0.994  0.600-  40 1.46  29 2.45  11 2.45  33 2.45  12 2.45  43 2.79
  25  0.839  0.661  0.000-  47 2.00  41 2.28  45 2.35  13 2.45  34 2.45  38 2.70  48 2.76
  26  0.006  0.494  0.300-  31 2.45  14 2.45  35 2.45  13 2.45  45 2.87
  27  0.172  0.328  0.600-  14 2.45  15 2.45  36 2.45  32 2.45
  28  0.589  0.161  0.150-   5 2.45  23 2.45  19 2.45   4 2.45
  29  0.756  0.994  0.450-  20 2.45   5 2.45   6 2.45  24 2.45
  30  0.922  0.828  0.750-  47 1.46  37 1.77   6 2.45  21 2.45  41 2.54  38 2.92
  31  0.256  0.494  0.150-  39 2.11  48 2.28   7 2.45  26 2.45   8 2.45  22 2.45  45 2.70
  32  0.422  0.328  0.450-   8 2.45   9 2.45  23 2.45  27 2.45
  33  0.589  0.161  0.750-  43 2.02  40 2.27   9 2.45  24 2.45  46 2.48
  34  0.922  0.828  0.150-  47 2.38   1 2.45  20 2.45  25 2.45   2 2.45
  35  0.089  0.661  0.450-  21 2.45  26 2.45   2 2.45   3 2.45
  36  0.256  0.494  0.750-  39 2.11   3 2.45  27 2.45
  37  0.963  0.973  0.750-   6 1.46  30 1.77  15 2.27   1 2.38  46 2.45  43 2.45  47 2.45
  38  0.574  0.696  0.850-   7 2.28  47 2.45  44 2.45  48 2.45  12 2.54  25 2.70  30 2.92
  39  0.185  0.418  0.950-  22 1.21  36 2.11  31 2.11  48 2.45  45 2.45
  40  0.463  0.973  0.750-  24 1.46  12 1.77  33 2.27  19 2.38  43 2.45  46 2.45  44 2.45
  41  0.074  0.696  0.850-  25 2.28  44 2.45  47 2.45  45 2.45  30 2.54   7 2.70  12 2.92
  42  0.685  0.418  0.950-   4 1.21  18 2.11  13 2.11  45 2.45  48 2.45
  43  0.768  0.085  0.800-  33 2.02  37 2.45  40 2.45  15 2.48  24 2.79  19 2.79
  44  0.380  0.807  0.900-  12 1.46   7 2.00  16 2.38  41 2.45  38 2.45  40 2.45  19 2.45
  45  0.991  0.529  0.000-  13 2.28  25 2.35  42 2.45  39 2.45  41 2.45  31 2.70   7 2.76  26 2.87

  46  0.268  0.085  0.800-  15 2.02  37 2.45  40 2.45  33 2.48   6 2.79   1 2.79
  47  0.880  0.807  0.900-  30 1.46  25 2.00  34 2.38  38 2.45  41 2.45  37 2.45   1 2.45
  48  0.491  0.529  0.000-  31 2.28   7 2.35  39 2.45  42 2.45  38 2.45  13 2.70  25 2.76   8 2.87

  LATTYP: Found a base centered orthorhombic cell.
 ALAT       =     8.0013380050
 B/A-ratio  =     2.9999998809
 C/A-ratio  =     1.1785114466

  Lattice vectors:

 A1 = (   4.0006690030, -12.0020065310,   0.0000000000)
 A2 = (   4.0006690020,  12.0020065310,   0.0000000000)
 A3 = (   0.0000000000,   0.0000000000,   9.4296684270)

Analysis of symmetry for initial positions (statically):
 Subroutine PRICEL returns following result:

  LATTYP: Found a simple orthorhombic cell.
 ALAT       =     4.0006686824
 B/A-ratio  =     2.3570230818
 C/A-ratio  =     3.0000001209

[...]

   2 primitive cells build up your supercell.

 Routine SETGRP: Setting up the symmetry group for a
 base centered orthorhombic supercell.

 Subroutine GETGRP returns: Found  1 space group operations
 (whereof  1 operations were pure point group operations)
 out of a pool of  8 trial point group operations.

The static configuration has the point symmetry C_1 .

Analysis of symmetry for dynamics (positions and initial velocities):
 Subroutine PRICEL returns following result:

[...]

The dynamic configuration has the point symmetry C_1 .

Analysis of structural, dynamic, and magnetic symmetry:
 Subroutine PRICEL returns following result:

  LATTYP: Found a simple orthorhombic cell.
 ALAT       =     4.0006686824
 B/A-ratio  =     2.3570230818
 C/A-ratio  =     3.0000001209

  Lattice vectors:

 A1 = (  -4.0006686824,   0.0000000000,   0.0000000000)
 A2 = (   0.0000000000,   0.0000000000,   9.4296684270)
 A3 = (  -0.0000003206,  12.0020065310,   0.0000000000)

   2 primitive cells build up your supercell.

 Routine SETGRP: Setting up the symmetry group for a
 base centered orthorhombic supercell.

 Subroutine GETGRP returns: Found  1 space group operations
 (whereof  1 operations were pure point group operations)
 out of a pool of  8 trial point group operations.

The overall configuration has the point symmetry C_1 .

 Subroutine INISYM returns: Found  1 space group operations
 (whereof  1 operations are pure point group operations),
 and found     2 'primitive' translations

                                     Primitive cell

  volume of cell :     452.7754

  direct lattice vectors                    reciprocal lattice vectors
    -4.000668682  0.000000000  0.000000000    -0.249958214 -0.000000007  0.000000000
     0.000000000  0.000000000  9.429668427     0.000000000  0.000000000  0.106048268
    -0.000000321 12.002006531  0.000000000     0.000000000  0.083319401  0.000000000

  length of vectors
     4.000668682  9.429668427 12.002006531     0.249958214  0.106048268  0.083319401

  position of ions in fractional coordinates (direct lattice)
     0.982916512  0.000000000  0.994305491
     0.482916447  0.299999923  0.827638865
     0.982916220  0.599999905  0.660972118
     0.982916535  0.000000000  0.327638805
     0.482916460  0.299999923  0.160972118
     0.982916413  0.599999905  0.994305432
     0.982916460  0.000000000  0.660972118
     0.482916413  0.299999923  0.494305432
     0.982916447  0.599999905  0.327638745
     0.982916460  0.149999961  0.160972148
     0.482916234  0.449999899  0.994305491
     0.982916029  0.749999940  0.827638805
     0.982916492  0.149999961  0.494305491
     0.482916267  0.449999899  0.327638805
     0.982916311  0.749999940  0.160972089
     0.982916565  0.149999961  0.827638865
     0.482916580  0.449999899  0.660972118
     0.982916373  0.749999940  0.494305432
     0.047768438  0.749999881  0.973461866
     0.547768685  0.849999905  0.695684075
     0.047768623  0.949999928  0.417906225
     0.547768493  0.799999833  0.084572934
     0.047768571  0.899999976  0.806795120
     0.547768674  0.000000000  0.529017210

  ion indices of the primitive-cell ions
   primitive index   ion index
                 1           1
                 2           2
                 3          21
                 4          22
                 5           5
                 6           6
                 7          25
                 8          26
                 9          27
                10          10
                11          29
                12          30
                13          31
                14          14
                15          15
                16          34
                17          35
                18          36
                19          37
                20          41
                21          39
                22          43
                23          47
                24          45

 KPOINTS: Automatic KPOINTS generated

Automatic generation of k-mesh.
 Grid dimensions read from file:
 generate k-points for:    4    3    3

 Generating k-lattice:

  Cartesian coordinates                     Fractional coordinates (reciprocal lattice)
     0.031244774  0.010414925  0.000000000     0.250000000 -0.000000000  0.000000000
     0.000000000  0.027773134  0.000000000     0.000000000  0.333333333  0.000000000
[...]
     42      -1.3256      1.00000
     43      -1.2359      1.00000
     44      -1.0069      1.00000
     45      -0.9795      1.00000
     46      -0.7891      1.00000
     47      -0.6925      1.00000
     48      -0.5547      1.00000
     49      -0.4853      1.00000
     50      -0.3589      1.00000
     51      -0.3273      1.00000
     52      -0.0297      1.00000
     53       0.3311      1.00000
     54       0.5365      1.00000
     55       0.6893      1.00000
     56       0.7971      1.00000
     57       0.8590      1.00000
     58       1.1053      1.00000
     59       1.1497      1.00000
     60       1.2407      1.00000
[...]
    102       6.0733      0.00000
    103       6.1365      0.00000
    104       6.3468      0.00000
    105       6.4252      0.00000
    106       6.5120      0.00000
    107       6.6333      0.00000
    108       6.6947      0.00000
    109       6.8731      0.00000
    110       6.9759      0.00000
    111       7.1573      0.00000
    112       7.1782      0.00000
    113       7.2404      0.00000
    114       7.4023      0.00000
    115       7.4416      0.00000
    116       7.4913      0.00000
 Fermi energy:         5.4697048527

 spin component 2

[...]

 k-point    19 :      -0.2500   -0.3333    0.3333
  band No.  band energies     occupation
      1     -12.3234      1.00000
      2     -11.9534      1.00000
      3     -10.9465      1.00000
      4     -10.2174      1.00000
      5     -10.1332      1.00000
      6      -9.5940      1.00000
      7      -8.0374      1.00000
      8      -7.4351      1.00000
      9      -7.1795      1.00000
     10      -6.8182      1.00000
     11      -6.7580      1.00000
     12      -6.4508      1.00000
     13      -6.2784      1.00000
     14      -6.0897      1.00000
     15      -5.9050      1.00000
     16      -5.7224      1.00000
     17      -5.5077      1.00000
     18      -5.3672      1.00000
     19      -5.3085      1.00000
     20      -5.0878      1.00000
     21      -4.9806      1.00000
     22      -4.9044      1.00000
     23      -4.7496      1.00000
     24      -4.5308      1.00000
     25      -4.3782      1.00000
     26      -4.2252      1.00000
     27      -4.1398      1.00000
     28      -3.9669      1.00000
     29      -3.7238      1.00000
     30      -3.6025      1.00000
     31      -3.3655      1.00000
     32      -3.1778      1.00000
     33      -2.5199      1.00000
     34      -2.5156      1.00000
     35      -2.4354      1.00000
     36      -2.1922      1.00000
     37      -2.0455      1.00000
     38      -1.8474      1.00000
     39      -1.6585      1.00000
     40      -1.5670      1.00000
     41      -1.3641      1.00000
     42      -1.3049      1.00000
     43      -1.2143      1.00000
     44      -0.9850      1.00000
     45      -0.9609      1.00000
     46      -0.7677      1.00000
     47      -0.6708      1.00000
     48      -0.5350      1.00000
     49      -0.4653      1.00000
     50      -0.3400      1.00000
     51      -0.3061      1.00000
     52      -0.0083      1.00000
     53       0.3515      1.00000
     54       0.5565      1.00000
     55       0.7098      1.00000
     56       0.8153      1.00000
     57       0.8791      1.00000
     58       1.1249      1.00000
     59       1.1698      1.00000
     60       1.2617      1.00000
[...]
    102       6.0984      0.00000
    103       6.1626      0.00000
    104       6.3723      0.00000
    105       6.4486      0.00000
    106       6.5380      0.00000
    107       6.6558      0.00000
    108       6.7184      0.00000
    109       6.8947      0.00000
    110       6.9973      0.00000
    111       7.1813      0.00000
    112       7.2014      0.00000
    113       7.2628      0.00000
    114       7.4272      0.00000
    115       7.4651      0.00000
    116       7.4999      0.00000

 soft charge-density along one line, spin component           1
         0         1         2         3         4         5         6         7         8         9
 total charge-density along one line

 soft charge-density along one line, spin component           2
         0         1         2         3         4         5         6         7         8         9
 total charge-density along one line

------------------------ aborting loop because EDIFF is reached ----------------------------------------

  FORCE on cell =-STRESS in cart. coord.  units (eV):
  Direction    XX          YY          ZZ          XY          YZ          ZX
  Alpha Z   486.29936   486.29936   486.29936
  Ewald   -1791.38857 -1255.27848 -1780.99220   -82.58237  -435.88299   -34.38230
  Hartree   463.22572   369.93039    -4.82680    -1.30673  -130.15760     2.20928
  E(xc)    -700.45729  -705.99153  -707.89036     1.54308     3.85118     1.52377
  Local   -1130.83423 -1241.67609  -341.28852    25.36669   404.61396    10.60744
  n-local  1136.42860  1206.58825  1227.49477   -14.84816   -38.00897   -13.96798
  augment    51.20165    83.30599    95.81615    -6.14283   -18.73004    -4.53552
  Kinetic  1663.39440  1600.53778  1607.07549     5.00634     8.05208     5.41301
  Fock        0.00000     0.00000     0.00000     0.00000     0.00000     0.00000
  Total     177.86965   543.71568   581.68789   -72.96399  -206.26238   -33.13229
  in kB     314.70202   961.98775  1029.17140  -129.09406  -364.93684   -58.62044

 VOLUME and BASIS-vectors are now :
  energy-cutoff  :      700.00
  volume of cell :      905.55
      direct lattice vectors                 reciprocal lattice vectors
     8.001338005  0.000000000  0.000000000     0.124979097  0.041659701  0.000000000
    -4.000669003 12.002006531  0.000000000     0.000000000  0.083319401  0.000000000
     0.000000000  0.000000000  9.429668427     0.000000000  0.000000000  0.106048268

  length of vectors
     8.001338005 12.651225760  9.429668427     0.131739536  0.083319401  0.106048268

 FORCES acting on ions
    electron-ion (+dipol)            ewald-force                    non-local-force                 convergence-correction
   -.149E+01 -.411E+02 -.674E+02   0.138E+01 0.426E+02 0.680E+02   0.618E+00 0.845E+00 0.162E+01   0.225E-05 -.815E-04 -.189E-04
   -.419E+00 -.983E+01 -.126E+02   -.129E+00 0.989E+01 0.128E+02   0.478E+00 -.324E-01 0.726E-02   0.557E-05 0.169E-04 0.472E-04
   0.127E+01 0.243E+02 0.533E+02   -.148E+01 -.244E+02 -.539E+02   0.111E+00 -.452E-01 -.182E+00   0.207E-05 0.744E-04 0.557E-05
   -.802E+01 0.798E+02 -.173E+02   0.279E+02 -.166E+03 0.536E+02   0.868E+01 -.384E+02 0.166E+02   0.546E-05 -.476E-04 0.261E-04
   -.314E-01 -.420E+01 -.214E+01   -.206E-01 0.432E+01 0.203E+01   0.248E-01 -.896E-01 0.870E-01   -.368E-05 -.684E-04 0.310E-04
   -.673E+01 -.207E+02 0.103E+03   0.133E+02 0.281E+02 -.144E+03   0.553E+01 0.473E+01 -.287E+02   -.346E-05 -.109E-03 -.815E-07
   0.912E+01 0.946E+01 -.535E+02   -.102E+02 -.119E+02 0.552E+02   -.904E+00 -.360E+01 0.436E+01   -.570E-05 0.129E-03 -.244E-04
   -.700E+00 0.143E+02 -.424E+02   0.630E+00 -.145E+02 0.431E+02   0.966E-01 -.165E+00 0.330E+00   -.307E-05 0.542E-04 0.587E-04
   0.119E+00 -.197E+01 0.244E+02   -.138E-01 0.210E+01 -.240E+02   0.107E-01 -.789E-02 -.715E+00   -.252E-05 0.206E-04 -.447E-04
   0.979E-01 0.277E+00 -.238E+02   -.390E-01 -.133E+00 0.235E+02   -.551E-01 0.228E+00 0.203E+00   0.545E-05 -.639E-04 0.651E-04
   0.120E+01 -.118E+02 0.401E+02   -.627E+00 0.119E+02 -.402E+02   -.765E+00 0.573E-01 -.793E+00   0.516E-05 -.593E-04 0.875E-05
   -.100E+02 0.242E+02 0.760E+02   0.183E+02 -.285E+02 -.114E+03   0.640E+01 -.568E+01 -.280E+02   -.743E-05 0.372E-04 -.171E-04
   0.456E+01 0.141E+02 -.888E+02   -.485E+01 -.123E+02 0.929E+02   -.814E+00 0.403E+00 0.470E+01   -.328E-06 0.689E-04 0.119E-03
   -.116E+00 0.242E+01 0.329E+01   0.257E-01 -.264E+01 -.315E+01   0.647E-01 0.664E-01 -.148E+00   0.121E-05 0.154E-04 -.147E-04
   0.105E+02 -.753E+02 0.969E+01   -.127E+02 0.792E+02 -.967E+01   -.353E+01 0.545E+01 -.134E+01   0.117E-04 -.983E-04 -.440E-04
   -.128E+01 -.223E+02 -.632E+02   0.175E+01 0.230E+02 0.650E+02   -.104E+00 -.227E+00 0.816E+00   -.187E-05 0.149E-04 0.171E-04
   0.265E+00 0.105E+02 0.121E+02   0.146E+00 -.103E+02 -.118E+02   -.438E+00 -.278E+00 -.557E+00   -.295E-05 0.461E-04 0.157E-04
   -.522E+00 0.239E+02 0.675E+02   0.658E+00 -.236E+02 -.693E+02   0.554E+00 0.207E+01 -.298E+01   -.453E-06 0.939E-04 -.895E-04
   -.149E+01 -.411E+02 -.674E+02   0.138E+01 0.426E+02 0.680E+02   0.618E+00 0.845E+00 0.162E+01   -.467E-05 -.938E-04 -.223E-04
   -.419E+00 -.983E+01 -.126E+02   -.129E+00 0.989E+01 0.128E+02   0.478E+00 -.324E-01 0.726E-02   -.107E-04 0.141E-04 0.466E-04
   0.127E+01 0.243E+02 0.533E+02   -.148E+01 -.244E+02 -.539E+02   0.111E+00 -.452E-01 -.182E+00   0.252E-05 0.686E-04 0.277E-05
   -.802E+01 0.798E+02 -.173E+02   0.279E+02 -.166E+03 0.536E+02   0.868E+01 -.384E+02 0.166E+02   0.515E-05 -.397E-04 0.222E-04
   -.313E-01 -.420E+01 -.214E+01   -.207E-01 0.432E+01 0.203E+01   0.248E-01 -.896E-01 0.870E-01   0.240E-05 -.703E-04 0.326E-04
   -.673E+01 -.207E+02 0.103E+03   0.133E+02 0.281E+02 -.144E+03   0.553E+01 0.473E+01 -.287E+02   -.114E-04 -.114E-03 0.519E-05
   0.912E+01 0.946E+01 -.535E+02   -.102E+02 -.119E+02 0.552E+02   -.904E+00 -.360E+01 0.436E+01   -.332E-05 0.120E-03 -.229E-04
   -.700E+00 0.143E+02 -.424E+02   0.630E+00 -.145E+02 0.431E+02   0.966E-01 -.165E+00 0.330E+00   -.171E-05 0.559E-04 0.579E-04
   0.119E+00 -.197E+01 0.244E+02   -.137E-01 0.210E+01 -.240E+02   0.107E-01 -.789E-02 -.715E+00   0.423E-06 0.222E-04 -.425E-04
   0.979E-01 0.277E+00 -.238E+02   -.390E-01 -.133E+00 0.235E+02   -.551E-01 0.228E+00 0.203E+00   -.325E-05 -.770E-04 0.630E-04
   0.120E+01 -.118E+02 0.401E+02   -.627E+00 0.119E+02 -.402E+02   -.765E+00 0.573E-01 -.793E+00   -.643E-05 -.633E-04 0.938E-05
   -.100E+02 0.242E+02 0.760E+02   0.183E+02 -.285E+02 -.114E+03   0.640E+01 -.568E+01 -.280E+02   -.509E-05 0.300E-04 -.238E-04
   0.456E+01 0.141E+02 -.888E+02   -.485E+01 -.123E+02 0.929E+02   -.814E+00 0.403E+00 0.470E+01   -.331E-06 0.672E-04 0.114E-03
   -.116E+00 0.242E+01 0.329E+01   0.257E-01 -.264E+01 -.315E+01   0.647E-01 0.664E-01 -.148E+00   0.231E-06 0.122E-04 -.168E-04
   0.105E+02 -.753E+02 0.969E+01   -.127E+02 0.792E+02 -.967E+01   -.353E+01 0.545E+01 -.134E+01   0.476E-05 -.111E-03 -.417E-04
   -.128E+01 -.223E+02 -.632E+02   0.175E+01 0.230E+02 0.650E+02   -.104E+00 -.227E+00 0.816E+00   0.817E-06 0.411E-05 0.273E-04
   0.265E+00 0.105E+02 0.121E+02   0.146E+00 -.103E+02 -.118E+02   -.438E+00 -.278E+00 -.557E+00   0.261E-05 0.473E-04 0.161E-04
   -.522E+00 0.239E+02 0.675E+02   0.658E+00 -.236E+02 -.693E+02   0.554E+00 0.207E+01 -.298E+01   -.111E-05 0.924E-04 -.851E-04
   0.186E+02 -.286E+02 -.233E+01   -.285E+02 0.304E+02 0.398E+02   -.645E+01 0.355E+01 0.254E+02   0.182E-04 -.122E-03 -.808E-04
   -.159E+02 0.157E+02 0.335E+02   0.176E+02 -.165E+02 -.357E+02   0.125E+01 -.292E+00 -.423E+00   -.137E-05 0.105E-03 -.646E-04
   0.176E+02 0.417E+02 0.281E+02   -.393E+02 0.387E+02 -.668E+02   -.918E+01 0.336E+02 -.158E+02   -.936E-05 0.916E-05 -.316E-04
   0.186E+02 -.286E+02 -.233E+01   -.285E+02 0.304E+02 0.398E+02   -.645E+01 0.355E+01 0.254E+02   0.174E-04 -.127E-03 -.679E-04
   -.159E+02 0.157E+02 0.335E+02   0.176E+02 -.165E+02 -.357E+02   0.125E+01 -.292E+00 -.423E+00   0.140E-04 0.103E-03 -.640E-04
   0.176E+02 0.417E+02 0.281E+02   -.393E+02 0.387E+02 -.668E+02   -.918E+01 0.336E+02 -.158E+02   -.106E-04 0.150E-04 -.326E-04
   -.202E+02 -.482E+02 -.249E+02   0.228E+02 0.473E+02 0.253E+02   0.436E+01 -.703E+00 0.338E+01   -.139E-04 -.996E-04 -.364E-04
   0.173E+02 -.202E+02 -.444E+02   -.258E+02 0.149E+02 0.804E+02   -.573E+01 -.585E+00 0.251E+02   0.155E-05 0.450E-04 -.993E-04
   -.173E+02 0.212E+02 -.110E+02   0.192E+02 -.217E+02 0.100E+02   0.204E+01 0.154E+01 -.808E+00   0.186E-04 0.110E-03 0.670E-06
   -.202E+02 -.482E+02 -.249E+02   0.228E+02 0.473E+02 0.253E+02   0.436E+01 -.703E+00 0.338E+01   0.479E-05 -.962E-04 -.377E-04
   0.173E+02 -.202E+02 -.444E+02   -.258E+02 0.149E+02 0.804E+02   -.573E+01 -.585E+00 0.251E+02   -.515E-06 0.301E-04 -.106E-03
   -.173E+02 0.212E+02 -.110E+02   0.192E+02 -.217E+02 0.100E+02   0.204E+01 0.154E+01 -.808E+00   0.108E-04 0.109E-03 0.929E-06
   -.420E+01 -.497E+01 -.431E+01   -.107E-13 -.178E-13 0.249E-13   0.448E+01 0.502E+01 0.433E+01   0.278E-04 0.917E-04 -.336E-03

 POSITION                                       TOTAL-FORCE (eV/Angst)
     -3.93232     11.93366      0.00000         0.498074      2.379530      2.157167
     -1.93199      9.93333      2.82890        -0.075779      0.025727      0.223039
      0.06835      7.93299      5.65780        -0.109764     -0.161957     -0.742692
      4.06901      3.93232      0.00000        28.564170   -124.733099     52.969654
      6.06935      1.93199      2.82890        -0.033020      0.029643     -0.022331
     -3.93232     11.93366      5.65780        12.060236     12.149015    -69.006842
      0.06835      7.93299      0.00000        -2.014988     -5.991292      6.070626
      2.06868      5.93266      2.82890         0.021165     -0.367732      1.030357
      4.06902      3.93232      5.65780         0.110320      0.124389     -0.290572
      0.06835      1.93199      1.41445        -0.002060      0.371087     -0.038810
     -1.93199     11.93366      4.24335        -0.192879      0.137075     -0.835879
      0.06835      9.93333      7.07225        14.708617     -9.997352    -65.622700
      4.06901      5.93266      1.41445        -1.114475      2.206349      8.749384
      6.06935      3.93232      4.24335        -0.031768     -0.153573     -0.008055
      0.06835      1.93199      7.07225        -5.706483      9.409192     -1.313019
      0.06834      9.93333      1.41445         0.367612      0.445089      2.611052
      2.06868      7.93299      4.24335        -0.033502     -0.010185     -0.261595
      4.06901      5.93266      7.07225         0.683076      2.382503     -4.765917
      0.06835     11.93366      0.00000         0.498074      2.379530      2.157167
      2.06868      9.93333      2.82890        -0.075779      0.025727      0.223039
      4.06902      7.93299      5.65780        -0.109764     -0.161957     -0.742692
      0.06835      3.93232      0.00000        28.564170   -124.733099     52.969654
      2.06868      1.93199      2.82890        -0.033020      0.029643     -0.022331
      0.06835     11.93366      5.65780        12.060236     12.149015    -69.006842
      4.06901      7.93299      0.00000        -2.014988     -5.991292      6.070626
     -1.93199      5.93266      2.82890         0.021165     -0.367732      1.030357
      0.06835      3.93232      5.65780         0.110320      0.124389     -0.290572
      4.06901      1.93199      1.41445        -0.002060      0.371087     -0.038810
      2.06868     11.93366      4.24335        -0.192879      0.137075     -0.835879
      4.06902      9.93333      7.07225        14.708617     -9.997352    -65.622700
      0.06835      5.93266      1.41445        -1.114475      2.206349      8.749384
      2.06868      3.93232      4.24335        -0.031768     -0.153573     -0.008055
      4.06902      1.93199      7.07225        -5.706483      9.409192     -1.313019
      4.06901      9.93333      1.41445         0.367612      0.445089      2.611052
     -1.93199      7.93299      4.24335        -0.033502     -0.010185     -0.261595
      0.06835      5.93266      7.07225         0.683076      2.382503     -4.765917
      3.80956     11.68350      7.07225       -16.357018      5.348627     62.901933
      1.80923      8.34960      8.01522         2.876255     -1.077928     -2.666840
     -0.19111      5.01571      8.95818       -30.831493    114.030222    -54.394401
     -0.19111     11.68350      7.07225       -16.357018      5.348627     62.901933
     -2.19144      8.34960      8.01522         2.876255     -1.077928     -2.666840
      3.80956      5.01571      8.95818       -30.831493    114.030222    -54.394401
      5.80990      1.01504      7.54373         6.918568     -1.687571      3.828488
     -0.19111      9.68316      8.48670       -14.255490     -5.872789     61.203988
      5.80990      6.34927      0.00000         3.950628      1.015029     -1.776036
      1.80923      1.01504      7.54373         6.918568     -1.687571      3.828488
      3.80956      9.68316      8.48670       -14.255490     -5.872789     61.203988
      1.80923      6.34927      0.00000         3.950628      1.015029     -1.776036
    total drift:                                0.279679      0.046595      0.026160

  FREE ENERGIE OF THE ION-ELECTRON SYSTEM (eV)
  free  energy   TOTEN  =         1.77706808 eV

  energy  without entropy=        1.77797009  energy(sigma->0) =        1.77751909