 vasp.6.4.3 19Mar24 (build Nov 20 2024 16:33:01) complex
 executed on             LinuxGNU date 2025.06.03  23:31:11

 INCAR:
   SYSTEM = Si and Ge interface calculation
   ISTART = 0
   ICHARG = 2
   LWAVE = .FALSE.
   LREAL = AUTO
   ENCUT = 700
   ENAUG = 900
   ADDGRID = .TRUE.
   LMAXMIX = 6
   LASPH = .TRUE.
   LMIXTAU = .TRUE.
   NCORE = 16
   NELM = 100
   NBANDS = 20
   EDIFF = 1d-7
   AMIX = 0.6
   ISMEAR = 0
   SIGMA = 0.01
   NELECT = 32
   ISPIN = 2
   NUPDOWN = 1
   LVTOT = .FALSE.
   LVHAR = .TRUE.

 POTCAR:    PAW_PBE Sn 08Apr2002
|           W    W    AA    RRRRR   N    N  II  N    N   GGGG   !!!           |
|           W    W   A  A   R    R  NN   N  II  NN   N  G    G  !!!           |
|           W    W  A    A  R    R  N N  N  II  N N  N  G       !!!           |
|           W WW W  AAAAAA  RRRRR   N  N N  II  N  N N  G  GGG   !            |
|           WW  WW  A    A  R   R   N   NN  II  N   NN  G    G                |
|           W    W  A    A  R    R  N    N  II  N    N   GGGG   !!!           |
|     You use a magnetic or noncollinear calculation, but did not specify     |
|     the initial magnetic moment with the MAGMOM tag. Note that a            |
|     default of 0.125 will be used for all atoms. This ferromagnetic         |
|     setup may break the symmetry of the crystal, in particular it may       |
|     rule out finding an antiferromagnetic solution. Thence, we              |
|     recommend setting the initial magnetic moment manually or verifying     |
|     carefully that this magnetic setup is desired.                          |

 POTCAR:    PAW_PBE Sn 08Apr2002
   VRHFIN =Sn: s2p2

   TITEL  = PAW_PBE Sn 08Apr2002
   POMASS =  118.710; ZVAL   =    4.000    mass and valenz
   ENMAX  =  103.236; ENMIN  =   77.427 eV

 Optimization of the real space projectors (new method)

 maximal supplied QI-value         = 12.47
 optimisation between [QCUT,QGAM] = [ 12.47, 27.06] = [ 43.56,205.12] Ry
 Optimized for a Real-space Cutoff    1.58 Angstroem

   l    n(q)    QCUT    max X(q) W(low)/X(q) W(high)/X(q)  e(spline)
   0     13    12.472    14.688    0.45E-04    0.45E-04    0.25E-05
   0     13    12.472     7.308    0.94E-04    0.11E-03    0.61E-05
   1     12    12.472    45.102    0.34E-03    0.14E-03    0.21E-05
   1     12    12.472    30.691    0.31E-03    0.13E-03    0.20E-05
   2     12    12.472     7.156    0.86E-04    0.11E-03    0.17E-05
 WARNING: PSMAXN for non-local potential too small
          PSMAXN should be >   13.554559223799082       NTYP=           1
  PAW_PBE Sn 08Apr2002                  :

 POSCAR: Sn
  positions in direct lattice

 exchange-correlation table for PE
   RHO(1)=    0.500       N(1)  =     2000
   RHO(2)=  100.500       N(2)  =     4000

 ion  position               nearest neighbor table
   1  0.000  0.000  0.000-   2 2.81   4 2.81   6 2.81   8 2.81
   2  0.250  0.250  0.250-   1 2.81   3 2.81   5 2.81   7 2.81
   3  0.000  0.500  0.500-   2 2.81   4 2.81   6 2.81   8 2.81
   4  0.250  0.750  0.750-   1 2.81   3 2.81   5 2.81   7 2.81
   5  0.500  0.000  0.500-   2 2.81   4 2.81   6 2.81   8 2.81
   6  0.750  0.250  0.750-   1 2.81   3 2.81   5 2.81   7 2.81
   7  0.500  0.500  0.000-   2 2.81   4 2.81   6 2.81   8 2.81
   8  0.750  0.750  0.250-   1 2.81   3 2.81   5 2.81   7 2.81

  LATTYP: Found a simple cubic cell.
 ALAT       =     6.4900000000

  Lattice vectors:

 A1 = (   6.4900000000,   0.0000000000,   0.0000000000)
 A2 = (   0.0000000000,   6.4900000000,   0.0000000000)
 A3 = (   0.0000000000,   0.0000000000,   6.4900000000)

Analysis of symmetry for initial positions (statically):
 Subroutine PRICEL returns following result:

  LATTYP: Found a face centered cubic cell.
 ALAT       =     6.4900000000

[...]

   4 primitive cells build up your supercell.

 Routine SETGRP: Setting up the symmetry group for a
 simple cubic supercell.

 Subroutine GETGRP returns: Found 48 space group operations
 (whereof 24 operations were pure point group operations)
 out of a pool of 48 trial point group operations.

The static configuration has the point symmetry T_d .
 The point group associated with its full space group is O_h .

Analysis of symmetry for dynamics (positions and initial velocities):
 Subroutine PRICEL returns following result:

[...]

The dynamic configuration has the point symmetry T_d .
 The point group associated with its full space group is O_h .

Analysis of structural, dynamic, and magnetic symmetry:
 Subroutine PRICEL returns following result:

  LATTYP: Found a face centered cubic cell.
 ALAT       =     6.4900000000

  Lattice vectors:

 A1 = (   3.2450000000,  -3.2450000000,   0.0000000000)
 A2 = (   3.2450000000,   0.0000000000,   3.2450000000)
 A3 = (   0.0000000000,  -3.2450000000,   3.2450000000)

   4 primitive cells build up your supercell.

 Routine SETGRP: Setting up the symmetry group for a
 simple cubic supercell.

 Subroutine GETGRP returns: Found 48 space group operations
 (whereof 24 operations were pure point group operations)
 out of a pool of 48 trial point group operations.

The overall configuration has the point symmetry T_d .
 The point group associated with its full space group is O_h .

 Subroutine INISYM returns: Found 48 space group operations
 (whereof 24 operations are pure point group operations),
 and found     4 'primitive' translations

                                     Primitive cell

  volume of cell :      68.3399

  direct lattice vectors                    reciprocal lattice vectors
     3.245000000 -3.245000000  0.000000000     0.154083205 -0.154083205 -0.154083205
     3.245000000  0.000000000  3.245000000     0.154083205  0.154083205  0.154083205
     0.000000000 -3.245000000  3.245000000    -0.154083205 -0.154083205  0.154083205

  length of vectors
     4.589123010  4.589123010  4.589123010     0.266879940  0.266879940  0.266879940

  position of ions in fractional coordinates (direct lattice)
     0.000000000  0.000000000  0.000000000
     0.750000000  0.750000000  0.750000000

  ion indices of the primitive-cell ions
   primitive index   ion index
                 1           1
                 2           2

 KPOINTS: Automatic KPOINTS generated

Automatic generation of k-mesh.
 Grid dimensions read from file:
 generate k-points for:    5    5    5

 Generating k-lattice:

  Cartesian coordinates                     Fractional coordinates (reciprocal lattice)
     0.030816641  0.000000000  0.000000000     0.200000000  0.000000000  0.000000000
     0.000000000  0.030816641  0.000000000     0.000000000  0.200000000  0.000000000
     0.000000000  0.000000000  0.030816641     0.000000000  0.000000000  0.200000000

  Length of vectors
     0.030816641  0.030816641  0.030816641

  Shift w.r.t. Gamma in fractional coordinates (k-lattice)
     0.000000000  0.000000000  0.000000000

 Subroutine IBZKPT returns following result:

 Found     10 irreducible k-points:

 Following reciprocal coordinates:
            Coordinates               Weight
  0.000000  0.000000  0.000000      1.000000
  0.200000  0.000000  0.000000      6.000000
  0.400000  0.000000  0.000000      6.000000
  0.200000  0.200000  0.000000     12.000000
  0.400000  0.200000  0.000000     24.000000
  0.400000  0.400000  0.000000     12.000000
  0.200000  0.200000  0.200000      8.000000
  0.400000  0.200000  0.200000     24.000000
  0.400000  0.400000  0.200000     24.000000
  0.400000  0.400000  0.400000      8.000000

 Following cartesian coordinates:
            Coordinates               Weight
  0.000000  0.000000  0.000000      1.000000
  0.030817  0.000000  0.000000      6.000000
  0.061633  0.000000  0.000000      6.000000
  0.030817  0.030817  0.000000     12.000000
  0.061633  0.030817  0.000000     24.000000
  0.061633  0.061633  0.000000     12.000000
  0.030817  0.030817  0.030817      8.000000
  0.061633  0.030817  0.030817     24.000000
  0.061633  0.061633  0.030817     24.000000
  0.061633  0.061633  0.061633      8.000000

 SYSTEM =  Si and Ge interface calculation
 POSCAR =  Sn

 Startparameter for this run:
   NWRITE =      2    write-flag & timer
   PREC   = normal    normal or accurate (medium, high low for compatibility)
   ISTART =      0    job   : 0-new  1-cont  2-samecut
   ICHARG =      2    charge: 1-file 2-atom 10-const
   ISPIN  =      2    spin polarized calculation?
   LNONCOLLINEAR =      F non collinear calculations
   LSORBIT =      F    spin-orbit coupling
   INIWAV =      1    electr: 0-lowe 1-rand  2-diag
   LASPH  =      T    aspherical Exc in radial PAW
 Electronic Relaxation 1
   ENCUT  =  700.0 eV  51.45 Ry    7.17 a.u.  14.00 14.00 14.00*2*pi/ulx,y,z
   ENINI  =  700.0     initial cutoff
   ENAUG  =  900.0 eV  augmentation charge cutoff
   NELM   =    100;   NELMIN=  2; NELMDL= -5     # of ELM steps
   EDIFF  = 0.1E-06   stopping-criterion for ELM
   LREAL  =      T    real-space projection
   NLSPLINE    = F    spline interpolate recip. space projectors
   LCOMPAT=      F    compatible to vasp.4.4
   GGA_COMPAT  = T    GGA compatible to vasp.4.4-vasp.4.6
   LMAXPAW     = -100 max onsite density
   LMAXMIX     =    6 max onsite mixed and CHGCAR
   VOSKOWN=      0    Vosko Wilk Nusair interpolation
   ROPT   =   -0.00050
 Ionic relaxation
   EDIFFG = 0.1E-05   stopping-criterion for IOM
   NSW    =      0    number of steps for IOM
   NBLOCK =      1;   KBLOCK =      1    inner block; outer block
   IBRION =     -1    ionic relax: 0-MD 1-quasi-New 2-CG
   NFREE  =      0    steps in history (QN), initial steepest desc. (CG)
   ISIF   =      2    stress and relaxation
   IWAVPR =     10    prediction:  0-non 1-charg 2-wave 3-comb
   ISYM   =      2    0-nonsym 1-usesym 2-fastsym
   LCORR  =      T    Harris-Foulkes like correction to forces

   POTIM  = 0.5000    time-step for ionic-motion
   TEIN   =    0.0    initial temperature
   TEBEG  =    0.0;   TEEND  =   0.0 temperature during run
   SMASS  =  -3.00    Nose mass-parameter (am)
   estimated Nose-frequenzy (Omega)   =  0.10E-29 period in steps = 0.13E+47 mass=  -0.963E-27a.u.
   SCALEE = 1.0000    scale energy and forces
   NPACO  =    256;   APACO  = 10.0  distance and # of slots for P.C.
   PSTRESS=    0.0 pullay stress

  Mass of Ions in am
   POMASS = 118.71
  Ionic Valenz
   ZVAL   =   4.00
  Atomic Wigner-Seitz radii
  virtual crystal weights
   VCA    =   1.00
   NELECT =      32.0000    total number of electrons
   NUPDOWN=       1.0000    fix difference up-down

 DOS related values:
   EMIN   =  10.00;   EMAX   =-10.00  energy-range for DOS
   EFERMI =   0.00;   METHOD = LEGACY
   ISMEAR =     0;   SIGMA  =   0.01  broadening in eV -4-tet -1-fermi 0-gaus

 Electronic relaxation 2 (details)
   IALGO  =     38    algorithm
   LDIAG  =      T    sub-space diagonalisation (order eigenvalues)
   LSUBROT=      F    optimize rotation matrix (better conditioning)
   TURBO    =      0    0=normal 1=particle mesh
   IRESTART =      0    0=no restart 2=restart with 2 vectors
   NREBOOT  =      0    no. of reboots
   NMIN     =      0    reboot dimension
   EREF     =   0.00    reference energy to select bands
   IMIX   =      4    mixing-type and parameters
     AMIX     =   0.60;   BMIX     =  1.00
[...]
   VOSKOWN =     0    Vosko Wilk Nusair interpolation
   LHFCALC =     F    Hartree Fock is set to
   LHFONE  =     F    Hartree Fock one center treatment
   AEXX    =    0.0000 exact exchange contribution

 Parameters of functionals:
   PE:
     No parameter

 Van der Waals corrections
   IVDW    =     0    specifies the selected vdW correction

 Linear response parameters
   LEPSILON=     F    determine dielectric tensor
   LRPA    =     F    only Hartree local field effects (RPA)
   LNABLA  =     F    use nabla operator in PAW spheres
   LVEL    =     F    velocity operator in full k-point grid
   CSHIFT  =0.1000    complex shift for real part using Kramers Kronig
   OMEGAMAX=  -1.0    maximum frequency
   DEG_THRESHOLD= 0.2000000E-02 threshold for treating states as degnerate
   RTIME   =   -0.100 relaxation time in fs
  (WPLASMAI=    0.000 imaginary part of plasma frequency in eV, 0.658/RTIME)
   DFIELD  = 0.0000000 0.0000000 0.0000000 field for delta impulse in time

  Optional k-point grid parameters
   LKPOINTS_OPT  =     F    use optional k-point grid
   KPOINTS_OPT_MODE=     1    mode for optional k-point grid

 Orbital magnetization related:
   ORBITALMAG=     F  switch on orbital magnetization
   LCHIMAG   =     F  perturbation theory with respect to B field
   DQ        =  0.001000  dq finite difference perturbation B field
   LLRAUG    =     F  two centre corrections for induced B field
   LBONE     =     F  B-component reconstruction in AE one-centre
   LVGVCALC  =     T  calculate vGv susceptibility
   LVGVAPPL  =     F  apply vGv susceptibility instead of pGv for G=0

 Random number generation:
   RANDOM_GENERATOR = DEFAULT
   PCG_SEED         = not used

 Static calculation
 charge density and potential will be updated during run
 spin polarized calculation
 Variant of blocked Davidson
 Davidson routine will perform the subspace rotation
 perform sub-space diagonalisation
    after iterative eigenvector-optimisation
 modified Broyden-mixing scheme, WC =      100.0
 initial mixing is a Kerker type mixing with AMIX =  0.6000 and BMIX =      1.0000
 Hartree-type preconditioning will be used
 using additional bands            4
 real space projection scheme for non local part
 use partial core corrections
 calculate Harris-corrections to forces   (improved forces if not selfconsistent)
 use gradient corrections
 use of overlap-Matrix (Vanderbilt PP)
 Gauss-broadening in eV      SIGMA  =   0.01

  energy-cutoff  :      700.00
  volume of cell :      273.36
      direct lattice vectors                 reciprocal lattice vectors
     6.490000000  0.000000000  0.000000000     0.154083205  0.000000000  0.000000000
     0.000000000  6.490000000  0.000000000     0.000000000  0.154083205  0.000000000
     0.000000000  0.000000000  6.490000000     0.000000000  0.000000000  0.154083205

[...]

 k-points in units of 2pi/SCALE and weight: Automatic KPOINTS generated
   0.00000000  0.00000000  0.00000000       0.008
   0.03081664  0.00000000  0.00000000       0.048
   0.06163328  0.00000000  0.00000000       0.048
   0.03081664  0.03081664  0.00000000       0.096
   0.06163328  0.03081664  0.00000000       0.192
   0.06163328  0.06163328  0.00000000       0.096
   0.03081664  0.03081664  0.03081664       0.064
   0.06163328  0.03081664  0.03081664       0.192
   0.06163328  0.06163328  0.03081664       0.192
   0.06163328  0.06163328  0.06163328       0.064

 k-points in reciprocal lattice and weights: Automatic KPOINTS generated
   0.00000000  0.00000000  0.00000000       0.008
   0.20000000  0.00000000  0.00000000       0.048
   0.40000000  0.00000000  0.00000000       0.048
   0.20000000  0.20000000  0.00000000       0.096
   0.40000000  0.20000000  0.00000000       0.192
   0.40000000  0.40000000  0.00000000       0.096
   0.20000000  0.20000000  0.20000000       0.064
   0.40000000  0.20000000  0.20000000       0.192
   0.40000000  0.40000000  0.20000000       0.192
   0.40000000  0.40000000  0.40000000       0.064

 position of ions in fractional coordinates (direct lattice)
   0.00000000  0.00000000  0.00000000
   0.25000000  0.25000000  0.25000000
   0.00000000  0.50000000  0.50000000
   0.25000000  0.75000000  0.75000000
   0.50000000  0.00000000  0.50000000
   0.75000000  0.25000000  0.75000000
   0.50000000  0.50000000  0.00000000
   0.75000000  0.75000000  0.25000000

 position of ions in cartesian coordinates  (Angst):
   0.00000000  0.00000000  0.00000000
   1.62250000  1.62250000  1.62250000
   0.00000000  3.24500000  3.24500000
   1.62250000  4.86750000  4.86750000
   3.24500000  0.00000000  3.24500000
   4.86750000  1.62250000  4.86750000
   3.24500000  3.24500000  0.00000000
   4.86750000  4.86750000  1.62250000

 k-point     1 :   0.0000 0.0000 0.0000  plane waves:   11513
 k-point     2 :   0.2000 0.0000 0.0000  plane waves:   11448
 k-point     3 :   0.4000 0.0000 0.0000  plane waves:   11492
 k-point     4 :   0.2000 0.2000 0.0000  plane waves:   11466
 k-point     5 :   0.4000 0.2000 0.0000  plane waves:   11462
 k-point     6 :   0.4000 0.4000 0.0000  plane waves:   11532
 k-point     7 :   0.2000 0.2000 0.2000  plane waves:   11518
 k-point     8 :   0.4000 0.2000 0.2000  plane waves:   11494
 k-point     9 :   0.4000 0.4000 0.2000  plane waves:   11506
 k-point    10 :   0.4000 0.4000 0.4000  plane waves:   11503

 maximum and minimum number of plane-waves per node :     11532    11448

 maximum number of plane-waves:     11532
 maximum index in each direction:
   IXMAX=   14   IYMAX=   14   IZMAX=   14
   IXMIN=  -14   IYMIN=  -14   IZMIN=  -14

 serial   3D FFT for wavefunctions
 parallel 3D FFT for charge:
    minimum data exchange during FFTs selected (reduces bandwidth)

 Broyden mixing: mesh for mixing (old mesh)
   NGX = 29   NGY = 29   NGZ = 29
  (NGX  = 84   NGY  = 84   NGZ  = 84)
  gives a total of  24389 points

 initial charge density was supplied:
 charge density of overlapping atoms calculated
 number of electron      32.0000000 magnetization       1.0000000
 keeping initial charge density in first step

 Maximum index for non-local projection operator          650
 Maximum index for augmentation-charges       202765 (set IRDMAX)

 First call to EWALD:  gamma=   0.273
 Maximum number of real-space cells 3x 3x 3
 Maximum number of reciprocal cells 3x 3x 3

--------------------------------------- Ionic step        1  -------------------------------------------

--------------------------------------- Iteration      1(   1)  ---------------------------------------

 eigenvalue-minimisations  :   800
 total energy-change (2. order) : 0.1492084E+03  (-0.1233649E+04)
 number of electron      32.0000000 magnetization       1.0000000
 augmentation part       32.0000000 magnetization       1.0000000

 Free energy of the ion-electron system (eV)
  alpha Z        PSCENC =        29.28705277
  Ewald energy   TEWEN  =      -764.93065327
  -Hartree energ DENC   =       -45.05860896
  -exchange      EXHF   =         0.00000000
  -V(xc)+E(xc)   XCENC  =      -946.58081898
  PAW double counting   =      1515.31145118     -524.48101540
  entropy T*S    EENTRO =        -0.00070193
  eigenvalues    EBANDS =       132.97383236
  atomic energy  EATOM  =       752.68786381
  Solvation  Ediel_sol  =         0.00000000
  free energy    TOTEN  =       149.20840159 eV

  energy without entropy =      149.20910352  energy(sigma->0) =      149.20875255

[...]

 eigenvalue-minimisations  :  1032
 total energy-change (2. order) :-0.1662262E+03  (-0.1612993E+03)
 number of electron      32.0000000 magnetization       1.0000000
 augmentation part       32.0000000 magnetization       1.0000000

[...]

 Broyden mixing:
  rms(total) = 0.64852E+00    rms(broyden)= 0.64852E+00
  rms(prec ) = 0.82933E+00
  weight for this iteration     100.00

[...]

 eigenvalues of (default mixing * dielectric matrix)
  average eigenvalue GAMMA=   1.8493
  1.8493

[...]

 eigenvalue-minimisations  :   904
 total energy-change (2. order) :-0.5865392E-05  (-0.6146229E-06)
 number of electron      31.9999999 magnetization       1.0000000
 augmentation part       -8.6813050 magnetization      -0.1833532

[...]

 Broyden mixing:
  rms(total) = 0.53826E-04    rms(broyden)= 0.53823E-04
  rms(prec ) = 0.63550E-04
  weight for this iteration     100.00

 eigenvalues of (default mixing * dielectric matrix)
  average eigenvalue GAMMA=   1.0909
  2.1907  2.0170  1.5926  1.2270  0.8474  0.4372  0.5318  0.4684  0.5063

[...]

--------------------------------------- Iteration      1(  15)  ---------------------------------------

 eigenvalue-minimisations  :   504
 total energy-change (2. order) : 0.2085176E-07  (-0.3074284E-08)
 number of electron      31.9999999 magnetization       1.0000000
 augmentation part       -8.6812729 magnetization      -0.1833560

 Free energy of the ion-electron system (eV)
  alpha Z        PSCENC =        29.28705277
  Ewald energy   TEWEN  =      -764.93065327
  -Hartree energ DENC   =       -53.30850214
  -exchange      EXHF   =         0.00000000
  -V(xc)+E(xc)   XCENC  =      -943.74097760
  PAW double counting   =      2434.25826966    -1446.31179476
  entropy T*S    EENTRO =        -0.00093023
  eigenvalues    EBANDS =       -37.84926275
  atomic energy  EATOM  =       752.68786381
  Solvation  Ediel_sol  =         0.00000000
  free energy    TOTEN  =       -29.90893452 eV

  energy without entropy =      -29.90800429  energy(sigma->0) =      -29.90846940

 average (electrostatic) potential at core
  the test charge radii are     1.4072
  (the norm of the test charge is              1.0000)
       1 -45.8054       2 -45.8054       3 -45.8054       4 -45.8054       5 -45.8054
       6 -45.8054       7 -45.8054       8 -45.8054

 E-fermi :   2.6991     XC(G=0):  -8.7743     alpha+bet : -8.4398

 val. band max:        4.2679944552   @ k =   0.4000   0.4000   0.4000
 cond. band min:       2.7664395896   @ k =   0.4000   0.4000   0.0000
 fundamental gap:     -1.5015548655
 Fermi energy:         4.3557926914

 spin component 1

 k-point     1 :       0.0000    0.0000    0.0000
  band No.  band energies     occupation
      1      -7.1597      1.00000
      2      -4.0723      1.00000
      3      -4.0723      1.00000
      4      -4.0723      1.00000
      5      -4.0722      1.00000
      6      -4.0722      1.00000
      7      -4.0722      1.00000
      8       0.9756      1.00000
      9       0.9756      1.00000
     10       0.9756      1.00000
     11       0.9756      1.00000
     12       0.9756      1.00000
     13       0.9756      1.00000
     14       2.8524      1.00000
     15       3.5258      1.00000
     16       3.5258      1.00000
     17       3.5258      1.00000
     18       4.2544      1.00000
     19       4.2544      1.00000
     20       4.2544      1.00000

[...]

 k-point    10 :       0.4000    0.4000    0.4000
  band No.  band energies     occupation
      1      -5.8271      1.00000
      2      -5.4947      1.00000
      3      -5.4947      1.00000
      4      -5.4947      1.00000
      5      -2.8034      1.00000
      6      -2.8034      1.00000
      7      -2.8034      1.00000
      8      -2.3681      1.00000
      9       1.5481      1.00000
     10       1.5481      1.00000
     11       1.5481      1.00000
     12       2.1328      1.00000
     13       2.1328      1.00000
     14       2.1328      1.00000
     15       2.3945      1.00000
     16       2.3945      1.00000
     17       3.5092      1.00000
     18       4.2680      1.00000
     19       4.2680      1.00000
     20       4.2680      1.00000
 Fermi energy:         2.6991440477

 spin component 2

[...]

 k-point    10 :       0.4000    0.4000    0.4000
  band No.  band energies     occupation
      1      -5.7341      1.00000
      2      -5.4022      1.00000
      3      -5.4022      1.00000
      4      -5.4022      1.00000
      5      -2.7088      1.00000
      6      -2.7088      1.00000
      7      -2.7088      1.00000
      8      -2.2737      1.00000
      9       1.6471      1.00000
     10       1.6471      1.00000
     11       1.6471      1.00000
     12       2.2332      1.00000
     13       2.2332      1.00000
     14       2.2332      1.00000
     15       2.4949      1.00000
     16       2.4949      1.00000
     17       3.5996      0.00000
     18       4.3603      0.00000
     19       4.3603      0.00000
     20       4.3603      0.00000

 soft charge-density along one line, spin component           1
         0         1         2         3         4         5         6         7         8         9
 total charge-density along one line

 soft charge-density along one line, spin component           2
         0         1         2         3         4         5         6         7         8         9
 total charge-density along one line

------------------------ aborting loop because EDIFF is reached ----------------------------------------

  FORCE on cell =-STRESS in cart. coord.  units (eV):
  Direction    XX          YY          ZZ          XY          YZ          ZX
  Alpha Z    29.28705    29.28705    29.28705
  Ewald    -254.97732  -254.97732  -254.97732     0.00000    -0.00000     0.00000
  Hartree    17.76956    17.76956    17.76956     0.00000    -0.00000    -0.00000
  E(xc)    -142.30614  -142.30614  -142.30614     0.00000    -0.00000    -0.00000
  Local    -102.70777  -102.70777  -102.70777     0.00000     0.00000    -0.00000
  n-local   342.57759   345.87054   341.71826    -1.17257    -1.60711    -1.02675
  augment   -93.00715   -93.00715   -93.00715    -0.00000     0.00000    -0.00000
  Kinetic   203.21157   212.79574   210.98388    -2.57103    -3.93226    -2.32495
  Fock        0.00000     0.00000     0.00000     0.00000     0.00000     0.00000
  Total       6.44409     6.44409     6.44409     0.00000     0.00000     0.00000
  in kB      37.76925    37.76925    37.76925     0.00000     0.00000     0.00000

 VOLUME and BASIS-vectors are now :
  energy-cutoff  :      700.00
  volume of cell :      273.36
      direct lattice vectors                 reciprocal lattice vectors
     6.490000000  0.000000000  0.000000000     0.154083205  0.000000000  0.000000000
     0.000000000  6.490000000  0.000000000     0.000000000  0.154083205  0.000000000
     0.000000000  0.000000000  6.490000000     0.000000000  0.000000000  0.154083205

  length of vectors
     6.490000000  6.490000000  6.490000000     0.154083205  0.154083205  0.154083205

 FORCES acting on ions
    electron-ion (+dipol)            ewald-force                    non-local-force                 convergence-correction
   -.439E-08 -.439E-08 -.512E-10   0.124E-13 0.533E-14 0.178E-14   0.744E-17 -.110E-16 0.673E-17   0.245E-15 -.195E-15 -.253E-14
   0.439E-08 0.439E-08 0.510E-10   0.522E-14 0.150E-14 -.368E-17   -.200E-16 0.162E-16 0.379E-17   0.126E-14 0.760E-15 -.475E-15
   -.439E-08 -.439E-08 -.512E-10   0.888E-14 0.178E-14 -.178E-14   0.941E-17 -.642E-17 0.696E-17   0.368E-15 0.141E-14 -.266E-14
   0.439E-08 0.438E-08 0.511E-10   0.189E-14 -.177E-14 -.338E-14   -.700E-17 0.219E-16 -.132E-16   0.111E-14 -.331E-15 -.427E-14
   -.439E-08 -.439E-08 -.512E-10   0.178E-14 0.178E-14 0.355E-14   0.171E-16 -.180E-16 -.248E-17   0.842E-15 -.248E-15 -.260E-14
   0.439E-08 0.438E-08 0.513E-10   -.107E-13 -.181E-14 0.195E-14   -.176E-17 0.932E-17 -.725E-17   0.108E-15 0.627E-15 -.401E-14
   -.439E-08 -.439E-08 -.509E-10   -.355E-14 -.178E-14 0.000E+00   0.962E-17 -.204E-16 0.147E-16   0.912E-15 0.108E-14 -.244E-14
   0.439E-08 0.439E-08 0.505E-10   -.159E-13 -.534E-14 -.176E-14   -.137E-16 0.794E-17 -.501E-17   0.231E-15 -.335E-15 -.418E-15
   -.822E-13 -.535E-12 -.693E-12   0.284E-16 -.304E-15 0.365E-15   0.111E-17 -.351E-18 0.428E-17   0.508E-14 0.277E-14 -.194E-13

 POSITION                                       TOTAL-FORCE (eV/Angst)
      0.00000      0.00000      0.00000         0.000000     -0.000000      0.000000
      1.62250      1.62250      1.62250        -0.000000     -0.000000     -0.000000
      0.00000      3.24500      3.24500         0.000000     -0.000000      0.000000
      1.62250      4.86750      4.86750        -0.000000     -0.000000     -0.000000
      3.24500      0.00000      3.24500        -0.000000      0.000000      0.000000
      4.86750      1.62250      4.86750        -0.000000      0.000000     -0.000000
      3.24500      3.24500      0.00000         0.000000      0.000000      0.000000
      4.86750      4.86750      1.62250        -0.000000      0.000000     -0.000000
    total drift:                               -0.000000     -0.000000     -0.000000

  FREE ENERGIE OF THE ION-ELECTRON SYSTEM (eV)
  free  energy   TOTEN  =       -29.90893452 eV

  energy  without entropy=      -29.90800429  energy(sigma->0) =      -29.90846940