 vasp.6.4.3 19Mar24 (build Oct 22 2024 11:23:12) complex

 executed on             LinuxIFC date 2025.06.04  03:45:17

 INCAR:
   SYSTEM = Si and Ge interface calculation
   ISTART = 0
   ICHARG = 2
   LWAVE = .FALSE.
   LREAL = AUTO
   ENCUT = 700
   ENAUG = 900
   ADDGRID = .TRUE.
   LMAXMIX = 6
   LASPH = .TRUE.
   LMIXTAU = .TRUE.
   NCORE = 16
   NELM = 100
   NBANDS = 202
   EDIFF = 1d-7
   AMIX = 0.6
   ISMEAR = 0
   SIGMA = 0.01
   NELECT = 336
   ISPIN = 2
   NUPDOWN = 1
   LVTOT = .FALSE.
   LVHAR = .TRUE.

 POTCAR:    PAW_PBE Ge 05Jan2001
 POTCAR:    PAW_PBE Si 05Jan2001
|           W    W    AA    RRRRR   N    N  II  N    N   GGGG   !!!           |
|           W    W   A  A   R    R  NN   N  II  NN   N  G    G  !!!           |
|           W    W  A    A  R    R  N N  N  II  N N  N  G       !!!           |
|           W WW W  AAAAAA  RRRRR   N  N N  II  N  N N  G  GGG   !            |
|           WW  WW  A    A  R   R   N   NN  II  N   NN  G    G                |
|           W    W  A    A  R    R  N    N  II  N    N   GGGG   !!!           |
|     You use a magnetic or noncollinear calculation, but did not specify     |
|     the initial magnetic moment with the MAGMOM tag. Note that a            |
|     default of 0.012 will be used for all atoms. This ferromagnetic         |
|     setup may break the symmetry of the crystal, in particular it may       |
|     rule out finding an antiferromagnetic solution. Thence, we              |
|     recommend setting the initial magnetic moment manually or verifying     |
|     carefully that this magnetic setup is desired.                          |

 POTCAR:    PAW_PBE Ge 05Jan2001
   VRHFIN =Ge: s2p2

   TITEL  = PAW_PBE Ge 05Jan2001
   POMASS =   72.610; ZVAL   =    4.000    mass and valenz
   ENMAX  =  173.807; ENMIN  =  130.355 eV

 POTCAR:    PAW_PBE Si 05Jan2001
   VRHFIN =Si: s2p2

   TITEL  = PAW_PBE Si 05Jan2001
   POMASS =   28.085; ZVAL   =    4.000    mass and valenz
   ENMAX  =  245.345; ENMIN  =  184.009 eV

 Optimization of the real space projectors (new method)

 maximal supplied QI-value         = 16.25
 optimisation between [QCUT,QGAM] = [ 13.49, 26.98] = [ 50.95,203.80] Ry
 Optimized for a Real-space Cutoff    1.25 Angstroem

   l    n(q)    QCUT    max X(q) W(low)/X(q) W(high)/X(q)  e(spline)
   0     10    13.489    65.336    0.91E-04    0.11E-03    0.34E-06
   0     10    13.489    52.220    0.89E-04    0.11E-03    0.34E-06
   1     10    13.489    36.409    0.22E-03    0.27E-03    0.14E-06
   1     10    13.489    21.334    0.21E-03    0.27E-03    0.14E-06
   2      9    13.489     4.673    0.11E-03    0.12E-03    0.19E-06
 Optimization of the real space projectors (new method)

 maximal supplied QI-value         = 19.84
 optimisation between [QCUT,QGAM] = [ 13.49, 26.99] = [ 50.98,203.92] Ry
 Optimized for a Real-space Cutoff    1.07 Angstroem

   l    n(q)    QCUT    max X(q) W(low)/X(q) W(high)/X(q)  e(spline)
   0      9    13.493   159.560    0.22E-03    0.15E-03    0.72E-07
   0      9    13.493   115.863    0.21E-03    0.15E-03    0.71E-07
   1      8    13.493    88.339    0.15E-03    0.11E-03    0.13E-06
   1      8    13.493    48.592    0.15E-03    0.10E-03    0.13E-06
  PAW_PBE Ge 05Jan2001                  :
  PAW_PBE Si 05Jan2001                  :

 POSCAR: Ge+Si
  positions in direct lattice

 exchange-correlation table for PE
   RHO(1)=    0.500       N(1)  =     2000
   RHO(2)=  100.500       N(2)  =     4000

 ion  position               nearest neighbor table
   1  0.029  0.985  0.000-  54 1.40  66 1.85  78 2.10  32 2.45  37 2.45  25 2.45
   2  0.279  0.860  0.119-  60 2.40  33 2.45  43 2.45  38 2.45  26 2.45
   3  0.529  0.735  0.238-  39 2.45  34 2.45  44 2.45  27 2.45
   4  0.779  0.610  0.357-  35 2.45  45 2.45  40 2.45  28 2.45
   5  0.029  0.485  0.477-  46 2.45  36 2.45  29 2.45  41 2.45
   6  0.279  0.360  0.596-  70 1.00  82 2.08  47 2.45  30 2.45  42 2.45  58 2.98
   7  0.029  0.485  0.000-  84 1.64  60 2.26  43 2.45  26 2.45  31 2.45  51 2.71
   8  0.279  0.360  0.119-  37 2.45  27 2.45  32 2.45  44 2.45  78 2.55
   9  0.529  0.235  0.238-  28 2.45  45 2.45  38 2.45  33 2.45
  10  0.779  0.110  0.357-  46 2.45  29 2.45  39 2.45  34 2.45
  11  0.029  0.985  0.477-  49 2.03  40 2.45  47 2.45  35 2.45  30 2.45
  12  0.279  0.860  0.596-  67 1.68  64 1.90  48 2.45  36 2.45  41 2.45  52 2.88  50 2.89
  13  0.529  0.235  0.000-  81 1.33  57 1.70  38 2.45  43 2.45  25 2.45  60 2.81
  14  0.779  0.110  0.119-  31 2.45  39 2.45  44 2.45  26 2.45  84 2.71  63 2.91
  15  0.029  0.985  0.238-  40 2.45  27 2.45  32 2.45  45 2.45
  16  0.279  0.860  0.357-  28 2.45  41 2.45  33 2.45  46 2.45
  17  0.529  0.735  0.477-  34 2.45  42 2.45  47 2.45  29 2.45  55 2.60
  18  0.779  0.610  0.596-  73 0.37  61 2.11  30 2.45  35 2.45  48 2.45  76 2.65
  19  0.529  0.735  0.000-  63 1.58  51 2.14  44 2.45  37 2.45  31 2.45  78 2.68  65 3.02
  20  0.779  0.610  0.119-  32 2.45  45 2.45  25 2.45  38 2.45  66 2.57  81 3.03
  21  0.029  0.485  0.238-  46 2.45  26 2.45  39 2.45  33 2.45
  22  0.279  0.360  0.357-  34 2.45  40 2.45  47 2.45  27 2.45
  23  0.529  0.235  0.477-  52 2.25  28 2.45  41 2.45  35 2.45  48 2.45
  24  0.779  0.110  0.596-  79 2.28  67 2.32  29 2.45  42 2.45  36 2.45  58 2.51  55 2.72  53 2.74
                            55 2.98  70 3.02
  25  0.529  0.360  0.000-  66 1.00  69 2.08  20 2.45  13 2.45   1 2.45  54 2.98
  26  0.779  0.235  0.119-  84 2.25   7 2.45  14 2.45  21 2.45   2 2.45
  27  0.029  0.110  0.238-  15 2.45   8 2.45  22 2.45   3 2.45
  28  0.279  0.985  0.357-  16 2.45   9 2.45  23 2.45   4 2.45
  29  0.529  0.860  0.477-  55 2.40  24 2.45  10 2.45   5 2.45  17 2.45
  30  0.779  0.735  0.596-  49 1.58  82 2.14   6 2.45  18 2.45  11 2.45  73 2.68  56 3.02
  31  0.529  0.860  0.000-  63 1.68  51 1.90  14 2.45   7 2.45  19 2.45  84 2.88  77 2.89
  32  0.779  0.735  0.119-   1 2.45  20 2.45  15 2.45   8 2.45  78 2.60
  33  0.029  0.610  0.238-   2 2.45  16 2.45   9 2.45  21 2.45
  34  0.279  0.485  0.357-  22 2.45  17 2.45   3 2.45  10 2.45
  35  0.529  0.360  0.477-   4 2.45  23 2.45  18 2.45  11 2.45  73 2.55
  36  0.779  0.235  0.596-  67 1.33  79 1.70   5 2.45  24 2.45  12 2.45  55 2.81
  37  0.029  0.110  0.000-  75 2.28  63 2.32   8 2.45  19 2.45   1 2.45  54 2.51  78 2.72  80 2.74
                            78 2.98  66 3.02
  38  0.279  0.985  0.119-  81 2.03  13 2.45   2 2.45   9 2.45  20 2.45
  39  0.529  0.860  0.238-   3 2.45  14 2.45  21 2.45  10 2.45
  40  0.779  0.735  0.357-  15 2.45  11 2.45  22 2.45   4 2.45
  41  0.029  0.610  0.477-  16 2.45  23 2.45  12 2.45   5 2.45  52 2.57  67 3.03
  42  0.279  0.485  0.596-  70 1.64  55 2.26   6 2.45  24 2.45  17 2.45  82 2.71
  43  0.029  0.610  0.000-  60 0.37  57 2.11   7 2.45   2 2.45  13 2.45  72 2.65
  44  0.279  0.485  0.119-  19 2.45  14 2.45   3 2.45   8 2.45
  45  0.529  0.360  0.238-   9 2.45  20 2.45   4 2.45  15 2.45
  46  0.779  0.235  0.357-  10 2.45  21 2.45   5 2.45  16 2.45
  47  0.029  0.110  0.477-   6 2.45  11 2.45  22 2.45  17 2.45  70 2.71  49 2.91
  48  0.279  0.985  0.596-  76 1.40  52 1.85  73 2.10  12 2.45  18 2.45  23 2.45
  49  0.012  0.988  0.596-  30 1.58  11 2.03  82 2.37  61 2.37  47 2.91
  50  0.179  0.821  0.757-  64 2.37  83 2.37  62 2.37  76 2.37  12 2.89
  51  0.345  0.655  0.919-  31 1.90  19 2.14  65 2.37  84 2.37  63 2.37  77 2.37   7 2.71
  52  0.679  0.321  0.596-  48 1.85  23 2.25  64 2.37  76 2.37  41 2.57  12 2.88
  53  0.845  0.155  0.757-  58 2.37  65 2.37  77 2.37  79 2.37  24 2.74
  54  0.012  0.988  0.919-   1 1.40  59 2.37  78 2.37  66 2.37  80 2.37  37 2.51  25 2.98
  55  0.345  0.655  0.596-  42 2.26  79 2.37  58 2.37  29 2.40  17 2.60  24 2.72  36 2.81  24 2.98

  56  0.512  0.488  0.757-  61 2.37  80 2.37  59 2.37  82 2.37  30 3.02
  57  0.679  0.321  0.919-  13 1.70  43 2.11  62 2.37  81 2.37  60 2.37  83 2.37
  58  0.762  0.988  0.677-  53 2.37  70 2.37  55 2.37  68 2.37  24 2.51   6 2.98
  59  0.929  0.821  0.838-  54 2.37  71 2.37  69 2.37  56 2.37
  60  0.095  0.655  1.000-  43 0.37   7 2.26  72 2.37  57 2.37   2 2.40  13 2.81
  61  0.429  0.321  0.677-  18 2.11  56 2.37  73 2.37  49 2.37  71 2.37
  62  0.595  0.155  0.838-  57 2.37  74 2.37  50 2.37  72 2.37
  63  0.762  0.988  1.000-  19 1.58  31 1.68  37 2.32  75 2.37  51 2.37  14 2.91
  64  0.095  0.655  0.677-  12 1.90  50 2.37  52 2.37  67 2.37  74 2.37
  65  0.262  0.488  0.838-  51 2.37  53 2.37  75 2.37  68 2.37  19 3.02
  66  0.429  0.321  1.000-  25 1.00   1 1.85  54 2.37  69 2.37  20 2.57  37 3.02
  67  0.512  0.988  0.596-  36 1.33  12 1.68  24 2.32  79 2.37  64 2.37  41 3.03
  68  0.679  0.821  0.757-  82 2.37  80 2.37  65 2.37  58 2.37
  69  0.845  0.655  0.919-  25 2.08  83 2.37  59 2.37  81 2.37  66 2.37
  70  0.179  0.321  0.596-   6 1.00  42 1.64  58 2.37  82 2.37  47 2.71  24 3.02
  71  0.345  0.155  0.757-  59 2.37  76 2.37  83 2.37  61 2.37
  72  0.512  0.988  0.919-  77 2.37  60 2.37  84 2.37  62 2.37  43 2.65
  73  0.845  0.655  0.596-  18 0.37  48 2.10  61 2.37  76 2.37  35 2.55  30 2.68
  74  0.012  0.488  0.757-  79 2.37  77 2.37  62 2.37  64 2.37
  75  0.179  0.321  0.919-  37 2.28  80 2.37  63 2.37  65 2.37  78 2.37
  76  0.262  0.988  0.677-  48 1.40  71 2.37  52 2.37  73 2.37  50 2.37  18 2.65
  77  0.429  0.821  0.838-  72 2.37  74 2.37  53 2.37  51 2.37  31 2.89
  78  0.595  0.655  1.000-   1 2.10  54 2.37  75 2.37   8 2.55  32 2.60  19 2.68  37 2.72  37 2.98

  79  0.929  0.321  0.677-  36 1.70  24 2.28  74 2.37  67 2.37  55 2.37  53 2.37
  80  0.095  0.155  0.838-  75 2.37  56 2.37  68 2.37  54 2.37  37 2.74
  81  0.262  0.988  1.000-  13 1.33  38 2.03  69 2.37  57 2.37  20 3.03
  82  0.595  0.655  0.677-   6 2.08  30 2.14  68 2.37  49 2.37  70 2.37  56 2.37  42 2.71
  83  0.762  0.488  0.838-  69 2.37  50 2.37  71 2.37  57 2.37
  84  0.929  0.321  1.000-   7 1.64  26 2.25  72 2.37  51 2.37  14 2.71  31 2.88

  LATTYP: Found a simple orthorhombic cell.
 ALAT       =     5.6577993993
 B/A-ratio  =     2.8284281592
 C/A-ratio  =     2.9676595536

  Lattice vectors:

 A1 = (  -1.8859310150,   5.3342251780,   0.0000000000)
 A2 = ( -15.0874710080,  -5.3342251780,   0.0000000000)
 A3 = (   0.0000000000,   0.0000000000,  16.7904224400)

Analysis of symmetry for initial positions (statically):
 Subroutine PRICEL returns:
 Original cell was already a primitive cell.

 Routine SETGRP: Setting up the symmetry group for a
 simple orthorhombic supercell.

 Subroutine GETGRP returns: Found  1 space group operations
 (whereof  1 operations were pure point group operations)
 out of a pool of  8 trial point group operations.

The static configuration has the point symmetry C_1 .

Analysis of symmetry for dynamics (positions and initial velocities):
 Subroutine PRICEL returns:
 Original cell was already a primitive cell.

[...]

The dynamic configuration has the point symmetry C_1 .

Analysis of structural, dynamic, and magnetic symmetry:
 Subroutine PRICEL returns:
 Original cell was already a primitive cell.

 Routine SETGRP: Setting up the symmetry group for a
 simple orthorhombic supercell.

 Subroutine GETGRP returns: Found  1 space group operations
[...]
     0.000000000  0.000000000 16.790422440     0.000000000  0.000000000  0.059557763

  length of vectors
    16.973402023 19.599193884 16.790422440     0.216470124  0.187468651  0.059557763

 FORCES acting on ions
    electron-ion (+dipol)            ewald-force                    non-local-force                 convergence-correction
   -.229E+02 0.311E+02 -.956E+02   0.338E+02 -.342E+02 0.135E+03   0.645E+01 -.817E+01 0.294E+02   0.557E-05 -.506E-04 0.898E-04
   0.739E+01 -.106E+02 -.967E+02   -.615E+01 0.954E+01 0.947E+02   -.468E+00 0.193E+00 0.923E+00   0.419E-05 0.277E-04 0.694E-04
   -.277E+00 0.323E+00 -.319E+02   0.207E+00 -.448E+00 0.321E+02   0.143E-01 0.187E+00 -.157E-01   -.115E-04 -.586E-05 0.889E-04
   0.163E+00 0.124E+00 0.328E+02   -.105E+00 -.215E+00 -.328E+02   -.424E-01 0.521E-01 -.134E+00   0.411E-04 0.211E-04 0.225E-03
   0.337E+01 -.102E+01 0.840E+02   -.356E+01 0.135E+01 -.845E+02   -.414E-01 0.140E+00 -.107E+00   0.202E-04 -.487E-05 0.206E-04
   -.545E+02 0.239E+02 0.609E+02   0.219E+03 0.102E+02 -.612E+02   0.318E+02 0.307E+01 -.283E+01   0.867E-04 0.313E-04 -.747E-04
   0.221E+02 -.266E+01 -.496E+02   -.352E+02 0.102E+02 0.486E+02   -.141E+02 0.814E+01 0.105E+01   -.702E-04 -.654E-04 -.299E-04
   -.286E+01 0.629E+01 -.920E+02   0.313E+01 -.648E+01 0.923E+02   -.367E+00 -.177E+00 0.857E+00   -.252E-04 -.151E-04 0.971E-04
   -.245E+00 0.462E+00 -.318E+02   -.106E+00 0.219E+00 0.323E+02   0.655E-01 -.355E+00 -.433E+00   0.515E-04 0.163E-04 0.957E-04
   0.845E-01 -.303E+00 0.318E+02   0.176E+00 -.546E-01 -.318E+02   -.191E+00 0.505E+00 -.479E+00   -.161E-04 0.241E-06 0.839E-04
   -.653E+01 0.862E+00 0.110E+03   0.592E+01 0.693E+00 -.113E+03   0.119E+01 -.957E+00 -.486E+01   0.131E-03 0.230E-04 0.144E-03
   0.485E+02 0.730E+01 0.712E+02   -.588E+02 -.108E+02 -.737E+02   -.163E+02 -.196E+01 -.578E+01   -.112E-03 -.115E-04 -.359E-04
   0.283E+02 -.234E+02 -.793E+02   -.395E+02 0.745E+02 0.867E+02   -.853E+01 0.302E+02 0.109E+02   0.131E-03 0.483E-04 -.194E-04
   -.768E+00 0.151E+01 -.891E+02   0.642E+00 -.178E+01 0.897E+02   -.850E-01 0.354E+00 0.353E+00   -.263E-04 -.105E-04 0.729E-04
   -.121E+00 0.347E+00 -.323E+02   0.159E+00 -.240E+00 0.322E+02   -.613E-01 0.145E+00 0.289E+00   -.753E-05 0.107E-06 0.988E-04
   0.394E+00 0.227E+00 0.319E+02   -.337E+00 -.185E+00 -.320E+02   -.960E-01 -.836E-01 -.154E-01   -.166E-04 0.287E-05 0.628E-04
   -.750E+01 -.286E+01 0.886E+02   0.791E+01 0.309E+01 -.897E+02   0.261E+00 0.241E+00 -.124E+00   -.296E-04 -.586E-05 0.172E-04
   0.150E+02 0.186E+02 0.619E+02   -.128E+04 -.108E+04 -.605E+02   0.661E+01 0.948E+01 -.270E+01   0.427E-03 0.292E-03 -.787E-04
   -.441E+02 0.499E+02 -.594E+02   0.538E+02 -.647E+02 0.602E+02   0.138E+02 -.182E+02 0.226E+01   0.551E-04 -.104E-03 0.216E-04
   -.669E+00 -.537E+01 -.926E+02   -.143E+00 0.577E+01 0.943E+02   0.397E+00 -.177E+00 -.233E+00   0.366E-04 0.951E-05 0.128E-03
   0.919E-01 0.370E+00 -.320E+02   -.940E-01 -.204E-02 0.322E+02   0.640E-01 -.727E-01 -.186E+00   -.351E-04 -.990E-05 0.764E-04
   -.713E+00 -.198E+00 0.326E+02   0.451E+00 -.700E-01 -.325E+02   0.740E-01 0.349E+00 -.149E+00   -.143E-04 0.861E-06 0.803E-04
   0.100E+02 0.378E+01 0.999E+02   -.110E+02 -.261E+01 -.101E+03   -.534E+00 -.102E+01 -.177E+01   -.116E-03 -.747E-04 0.202E-03
   -.178E+02 0.145E+02 0.661E+02   0.185E+02 -.159E+02 -.655E+02   0.243E+01 -.121E+01 -.257E+01   -.557E-04 0.813E-05 -.581E-04
   -.457E+02 -.521E+01 -.616E+02   0.209E+03 0.394E+02 0.612E+02   0.308E+02 0.671E+01 0.271E+01   0.116E-03 0.615E-04 0.231E-04
   0.990E+01 0.370E+01 -.994E+02   -.102E+02 -.502E+01 0.101E+03   -.744E+00 0.246E+00 0.201E+01   -.839E-04 -.469E-04 0.750E-04
   -.336E+00 -.228E+00 -.319E+02   0.881E-01 0.194E+00 0.318E+02   0.195E+00 -.736E-01 0.312E+00   -.169E-04 -.595E-05 0.855E-04
   0.728E-01 -.318E+00 0.324E+02   0.711E-01 0.860E-02 -.322E+02   0.101E+00 -.111E+00 -.356E+00   -.909E-05 -.171E-04 0.146E-03
   0.448E+01 -.690E+01 0.946E+02   -.530E+01 0.712E+01 -.947E+02   0.325E+00 -.138E+00 -.130E+01   -.784E-05 -.462E-05 0.153E-04
   -.313E+02 0.222E+02 0.603E+02   0.435E+02 -.355E+02 -.602E+02   0.136E+02 -.180E+02 -.209E+01   0.512E-03 0.712E-05 -.840E-04
   0.588E+02 -.196E+02 -.718E+02   -.691E+02 0.183E+02 0.737E+02   -.179E+02 0.139E+00 0.649E+01   -.155E-03 0.324E-04 0.184E-04
   -.883E+01 -.114E+01 -.891E+02   0.876E+01 0.675E+00 0.897E+02   0.370E+00 0.200E+00 0.198E+00   -.145E-04 -.166E-04 0.121E-03
   0.348E+00 0.270E+00 -.329E+02   -.193E+00 0.336E-01 0.328E+02   -.993E-01 -.234E+00 0.104E+00   0.101E-04 0.684E-05 0.412E-04
   0.121E+00 -.256E+00 0.318E+02   -.182E+00 0.247E+00 -.322E+02   0.658E-01 -.191E-01 0.149E+00   -.192E-04 -.190E-04 0.764E-04
   -.363E+01 0.104E+02 0.935E+02   0.399E+01 -.889E+01 -.923E+02   -.317E+00 0.514E-01 0.164E+00   0.231E-04 0.349E-03 0.517E-03
   0.397E+02 -.509E+02 0.779E+02   -.498E+02 0.104E+03 -.867E+02   -.120E+02 0.301E+02 -.104E+02   0.269E-04 -.879E-04 -.525E-04
   -.809E+01 -.119E+02 -.660E+02   0.818E+01 0.133E+02 0.655E+02   0.162E+01 -.663E-01 0.252E+01   -.427E-04 0.288E-04 0.514E-04
   -.507E+01 0.476E-01 -.111E+03   0.677E+01 -.172E+01 0.113E+03   0.225E+00 0.810E+00 0.482E+01   0.126E-03 0.329E-04 0.968E-04
   0.417E+00 0.270E+00 -.321E+02   -.426E+00 0.643E-01 0.320E+02   0.538E-01 -.340E+00 0.280E+00   -.205E-04 -.937E-05 0.976E-04
   0.116E+00 -.328E+00 0.316E+02   0.119E+00 -.199E+00 -.321E+02   -.128E+00 0.235E+00 0.474E+00   0.445E-04 -.101E-04 0.118E-03
   -.377E+00 -.354E+01 0.935E+02   0.711E+00 0.336E+01 -.943E+02   0.166E+00 0.575E+00 -.645E+00   -.748E-04 -.144E-04 0.442E-04
   0.349E+02 -.336E+02 0.491E+02   -.455E+02 0.393E+02 -.486E+02   -.154E+02 0.108E+02 -.951E+00   -.587E-04 -.447E-06 -.565E-04
   0.242E+02 -.851E+01 -.615E+02   -.129E+04 -.105E+04 0.605E+02   0.727E+01 0.709E+01 0.272E+01   -.575E-04 -.228E-04 0.278E-05
   0.258E+01 0.124E+01 -.841E+02   -.271E+01 -.106E+01 0.845E+02   0.107E-01 -.434E+00 0.445E-02   -.842E-05 -.157E-04 0.834E-04
   -.472E+00 -.296E+00 -.321E+02   0.363E+00 0.179E+00 0.325E+02   0.976E-01 0.463E-01 -.250E+00   0.271E-04 0.183E-04 0.122E-03
   0.278E+00 -.434E+00 0.324E+02   -.194E+00 0.468E+00 -.323E+02   -.374E-01 -.195E+00 -.142E+00   -.203E-05 0.190E-05 0.620E-04
   -.138E+01 0.358E+01 0.882E+02   0.150E+01 -.420E+01 -.897E+02   -.379E+00 0.318E+00 0.322E+00   0.702E-05 0.125E-04 0.269E-04
   -.160E+02 -.193E+01 0.950E+02   0.235E+02 -.503E+01 -.135E+03   0.700E+01 -.443E+01 -.281E+02   -.482E-03 -.584E-03 -.159E-05
   0.376E+02 -.555E+02 0.291E+02   -.392E+02 0.629E+02 -.274E+02   -.191E+02 0.246E+02 0.460E+01   0.206E-03 -.113E-04 -.981E-04
   0.249E+00 0.400E+01 -.205E+02   0.719E-01 -.388E+01 0.205E+02   -.519E-01 -.225E+00 0.111E+01   -.939E-04 -.306E-04 -.176E-03
   -.577E+01 0.298E+02 0.488E+02   0.542E+01 -.321E+02 -.495E+02   0.262E+01 -.498E+01 -.107E+02   -.427E-04 -.788E-04 -.155E-03
   -.878E+01 -.413E+02 0.357E+02   0.110E+02 0.425E+02 -.350E+02   0.140E+01 0.120E+02 0.145E+01   -.240E-03 -.179E-03 -.976E-04
   -.612E+00 0.197E+01 -.210E+02   0.160E+01 -.242E+01 0.218E+02   -.740E+00 0.171E+00 -.867E-01   -.214E-04 0.123E-04 -.101E-03
   0.932E+01 0.120E+02 0.759E+02   -.139E+02 -.116E+02 -.103E+03   -.116E+02 -.550E+00 -.422E+02   -.284E-04 -.330E-04 -.146E-03
   0.134E+02 -.910E+01 0.417E+02   -.133E+02 0.855E+01 -.396E+02   -.116E+01 0.121E+01 -.238E+00   -.336E-04 -.242E-04 -.615E-04
   -.202E+01 0.377E+01 -.199E+02   0.204E+01 -.420E+01 0.193E+02   0.349E+00 0.285E+00 0.104E+01   0.953E-04 0.358E-04 -.223E-03
   -.219E+02 0.187E+02 0.624E+02   0.256E+02 -.115E+02 -.647E+02   0.946E+01 -.942E+00 -.189E+02   0.956E-04 -.280E-04 -.122E-03
   -.109E+02 0.175E+02 -.109E+02   0.106E+02 -.165E+02 0.994E+01   0.571E+00 -.176E+01 0.221E+01   -.241E-04 -.490E-05 -.926E-04
   -.420E+01 0.488E+01 0.708E+01   0.281E+01 -.426E+01 -.679E+01   0.115E+01 -.832E+00 -.669E+00   0.739E-04 -.159E-04 -.192E-03
   -.591E+01 -.275E+02 -.558E+02   0.128E+04 0.109E+04 0.552E+02   -.103E+02 -.105E+02 0.153E+00   -.392E-05 0.463E-04 0.698E-05
[...]
   0.160E+01 -.220E+01 -.484E+01   -.139E+01 0.262E+01 0.419E+01   -.130E-01 -.326E+00 0.773E+00   0.584E-04 0.632E-05 -.302E-03
   0.437E+00 -.143E+02 0.845E+01   -.126E+01 0.126E+02 -.708E+01   -.270E+00 0.126E+00 -.438E+00   -.529E-04 0.385E-04 -.596E-04
   -.117E+02 0.108E+02 0.607E+02   0.129E+04 0.105E+04 -.599E+02   -.135E+02 -.154E+02 -.845E+00   0.146E-04 -.356E-04 -.678E-04
   0.261E+01 -.404E+01 -.614E+01   -.192E+01 0.411E+01 0.560E+01   -.674E+00 0.226E+00 0.931E+00   0.704E-05 -.924E-05 -.460E-04
   0.143E+02 -.167E+02 0.123E+02   -.134E+02 0.161E+02 -.121E+02   -.197E+01 0.204E+01 -.239E+01   -.634E-04 0.716E-05 -.719E-04
   0.180E+02 -.189E+02 -.725E+02   -.258E+02 0.175E+02 0.100E+03   -.112E+02 0.122E+00 0.399E+02   -.202E-03 -.455E-03 -.614E-03
   0.370E+01 -.431E+01 0.189E+02   -.313E+01 0.415E+01 -.185E+02   -.875E+00 0.194E+00 -.122E+01   -.467E-04 -.104E-04 -.585E-04
   0.473E+01 0.287E+02 -.451E+02   -.579E+01 -.290E+02 0.443E+02   -.186E+01 -.393E+01 -.247E+00   -.501E-04 -.783E-04 0.391E-04
   -.125E+02 -.305E+02 -.562E+02   0.136E+02 0.339E+02 0.588E+02   0.943E+01 0.477E+01 0.188E+02   -.206E-04 -.346E-04 -.153E-03
   -.390E+00 -.386E+01 0.199E+02   -.644E+00 0.446E+01 -.202E+02   0.828E+00 -.589E+00 -.332E+00   -.497E-04 0.132E-04 -.128E-03
   -.901E+01 0.760E+02 -.299E+02   0.102E+02 -.116E+03 0.295E+02   0.631E+01 -.481E+02 -.531E+01   0.160E-03 0.163E-04 -.330E-04
   0.178E+02 -.281E+02 -.367E+02   -.185E+02 0.280E+02 0.395E+02   -.289E+01 0.300E+01 0.359E+01   0.614E-04 0.236E-04 -.142E-03
   0.158E+01 -.583E+01 0.169E+02   -.120E+01 0.547E+01 -.171E+02   -.615E+00 0.642E+00 -.568E+00   0.757E-04 0.427E-04 -.126E-03
   -.530E+02 0.374E+02 -.419E+02   0.562E+02 -.384E+02 0.384E+02   0.227E+02 -.155E+02 0.799E+00   -.153E-04 -.954E-04 -.347E-04
   -.587E+01 0.281E+02 -.450E+01   -.924E-12 0.187E-11 0.320E-12   0.565E+01 -.280E+02 0.445E+01   0.241E-03 -.223E-03 -.126E-02

 POSITION                                       TOTAL-FORCE (eV/Angst)
    -18.08474      5.25598      0.00000        17.316374    -11.237609     68.349029
    -11.48397      4.58920      2.00033         0.776125     -0.881005     -1.091964
     -4.88321      3.92242      4.00067        -0.052791      0.060979      0.199622
      1.71756      3.25565      6.00100         0.018676     -0.040550     -0.148901
     -8.65507      2.58887      8.00134        -0.232065      0.465397     -0.651666
     -2.05430      1.92209     10.00167       196.212108     37.195865     -3.143749
     -8.65507      2.58887      0.00000       -27.248561     15.635490      0.011241
     -2.05431      1.92209      2.00033        -0.086720     -0.368476      1.155475
      4.54646      1.25531      4.00067        -0.282270      0.323836      0.086043
     11.14723      0.58853      6.00100         0.072132      0.146552     -0.422848
    -18.08474      5.25598      8.00134         0.585879      0.596458     -6.892218
    -11.48397      4.58920     10.00167       -26.591218     -5.474090     -8.316511
      4.54646      1.25531      0.00000       -19.727877     81.342982     18.330218
     11.14723      0.58853      2.00033        -0.208766      0.076464      1.000935
    -18.08474      5.25598      4.00067        -0.020420      0.250553      0.170247
    -11.48397      4.58920      6.00100        -0.037179     -0.042586     -0.132233
     -4.88321      3.92242      8.00134         0.674946      0.470013     -1.203558
      1.71756      3.25564     10.00167     -1262.331635  -1050.686743     -1.215481
     -4.88321      3.92242      0.00000        23.629283    -33.069510      3.041191
      1.71756      3.25565      2.00033        -0.411170      0.223657      1.407550
     -8.65507      2.58887      4.00067         0.064412      0.294351      0.016123
     -2.05431      1.92209      6.00100        -0.185369      0.079900     -0.001148
      4.54646      1.25531      8.00134        -1.561991      0.150639     -2.646082
     11.14723      0.58853     10.00167         3.164237     -2.556387     -1.986731
      2.18904      1.92209      0.00000       193.721611     40.874618      2.342741
      8.78981      1.25531      2.00033        -1.031488     -1.083896      3.372551
     -1.58282      0.58853      4.00067        -0.050313     -0.108206      0.193088
    -13.84139      5.25598      6.00100         0.246894     -0.420819     -0.144930
     -7.24062      4.58920      8.00134        -0.490516      0.087571     -1.415034
     -0.63985      3.92242     10.00167        25.889263    -31.342971     -1.947585
     -7.24062      4.58920      0.00000       -28.197518     -1.147291      8.412642
     -0.63986      3.92242      2.00033         0.305678     -0.267897      0.835207
    -11.01249      3.25565      4.00067         0.059101      0.068208      0.020734
     -4.41172      2.58887      6.00100         0.007763     -0.029330     -0.259584
      2.18904      1.92209      8.00134         0.043463      1.553807      1.378744
      8.78981      1.25531     10.00167       -22.097218     82.801428    -19.271825
     -1.58282      0.58853      0.00000         1.710603      1.359114      2.063263
    -13.84139      5.25598      2.00033         1.929481     -0.864608      6.707662
     -7.24062      4.58920      4.00067         0.047247     -0.006409      0.243944
     -0.63986      3.92242      6.00100         0.109737     -0.292846     -0.107847
    -11.01249      3.25565      8.00134         0.502264      0.390959     -1.388632
     -4.41172      2.58887     10.00167       -26.056636     16.510993     -0.482407
    -11.01249      3.25564      0.00000     -1262.776191  -1050.987897      1.635939
     -4.41172      2.58887      2.00033        -0.115288     -0.259763      0.486499
      2.18904      1.92209      4.00067        -0.008260     -0.071380      0.150390
      8.78981      1.25531      6.00100         0.049260     -0.161621     -0.055944
     -1.58282      0.58853      8.00134        -0.265148     -0.299913     -1.254827
    -13.84139      5.25598     10.00167        14.451052    -11.394579    -67.706732
    -18.42986      5.27029     10.00167       -20.644378     32.102268      6.342944
    -12.45774      4.38125     12.71717         0.271469     -0.103914      1.126613
     -6.48561      3.49222     15.43267         2.267320     -7.278185    -11.484930
      5.45863      1.71414     10.00167         3.629731     13.213648      2.089045
     11.43075      0.82510     12.71717         0.255024     -0.277395      0.709010
    -18.42986      5.27029     15.43267       -16.277790     -0.140638    -69.615946
     -6.48562      3.49222     10.00167        -1.075447      0.654762      1.841644
     -0.51349      2.60318     12.71717         0.366452     -0.147370      0.518257
      5.45863      1.71414     15.43267        13.116007      6.241212    -21.274659
     -5.69981      5.27029     11.35942         0.292503     -0.789001      1.259097
      0.27232      4.38125     14.07492        -0.245766     -0.215413     -0.371269
    -10.72896      3.49222     16.79042      1262.746445   1053.854648     -0.450275
[...]
     -3.02807      1.71414     10.00167      -168.568911    -57.071787      0.657850
      2.94405      0.82510     12.71717         0.200273      0.090931      0.129898
     -9.94316      5.27029     15.43267        -1.086577     -1.625865      0.935091
      2.00108      3.49222     10.00167      1261.374058   1049.724782     -0.065868
     -9.00019      2.60318     12.71717         0.018352      0.296832      0.392609
     -3.02807      1.71414     15.43267        -1.027934      1.432553     -2.257991
    -14.18651      5.27029     11.35942       -18.986966     -1.288570     67.797179
     -8.21439      4.38125     14.07492        -0.304575      0.031232     -0.842248
     -2.24226      3.49222     16.79042        -2.920908     -4.237992     -0.992962
      9.70198      1.71414     11.35942        10.583458      8.098013     21.364251
     -1.29930      0.82510     14.07492        -0.203960      0.011131     -0.596071
    -14.18651      5.27029     16.79042         7.534311    -87.746203     -5.628052
     -2.24227      3.49222     11.35942        -3.516497      2.894754      6.363474
      3.72986      2.60318     14.07492        -0.226164      0.279126     -0.742062
      9.70199      1.71414     16.79042        25.820582    -16.425068     -2.692077
    total drift:                               -0.215296      0.095075     -0.043966

  FREE ENERGIE OF THE ION-ELECTRON SYSTEM (eV)
  free  energy   TOTEN  =       823.40674527 eV

  energy  without entropy=      823.40860549  energy(sigma->0) =      823.40767538