 vasp.6.4.3 19Mar24 (build Oct 22 2024 11:23:12) complex

 executed on             LinuxIFC date 2025.06.08  17:45:31

 INCAR:
   SYSTEM = Si and Ge interface calculation
   ISTART = 0
   ICHARG = 2
   LWAVE = .FALSE.
   LREAL = AUTO
   ENCUT = 700
   ENAUG = 900
   ADDGRID = .TRUE.
   LMAXMIX = 6
   LASPH = .TRUE.
   LMIXTAU = .TRUE.
   NCORE = 16
   NELM = 100
   NBANDS = 346
   EDIFF = 1d-7
   AMIX = 0.6
   ISMEAR = 0
   SIGMA = 0.01
   NELECT = 576
   ISPIN = 2
   NUPDOWN = 1
   LVTOT = .FALSE.
   LVHAR = .TRUE.

 POTCAR:    PAW_PBE Sn 08Apr2002
|           W    W    AA    RRRRR   N    N  II  N    N   GGGG   !!!           |
|           W    W   A  A   R    R  NN   N  II  NN   N  G    G  !!!           |
|           W    W  A    A  R    R  N N  N  II  N N  N  G       !!!           |
|           W WW W  AAAAAA  RRRRR   N  N N  II  N  N N  G  GGG   !            |
|           WW  WW  A    A  R   R   N   NN  II  N   NN  G    G                |
|           W    W  A    A  R    R  N    N  II  N    N   GGGG   !!!           |
|     You use a magnetic or noncollinear calculation, but did not specify     |
|     the initial magnetic moment with the MAGMOM tag. Note that a            |
|     default of 6.944e-3 will be used for all atoms. This ferromagnetic      |
|     setup may break the symmetry of the crystal, in particular it may       |
|     rule out finding an antiferromagnetic solution. Thence, we              |
|     recommend setting the initial magnetic moment manually or verifying     |
|     carefully that this magnetic setup is desired.                          |

 POTCAR:    PAW_PBE Sn 08Apr2002
   VRHFIN =Sn: s2p2

   TITEL  = PAW_PBE Sn 08Apr2002
   POMASS =  118.710; ZVAL   =    4.000    mass and valenz
   ENMAX  =  103.236; ENMIN  =   77.427 eV

 Optimization of the real space projectors (new method)

 maximal supplied QI-value         = 12.47
 optimisation between [QCUT,QGAM] = [ 12.47, 27.06] = [ 43.56,205.12] Ry
 Optimized for a Real-space Cutoff    1.58 Angstroem

   l    n(q)    QCUT    max X(q) W(low)/X(q) W(high)/X(q)  e(spline)
   0     13    12.472    14.688    0.45E-04    0.45E-04    0.25E-05
   0     13    12.472     7.308    0.94E-04    0.11E-03    0.61E-05
   1     12    12.472    45.102    0.34E-03    0.14E-03    0.21E-05
   1     12    12.472    30.691    0.31E-03    0.13E-03    0.20E-05
   2     12    12.472     7.156    0.86E-04    0.11E-03    0.17E-05
 WARNING: PSMAXN for non-local potential too small
          PSMAXN should be >   13.5545592237991       NTYP=           1
  PAW_PBE Sn 08Apr2002                  :

 POSCAR: Sn+Sn
  positions in direct lattice

 exchange-correlation table for PE
   RHO(1)=    0.500       N(1)  =     2000
   RHO(2)=  100.500       N(2)  =     4000

 ion  position               nearest neighbor table
   1  0.982  0.982  0.000- 138 1.66  83 2.32  49 2.81  62 2.81  55 2.81 137 3.43
   2  0.732  0.732  0.100- 108 2.32  50 2.81  56 2.81  63 2.81  49 2.81 126 3.43
   3  0.482  0.482  0.200-  51 2.81  57 2.81  64 2.81  50 2.81
   4  0.232  0.232  0.300-  52 2.81  58 2.81  65 2.81  51 2.81
   5  0.982  0.982  0.400-  85 2.32  53 2.81  66 2.81  59 2.81  52 2.81 139 3.43
   6  0.732  0.732  0.500- 127 1.66  92 2.32  54 2.81  60 2.81  53 2.81 110 3.43
   7  0.982  0.315  0.000-  96 1.54 131 2.60  68 2.81  37 2.81  61 2.81 114 2.96 101 3.37  78 3.66

   8  0.732  0.065  0.100- 120 2.60  69 2.81  38 2.81  62 2.81  37 2.81  84 3.37
   9  0.482  0.815  0.200-  39 2.81  63 2.81  70 2.81  38 2.81
  10  0.232  0.565  0.300-  64 2.81  40 2.81  39 2.81  71 2.81
  11  0.982  0.315  0.400- 133 2.60  40 2.81  41 2.81  72 2.81  65 2.81 103 3.37
  12  0.732  0.065  0.500- 103 1.54 122 2.60  42 2.81  66 2.81  41 2.81 121 2.96  86 3.37  85 3.66

[...]

  37  0.732  0.149  0.000- 120 1.17 101 2.40  19 2.81   7 2.81   8 2.81 102 3.28 131 3.66
  38  0.482  0.899  0.100-  84 2.40  31 2.81  20 2.81   8 2.81   9 2.81 120 3.66
  39  0.232  0.649  0.200-   9 2.81  21 2.81  32 2.81  10 2.81
  40  0.982  0.399  0.300-  22 2.81  10 2.81  33 2.81  11 2.81
  41  0.732  0.149  0.400- 103 2.40  23 2.81  11 2.81  34 2.81  12 2.81 133 3.66
  42  0.482  0.899  0.500- 109 1.17  86 2.40  24 2.81  12 2.81  35 2.81  91 3.28 122 3.66
  43  0.732  0.482  0.000-  90 1.66 113 2.32  25 2.81  14 2.81  13 2.81  77 3.43
  44  0.482  0.232  0.100- 132 2.32  26 2.81  19 2.81  14 2.81  15 2.81 102 3.43
  45  0.232  0.982  0.200-  20 2.81  27 2.81  15 2.81  16 2.81
  46  0.982  0.732  0.300-  28 2.81  16 2.81  17 2.81  21 2.81
  47  0.732  0.482  0.400- 115 2.32  29 2.81  17 2.81  18 2.81  22 2.81  79 3.43
  48  0.482  0.232  0.500-  79 1.66 134 2.32  30 2.81  23 2.81  18 2.81 104 3.43
  49  0.732  0.815  0.000- 108 1.32 138 1.54   1 2.81  31 2.81   2 2.81 143 3.37  84 3.43 126 3.66
                            83 3.71
  50  0.482  0.565  0.100-  32 2.81   2 2.81  25 2.81   3 2.81 114 3.37 108 3.71
  51  0.232  0.315  0.200-   3 2.81  33 2.81  26 2.81   4 2.81
  52  0.982  0.065  0.300-   4 2.81  34 2.81  27 2.81   5 2.81
  53  0.732  0.815  0.400-  35 2.81   5 2.81  28 2.81   6 2.81 127 3.37  85 3.71
  54  0.482  0.565  0.500-  97 1.32 127 1.54   6 2.81  36 2.81  29 2.81 116 3.37  73 3.43 115 3.66
                            92 3.71
  55  0.232  0.982  0.000- 102 1.66 137 2.32   1 2.81  19 2.81  20 2.81 107 3.43
  56  0.982  0.732  0.100- 126 2.32   2 2.81  20 2.81  13 2.81  21 2.81  90 3.43
  57  0.732  0.482  0.200-   3 2.81  14 2.81  21 2.81  22 2.81
  58  0.482  0.232  0.300-   4 2.81  15 2.81  22 2.81  23 2.81
  59  0.232  0.982  0.400- 139 2.32  23 2.81  16 2.81   5 2.81  24 2.81  91 3.43
  60  0.982  0.732  0.500-  91 1.66 110 2.32  17 2.81  24 2.81   6 2.81  74 3.43
  61  0.232  0.315  0.000-  78 1.32 114 1.54  25 2.81   7 2.81  26 2.81 119 3.37  96 3.43 132 3.66
                            95 3.71
  62  0.982  0.065  0.100-   1 2.81  26 2.81   8 2.81  27 2.81 138 3.37  78 3.71
  63  0.732  0.815  0.200-   9 2.81   2 2.81  27 2.81  28 2.81
  64  0.482  0.565  0.300-  10 2.81   3 2.81  29 2.81  28 2.81
  65  0.232  0.315  0.400-  29 2.81   4 2.81  11 2.81  30 2.81 121 3.37  97 3.71
  66  0.982  0.065  0.500-  85 1.32 121 1.54  12 2.81  30 2.81   5 2.81 140 3.37 103 3.43 139 3.66
                            80 3.71
  67  0.232  0.649  0.000- 144 1.17  89 2.40  13 2.81  31 2.81  32 2.81  90 3.28 125 3.66
  68  0.982  0.399  0.100-  96 2.40   7 2.81  32 2.81  14 2.81  33 2.81 144 3.66
  69  0.732  0.149  0.200-   8 2.81  15 2.81  34 2.81  33 2.81
  70  0.482  0.899  0.300-  16 2.81   9 2.81  35 2.81  34 2.81
  71  0.232  0.649  0.400-  73 2.40  35 2.81  17 2.81  10 2.81  36 2.81 109 3.66
  72  0.982  0.399  0.500- 133 1.17  98 2.40  36 2.81  18 2.81  11 2.81  79 3.28 128 3.66
  73  0.303  0.661  0.500-  36 1.54  71 2.40 109 2.81 128 2.81 127 2.81  35 3.37  54 3.43
  74  0.887  0.577  0.600- 115 2.81 129 2.81 110 2.81 128 2.81  60 3.43  18 3.66
  75  0.470  0.494  0.700- 116 2.81 111 2.81 129 2.81 130 2.81
  76  0.053  0.411  0.800- 117 2.81 131 2.81 112 2.81 130 2.81
  77  0.637  0.327  0.900- 118 2.81 113 2.81 131 2.81 132 2.81  43 3.43  19 3.66
  78  0.220  0.244  0.000-  61 1.32  26 2.32 114 2.81 132 2.81 119 2.81   7 3.66  62 3.71
  79  0.637  0.327  0.500-  18 1.17  48 1.66 115 2.81 133 2.81 134 2.81  72 3.28  47 3.43  23 3.66

[...]

 140  0.803  0.911  0.600-  92 2.81 105 2.81  85 2.81  86 2.81  66 3.37
 141  0.387  0.827  0.700- 106 2.81  87 2.81  93 2.81  86 2.81
 142  0.970  0.744  0.800- 107 2.81  94 2.81  88 2.81  87 2.81
 143  0.553  0.661  0.900-  89 2.81  88 2.81 108 2.81  95 2.81  49 3.37
 144  0.137  0.577  0.000-  67 1.17  32 2.60  13 2.78  96 2.81  89 2.81  90 2.81  68 3.66

  LATTYP: Found a simple orthorhombic cell.
 ALAT       =    11.2396240230
 B/A-ratio  =     1.4142136167
 C/A-ratio  =     2.0412418545

  Lattice vectors:

 A1 = (  11.2396240230,   0.0000000000,   0.0000000000)
 A2 = (  -0.0000009540,  15.8952293400,   0.0000000000)
 A3 = (   0.0000000000,   0.0000000000,  22.9427909850)

Analysis of symmetry for initial positions (statically):
 Subroutine PRICEL returns following result:

[...]

   2 primitive cells build up your supercell.

 Routine SETGRP: Setting up the symmetry group for a
 simple orthorhombic supercell.

 Subroutine GETGRP returns: Found  2 space group operations
 (whereof  1 operations were pure point group operations)
 out of a pool of  8 trial point group operations.

The static configuration has the point symmetry C_1 .
 The point group associated with its full space group is C_1h.

Analysis of symmetry for dynamics (positions and initial velocities):
 Subroutine PRICEL returns following result:

[...]

The dynamic configuration has the point symmetry C_1 .
 The point group associated with its full space group is C_1h.

Analysis of structural, dynamic, and magnetic symmetry:
 Subroutine PRICEL returns following result:

  LATTYP: Found a simple orthorhombic cell.
 ALAT       =     7.9476142090
 B/A-ratio  =     1.4142136721
 C/A-ratio  =     2.8867519713

  Lattice vectors:

 A1 = (  -0.0000001511,   7.9476142090,   0.0000000000)
 A2 = ( -11.2396246749,   0.0000009219,   0.0000000000)
 A3 = (   0.0000000000,   0.0000000000,  22.9427909850)

   2 primitive cells build up your supercell.

 Routine SETGRP: Setting up the symmetry group for a
 simple orthorhombic supercell.

 Subroutine GETGRP returns: Found  2 space group operations
 (whereof  1 operations were pure point group operations)
 out of a pool of  8 trial point group operations.

The overall configuration has the point symmetry C_1 .
 The point group associated with its full space group is C_1h.

 Subroutine INISYM returns: Found  2 space group operations
 (whereof  1 operations are pure point group operations),
 and found     2 'primitive' translations

                                     Primitive cell

  volume of cell :    2049.4382

  direct lattice vectors                    reciprocal lattice vectors
    -0.000000151  7.947614209  0.000000000     0.000000010  0.125823923  0.000000000
   -11.239624675  0.000000922  0.000000000    -0.088970942 -0.000000002  0.000000000
     0.000000000  0.000000000 22.942790985     0.000000000  0.000000000  0.043586676

  length of vectors
     7.947614209 11.239624675 22.942790985     0.125823923  0.088970942  0.043586676

  position of ions in fractional coordinates (direct lattice)
     0.964041108  0.000000057  0.000000002
     0.464040903  0.999999969  0.099999994
     0.964040752  0.999999998  0.200000003
     0.464040307  0.999999834  0.299999982
     0.964040394  0.999999938  0.400000006
     0.464040187  0.999999834  0.500000060
     0.630707796  0.333333401  0.000000002
     0.130707661  0.333333333  0.099999994
     0.630707498  0.333333371  0.200000003
     0.130707259  0.333333251  0.299999982
     0.630707140  0.333333311  0.400000006
     0.130706873  0.333333177  0.500000060
     0.297374482  0.666666744  0.000000002
     0.797374275  0.666666655  0.099999994
     0.297374124  0.666666684  0.200000003
     0.797373799  0.666666580  0.299999982
     0.297373886  0.666666684  0.400000006
     0.797373321  0.666666401  0.500000060
     0.297374393  0.416666699  0.000000014
     0.797374302  0.416666654  0.100000001
[...]
     0.000000000  0.000000000 22.942790985     0.000000000  0.000000000  0.043586676

  length of vectors
    11.239624023 19.467600915 22.942790985     0.108966713  0.062911958  0.043586676

 FORCES acting on ions
    electron-ion (+dipol)            ewald-force                    non-local-force                 convergence-correction
   -.178E+02 -.313E+02 -.207E+02   0.456E+02 0.580E+02 0.223E+02   0.246E+02 0.253E+02 0.597E+01   -.733E-03 -.197E-03 0.283E-03
   0.240E+01 0.816E+01 -.711E+02   -.165E+01 -.820E+01 0.727E+02   0.367E+00 -.186E+01 0.822E+01   -.504E-03 0.764E-04 -.101E-03
   -.769E+00 -.635E+00 -.186E+02   0.526E+00 0.854E+00 0.185E+02   0.257E+00 -.330E+00 0.183E+00   -.220E-03 0.926E-06 0.213E-04
   -.769E+00 -.634E+00 0.186E+02   0.526E+00 0.854E+00 -.185E+02   0.257E+00 -.330E+00 -.183E+00   -.219E-03 -.304E-05 -.508E-04
   0.240E+01 0.816E+01 0.711E+02   -.165E+01 -.820E+01 -.727E+02   0.367E+00 -.186E+01 -.822E+01   -.503E-03 0.743E-04 0.887E-04
   -.179E+02 -.313E+02 0.207E+02   0.456E+02 0.580E+02 -.223E+02   0.246E+02 0.253E+02 -.597E+01   -.732E-03 -.190E-03 -.275E-03
   0.886E+01 0.227E+02 -.104E+02   0.170E+01 -.781E+02 0.104E+02   0.346E+01 -.340E+02 0.146E+01   0.516E-03 -.107E-03 0.237E-03
   -.125E+02 -.641E+01 -.612E+02   0.123E+02 0.684E+01 0.608E+02   0.206E+01 -.487E+00 0.424E+01   0.186E-03 0.652E-04 -.203E-03
   0.104E+01 0.103E+01 -.188E+02   -.703E+00 -.100E+01 0.192E+02   -.967E-01 -.154E+00 -.263E+00   0.163E-03 -.156E-05 -.450E-04
   0.104E+01 0.103E+01 0.188E+02   -.703E+00 -.100E+01 -.192E+02   -.967E-01 -.154E+00 0.263E+00   0.163E-03 -.292E-05 0.150E-04
   -.125E+02 -.641E+01 0.612E+02   0.123E+02 0.684E+01 -.608E+02   0.206E+01 -.487E+00 -.424E+01   0.186E-03 0.622E-04 0.191E-03
   0.886E+01 0.227E+02 0.104E+02   0.170E+01 -.781E+02 -.104E+02   0.346E+01 -.340E+02 -.146E+01   0.515E-03 -.110E-03 -.230E-03
   -.827E+01 -.128E+02 0.611E+01   0.482E+02 0.134E+03 -.674E+01   0.168E+02 0.133E+02 -.449E+00   0.353E-03 -.546E-05 0.285E-03
   -.962E+00 0.224E+01 -.442E+02   0.344E-01 -.227E+01 0.436E+02   0.846E+00 -.264E+00 0.116E+01   0.157E-03 -.684E-05 0.316E-03
   -.418E+00 -.161E+00 -.207E+02   0.186E+00 0.401E+00 0.211E+02   0.257E+00 -.325E+00 -.189E+00   0.595E-04 0.324E-06 0.100E-03
   -.418E+00 -.161E+00 0.207E+02   0.186E+00 0.401E+00 -.211E+02   0.257E+00 -.325E+00 0.189E+00   0.596E-04 0.579E-05 -.125E-03
   -.962E+00 0.224E+01 0.442E+02   0.345E-01 -.227E+01 -.436E+02   0.846E+00 -.264E+00 -.116E+01   0.156E-03 -.119E-05 -.328E-03
   -.827E+01 -.128E+02 -.611E+01   0.482E+02 0.134E+03 0.674E+01   0.168E+02 0.133E+02 0.449E+00   0.353E-03 -.103E-04 -.280E-03
   -.827E+01 -.128E+02 0.611E+01   0.482E+02 0.134E+03 -.674E+01   0.168E+02 0.133E+02 -.449E+00   0.352E-03 -.108E-04 0.287E-03
   -.962E+00 0.224E+01 -.442E+02   0.344E-01 -.227E+01 0.436E+02   0.846E+00 -.264E+00 0.116E+01   0.157E-03 -.556E-05 0.316E-03
   -.418E+00 -.161E+00 -.207E+02   0.186E+00 0.401E+00 0.211E+02   0.257E+00 -.325E+00 -.189E+00   0.594E-04 0.584E-05 0.976E-04
   -.418E+00 -.161E+00 0.207E+02   0.186E+00 0.401E+00 -.211E+02   0.257E+00 -.325E+00 0.189E+00   0.597E-04 0.185E-06 -.128E-03
   -.962E+00 0.224E+01 0.442E+02   0.344E-01 -.227E+01 -.436E+02   0.846E+00 -.264E+00 -.116E+01   0.157E-03 -.111E-04 -.328E-03
   -.827E+01 -.128E+02 -.611E+01   0.482E+02 0.134E+03 0.674E+01   0.168E+02 0.133E+02 0.449E+00   0.353E-03 -.599E-05 -.280E-03
   -.178E+02 -.313E+02 -.207E+02   0.456E+02 0.580E+02 0.223E+02   0.246E+02 0.253E+02 0.597E+01   -.734E-03 -.193E-03 0.283E-03
   0.240E+01 0.816E+01 -.711E+02   -.165E+01 -.820E+01 0.727E+02   0.367E+00 -.186E+01 0.822E+01   -.503E-03 0.720E-04 -.992E-04
   -.768E+00 -.635E+00 -.186E+02   0.526E+00 0.854E+00 0.185E+02   0.257E+00 -.330E+00 0.183E+00   -.219E-03 0.129E-05 0.236E-04
   -.769E+00 -.635E+00 0.186E+02   0.526E+00 0.854E+00 -.185E+02   0.257E+00 -.330E+00 -.183E+00   -.219E-03 0.534E-05 -.505E-04
   0.240E+01 0.816E+01 0.711E+02   -.165E+01 -.820E+01 -.727E+02   0.367E+00 -.186E+01 -.822E+01   -.503E-03 0.744E-04 0.870E-04
   -.178E+02 -.313E+02 0.207E+02   0.456E+02 0.580E+02 -.223E+02   0.246E+02 0.253E+02 -.597E+01   -.732E-03 -.201E-03 -.278E-03
   0.886E+01 0.227E+02 -.104E+02   0.170E+01 -.781E+02 0.104E+02   0.346E+01 -.340E+02 0.146E+01   0.516E-03 -.106E-03 0.235E-03
   -.125E+02 -.641E+01 -.612E+02   0.123E+02 0.684E+01 0.608E+02   0.206E+01 -.487E+00 0.424E+01   0.187E-03 0.686E-04 -.206E-03
   0.104E+01 0.103E+01 -.188E+02   -.703E+00 -.100E+01 0.192E+02   -.967E-01 -.154E+00 -.263E+00   0.163E-03 -.679E-05 -.447E-04
   0.104E+01 0.103E+01 0.188E+02   -.703E+00 -.100E+01 -.192E+02   -.967E-01 -.154E+00 0.263E+00   0.162E-03 -.592E-05 0.181E-04
   -.125E+02 -.641E+01 0.612E+02   0.123E+02 0.684E+01 -.608E+02   0.206E+01 -.487E+00 -.424E+01   0.185E-03 0.724E-04 0.193E-03
   0.886E+01 0.227E+02 0.104E+02   0.170E+01 -.781E+02 -.104E+02   0.346E+01 -.340E+02 -.146E+01   0.516E-03 -.103E-03 -.228E-03
   -.150E+02 -.193E+02 -.169E+02   0.454E+02 0.148E+03 0.160E+02   0.585E+01 0.236E+02 0.514E+01   0.621E-03 -.408E-04 0.297E-03
   0.997E+01 0.924E+01 -.637E+02   -.111E+02 -.830E+01 0.664E+02   -.123E+01 -.113E+01 0.446E+01   0.455E-03 0.334E-04 -.438E-04
   -.888E+00 -.115E+01 -.191E+02   0.749E+00 0.993E+00 0.192E+02   0.266E-01 0.196E+00 -.157E-01   0.212E-03 -.285E-04 -.784E-04
   -.888E+00 -.115E+01 0.191E+02   0.749E+00 0.993E+00 -.192E+02   0.266E-01 0.196E+00 0.157E-01   0.211E-03 -.341E-04 0.475E-04
   0.997E+01 0.924E+01 0.637E+02   -.111E+02 -.830E+01 -.664E+02   -.123E+01 -.113E+01 -.446E+01   0.454E-03 0.285E-04 0.309E-04
   -.150E+02 -.193E+02 0.169E+02   0.454E+02 0.148E+03 -.160E+02   0.585E+01 0.236E+02 -.514E+01   0.620E-03 -.361E-04 -.289E-03
   0.738E+01 0.419E+02 -.198E+02   -.213E+02 -.752E+02 0.223E+02   -.157E+02 -.382E+02 0.576E+01   -.119E-03 0.559E-04 0.290E-03
   -.562E+01 -.517E+01 -.701E+02   0.567E+01 0.535E+01 0.727E+02   0.645E+00 -.198E+00 0.636E+01   -.101E-03 -.413E-04 0.329E-03
   0.739E+00 0.735E+00 -.185E+02   -.475E+00 -.891E+00 0.185E+02   -.220E+00 0.150E+00 0.849E-01   -.854E-04 0.133E-04 0.158E-03
   0.739E+00 0.735E+00 0.185E+02   -.475E+00 -.891E+00 -.185E+02   -.220E+00 0.150E+00 -.849E-01   -.856E-04 0.177E-04 -.184E-03
   -.562E+01 -.517E+01 0.701E+02   0.567E+01 0.535E+01 -.727E+02   0.645E+00 -.198E+00 -.636E+01   -.101E-03 -.387E-04 -.341E-03
   0.738E+01 0.419E+02 0.198E+02   -.213E+02 -.752E+02 -.223E+02   -.157E+02 -.382E+02 -.576E+01   -.118E-03 0.482E-04 -.285E-03
   -.343E+01 0.201E+02 0.559E+01   -.392E+02 0.115E+02 -.616E+01   -.734E+01 -.134E+02 -.712E+00   -.452E-03 -.205E-04 0.249E-03
   -.466E+00 -.344E+01 -.435E+02   0.607E+00 0.388E+01 0.442E+02   0.517E-01 -.121E+00 0.224E+00   -.331E-03 0.162E-04 -.679E-04
   0.276E+00 0.255E+00 -.209E+02   -.163E+00 -.345E+00 0.211E+02   -.182E+00 0.890E-01 -.851E-01   -.113E-03 -.173E-04 -.500E-04
   0.276E+00 0.255E+00 0.209E+02   -.163E+00 -.345E+00 -.211E+02   -.182E+00 0.890E-01 0.851E-01   -.113E-03 -.163E-04 0.229E-04
   -.466E+00 -.344E+01 0.435E+02   0.607E+00 0.388E+01 -.442E+02   0.517E-01 -.121E+00 -.224E+00   -.330E-03 0.190E-04 0.555E-04
   -.343E+01 0.201E+02 -.559E+01   -.392E+02 0.115E+02 0.616E+01   -.734E+01 -.134E+02 0.712E+00   -.451E-03 -.174E-04 -.242E-03
   0.738E+01 0.419E+02 -.198E+02   -.213E+02 -.752E+02 0.223E+02   -.157E+02 -.382E+02 0.576E+01   -.119E-03 0.525E-04 0.291E-03
   -.562E+01 -.517E+01 -.701E+02   0.567E+01 0.535E+01 0.727E+02   0.645E+00 -.198E+00 0.636E+01   -.101E-03 -.364E-04 0.327E-03
   0.739E+00 0.735E+00 -.185E+02   -.475E+00 -.891E+00 0.185E+02   -.220E+00 0.150E+00 0.849E-01   -.856E-04 0.128E-04 0.156E-03
   0.739E+00 0.735E+00 0.185E+02   -.475E+00 -.891E+00 -.185E+02   -.220E+00 0.150E+00 -.849E-01   -.853E-04 0.856E-05 -.185E-03
   -.562E+01 -.517E+01 0.701E+02   0.567E+01 0.535E+01 -.727E+02   0.645E+00 -.198E+00 -.636E+01   -.100E-03 -.388E-04 -.339E-03
   0.738E+01 0.419E+02 0.198E+02   -.213E+02 -.752E+02 -.223E+02   -.157E+02 -.382E+02 -.576E+01   -.119E-03 0.597E-04 -.283E-03
[...]
   0.115E+02 -.861E+01 0.564E+02   -.125E+02 0.798E+01 -.584E+02   -.948E+00 0.756E+00 -.178E+01   0.493E-03 -.889E-04 0.383E-03
   0.151E+02 -.367E+02 0.216E+02   -.222E+02 0.458E+02 -.237E+02   -.147E+02 0.205E+02 -.621E+01   -.271E-03 -.458E-04 0.254E-03
   -.119E+02 0.227E+02 -.942E+01   -.208E+02 -.151E+03 0.805E+01   -.248E+01 -.251E+02 0.185E+01   0.710E-03 0.209E-03 -.337E-03
   -.130E+01 0.269E+01 -.709E+02   0.187E+00 -.303E+01 0.741E+02   0.175E+00 0.515E+00 0.634E+01   -.198E-03 0.945E-05 -.484E-05
   0.255E+00 -.710E+00 -.202E+02   -.404E+00 0.656E+00 0.209E+02   0.720E-01 -.121E-01 -.630E+00   -.121E-03 -.883E-05 -.150E-03
   -.967E+00 0.110E+01 0.195E+02   0.728E+00 -.104E+01 -.197E+02   0.139E+00 -.791E-01 0.622E-01   0.243E-03 0.204E-04 0.136E-03
   -.130E+01 0.269E+01 0.709E+02   0.187E+00 -.303E+01 -.741E+02   0.175E+00 0.515E+00 -.634E+01   -.199E-03 0.115E-04 0.199E-04
   0.141E+02 -.235E+02 -.490E+01   -.525E+02 0.492E+02 0.573E+01   -.281E+02 0.213E+02 0.266E+00   -.304E-03 -.285E-03 0.271E-03
   0.151E+02 -.367E+02 -.216E+02   -.222E+02 0.458E+02 0.237E+02   -.147E+02 0.205E+02 0.621E+01   -.270E-03 -.451E-04 -.247E-03
   -.182E+01 0.614E+01 -.442E+02   0.156E+01 -.611E+01 0.446E+02   0.347E+00 -.158E+00 0.285E+00   -.266E-03 0.106E-03 -.507E-03
   -.967E+00 0.110E+01 -.195E+02   0.728E+00 -.104E+01 0.197E+02   0.139E+00 -.791E-01 -.622E-01   0.243E-03 0.256E-04 -.120E-03
   0.561E+00 -.402E+00 0.182E+02   -.333E+00 0.624E+00 -.182E+02   -.182E+00 -.236E+00 -.108E+00   -.129E-03 -.181E-04 -.169E-04
   -.182E+01 0.614E+01 0.442E+02   0.156E+01 -.611E+01 -.446E+02   0.347E+00 -.158E+00 -.285E+00   -.266E-03 0.109E-03 0.522E-03
   -.119E+02 0.227E+02 0.942E+01   -.208E+02 -.151E+03 -.805E+01   -.248E+01 -.251E+02 -.185E+01   0.711E-03 0.216E-03 0.342E-03
   -.209E+02 -.430E+00 -.548E-02   0.711E-13 -.284E-13 0.608E-12   0.213E+02 -.174E+00 -.888E-15   0.734E-03 -.548E-03 0.800E-04

 POSITION                                       TOTAL-FORCE (eV/Angst)
     -0.00000     15.60944      0.00000        52.423879     51.990899      7.590269
     -0.00000     11.63563      2.29428         1.116990     -1.895792      9.860277
      0.00000      7.66182      4.58856         0.012347     -0.105974      0.040316
      0.00000      3.68801      6.88284         0.012347     -0.105974     -0.040316
      0.00000     15.60944      9.17712         1.116990     -1.895792     -9.860277
      0.00000     11.63563     11.47140        52.423879     51.990899     -7.590269
      7.49308      5.01262      0.00000        14.024978    -89.412786      1.502039
      7.49308      1.03881      2.29428         1.891065     -0.058656      3.793286
     -3.74654     12.96023      4.58856         0.239291     -0.125646      0.070206
     -3.74654      8.98642      6.88284         0.239291     -0.125646     -0.070206
      7.49308      5.01262      9.17712         1.891065     -0.058656     -3.793286
      7.49308      1.03881     11.47140        14.024978    -89.412786     -1.502039
      3.74654     10.31103      0.00000        56.647945    134.646115     -1.071705
      3.74654      6.33722      2.29428        -0.084406     -0.290318      0.622619
      3.74654      2.36341      4.58856         0.022626     -0.080999      0.213713
     -7.49308     14.28483      6.88284         0.022626     -0.080999     -0.213713
      3.74654     10.31103      9.17712        -0.084406     -0.290318     -0.622619
      3.74654      6.33722     11.47140        56.647945    134.646115      1.071705
      3.74654      2.36342      0.00000        56.647945    134.646115     -1.071705
     -7.49308     14.28484      2.29428        -0.084406     -0.290318      0.622619
      3.74654     10.31103      4.58856         0.022626     -0.080999      0.213713
      3.74654      6.33722      6.88284         0.022626     -0.080999     -0.213713
      3.74654      2.36341      9.17712        -0.084406     -0.290318     -0.622619
     -7.49308     14.28483     11.47140        56.647945    134.646115      1.071705
     -0.00000      7.66183      0.00000        52.423879     51.990899      7.590269
      0.00000      3.68802      2.29428         1.116990     -1.895792      9.860277
     -0.00000     15.60944      4.58856         0.012347     -0.105974      0.040316
      0.00000     11.63563      6.88284         0.012347     -0.105974     -0.040316
      0.00000      7.66182      9.17712         1.116990     -1.895792     -9.860277
      0.00000      3.68801     11.47140        52.423879     51.990899     -7.590269
     -3.74654     12.96024      0.00000        14.024978    -89.412786      1.502039
     -3.74654      8.98643      2.29428         1.891065     -0.058656      3.793286
      7.49308      5.01262      4.58856         0.239291     -0.125646      0.070206
      7.49308      1.03881      6.88284         0.239291     -0.125646     -0.070206
     -3.74654     12.96023      9.17712         1.891065     -0.058656     -3.793286
     -3.74654      8.98642     11.47140        14.024978    -89.412786     -1.502039
      6.55645      2.36342      0.00000        36.187198    152.296914      4.233343
     -4.68318     14.28484      2.29428        -2.351257     -0.187980      7.131744
     -4.68318     10.31103      4.58856        -0.114277      0.044958      0.116816
      6.55645      6.33722      6.88284        -0.114277      0.044958     -0.116816
      6.55645      2.36341      9.17712        -2.351257     -0.187980     -7.131744
     -4.68318     14.28483     11.47140        36.187198    152.296914     -4.233343
      2.80991      7.66183      0.00000       -29.626364    -71.471157      8.237022
      2.80991      3.68802      2.29428         0.695930     -0.011391      8.956220
     -8.42972     15.60944      4.58856         0.041104     -0.001613      0.089846
      2.80991     11.63563      6.88284         0.041104     -0.001613     -0.089846
      2.80991      7.66182      9.17712         0.695930     -0.011391     -8.956220
      2.80991      3.68801     11.47140       -29.626364    -71.471157     -8.237022
     -0.93664     12.96024      0.00000       -49.975135     18.303612     -1.284272
     -0.93664      8.98643      2.29428         0.189792      0.324101      0.880089
     -0.93664      5.01262      4.58856        -0.071761      0.003592      0.160356
     10.30299      1.03881      6.88284        -0.071761      0.003592     -0.160356
     -0.93664     12.96023      9.17712         0.189792      0.324101     -0.880089
     -0.93663      8.98642     11.47140       -49.975135     18.303612      1.284272
     -8.42972     15.60944      0.00000       -29.626364    -71.471157      8.237022
      2.80991     11.63563      2.29428         0.695930     -0.011391      8.956220
      2.80991      7.66182      4.58856         0.041104     -0.001613      0.089846
      2.80991      3.68801      6.88284         0.041104     -0.001613     -0.089846
     -8.42972     15.60944      9.17712         0.695930     -0.011391     -8.956220
      2.80991     11.63563     11.47140       -29.626364    -71.471157     -8.237022
[...]
     -1.20608      6.52774     18.35423        -0.080231     -0.062168     -0.063120
      6.28700      5.20314     20.64851        -1.866092      0.122844     -3.786157
      2.54046      3.87854      0.00000       -21.762374     29.610370     -8.309753
      6.28700      5.20315     11.47140       -35.206015   -153.480792      0.482884
      2.54046      3.87854     13.76568        -0.938510      0.179128      9.498325
     -1.20608      2.55394     16.05995        -0.080231     -0.062168      0.063120
      6.28700      1.22933     18.35423        -0.102277     -0.014301     -0.111403
     -8.69917     15.79996     20.64851        -0.938510      0.179128     -9.498325
     -1.20608     14.47535      0.00000       -66.491082     46.968241      1.101045
     -8.69916     15.79997     11.47140       -21.762374     29.610370      8.309753
     -1.20608     14.47536     13.76568         0.080559     -0.125490      0.769243
     -4.95262     13.15076     16.05995        -0.102277     -0.014301      0.111403
      2.54046     11.82615     18.35423         0.042902     -0.010598     -0.079005
     -1.20608     10.50155     20.64851         0.080559     -0.125490     -0.769243
     -4.95262      9.17695      0.00000       -35.206015   -153.480792     -0.482884
    total drift:                                0.349753     -0.603907     -0.005400

  FREE ENERGIE OF THE ION-ELECTRON SYSTEM (eV)
  free  energy   TOTEN  =       876.85539243 eV

  energy  without entropy=      876.85909802  energy(sigma->0) =      876.85724522