 vasp.6.4.3 19Mar24 (build Oct 22 2024 11:23:12) complex

 executed on             LinuxIFC date 2025.04.30  06:48:00

 INCAR:
   SYSTEM = Si011 and Ge011 interface calculation
   ISTART = 0
   ICHARG = 2
   LWAVE = .FALSE.
   LREAL = AUTO
   ENCUT = 700
   ENAUG = 900
   ADDGRID = .TRUE.
   LMAXMIX = 6
   LASPH = .TRUE.
   LMIXTAU = .TRUE.
   NCORE = 16
   NELM = 100
   NBANDS = 346
   EDIFF = 1d-7
   AMIX = 0.6
   ISMEAR = 0
   SIGMA = 0.01
   NELECT = 576
   ISPIN = 2
   NUPDOWN = 1
   LVTOT = .FALSE.
   LVHAR = .TRUE.

 POTCAR:    PAW_PBE Si 05Jan2001
 POTCAR:    PAW_PBE Ge 05Jan2001
|           W    W    AA    RRRRR   N    N  II  N    N   GGGG   !!!           |
|           W    W   A  A   R    R  NN   N  II  NN   N  G    G  !!!           |
|           W    W  A    A  R    R  N N  N  II  N N  N  G       !!!           |
|           W WW W  AAAAAA  RRRRR   N  N N  II  N  N N  G  GGG   !            |
|           WW  WW  A    A  R   R   N   NN  II  N   NN  G    G                |
|           W    W  A    A  R    R  N    N  II  N    N   GGGG   !!!           |
|     You use a magnetic or noncollinear calculation, but did not specify     |
|     the initial magnetic moment with the MAGMOM tag. Note that a            |
|     default of 6.944e-3 will be used for all atoms. This ferromagnetic      |
|     setup may break the symmetry of the crystal, in particular it may       |
|     rule out finding an antiferromagnetic solution. Thence, we              |
|     recommend setting the initial magnetic moment manually or verifying     |
|     carefully that this magnetic setup is desired.                          |

 POTCAR:    PAW_PBE Si 05Jan2001
   VRHFIN =Si: s2p2

   TITEL  = PAW_PBE Si 05Jan2001
   POMASS =   28.085; ZVAL   =    4.000    mass and valenz
   ENMAX  =  245.345; ENMIN  =  184.009 eV

 POTCAR:    PAW_PBE Ge 05Jan2001
   VRHFIN =Ge: s2p2

   TITEL  = PAW_PBE Ge 05Jan2001
   POMASS =   72.610; ZVAL   =    4.000    mass and valenz
   ENMAX  =  173.807; ENMIN  =  130.355 eV

 Optimization of the real space projectors (new method)

 maximal supplied QI-value         = 19.84
 optimisation between [QCUT,QGAM] = [ 13.49, 26.99] = [ 50.98,203.92] Ry
 Optimized for a Real-space Cutoff    1.07 Angstroem

   l    n(q)    QCUT    max X(q) W(low)/X(q) W(high)/X(q)  e(spline)
   0      9    13.493   159.560    0.22E-03    0.15E-03    0.72E-07
   0      9    13.493   115.863    0.21E-03    0.15E-03    0.71E-07
   1      8    13.493    88.339    0.15E-03    0.11E-03    0.13E-06
   1      8    13.493    48.592    0.15E-03    0.10E-03    0.13E-06
 Optimization of the real space projectors (new method)

 maximal supplied QI-value         = 16.25
 optimisation between [QCUT,QGAM] = [ 13.49, 26.98] = [ 50.95,203.80] Ry
 Optimized for a Real-space Cutoff    1.25 Angstroem

   l    n(q)    QCUT    max X(q) W(low)/X(q) W(high)/X(q)  e(spline)
   0     10    13.489    65.336    0.91E-04    0.11E-03    0.34E-06
   0     10    13.489    52.220    0.89E-04    0.11E-03    0.34E-06
   1     10    13.489    36.409    0.22E-03    0.27E-03    0.14E-06
   1     10    13.489    21.334    0.21E-03    0.27E-03    0.14E-06
   2      9    13.489     4.673    0.11E-03    0.12E-03    0.19E-06
  PAW_PBE Si 05Jan2001                  :
  PAW_PBE Ge 05Jan2001                  :

 POSCAR: fcc Si+fcc Ge
  positions in direct lattice

 exchange-correlation table for PE
   RHO(1)=    0.500       N(1)  =     2000
   RHO(2)=  100.500       N(2)  =     4000

 ion  position               nearest neighbor table
   1  0.000  0.000  0.000-  49 2.37  38 2.37  55 2.37  96 2.56 114 2.70
   2  0.000  0.750  0.080-  39 2.37  50 2.37  55 2.37  56 2.37
   3  0.000  0.500  0.161-  56 2.37  51 2.37  40 2.37  57 2.37
   4  0.000  0.250  0.241-  52 2.37  41 2.37  57 2.37  58 2.37
   5  0.000  0.000  0.322-  53 2.37  42 2.37  58 2.37  59 2.37
   6  0.000  0.750  0.402-  54 2.37  59 2.37  60 2.37  91 2.56 109 2.70
   7  0.333  0.333  0.000-  61 2.37  37 2.37  44 2.37 138 2.79
   8  0.333  0.083  0.080-  45 2.37  62 2.37  38 2.37  61 2.37
   9  0.333  0.833  0.161-  62 2.37  63 2.37  39 2.37  46 2.37
  10  0.333  0.583  0.241-  64 2.37  40 2.37  63 2.37  47 2.37
  11  0.333  0.333  0.322-  65 2.37  41 2.37  64 2.37  48 2.37
  12  0.333  0.083  0.402-  66 2.37  42 2.37  65 2.37 133 2.79
  13  0.667  0.667  0.000-  43 2.37  50 2.37  67 2.37  90 2.45
  14  0.667  0.417  0.080-  51 2.37  44 2.37  67 2.37  68 2.37
  15  0.667  0.167  0.161-  68 2.37  45 2.37  52 2.37  69 2.37
  16  0.667  0.917  0.241-  46 2.37  53 2.37  69 2.37  70 2.37
  17  0.667  0.667  0.322-  47 2.37  54 2.37  70 2.37  71 2.37
  18  0.667  0.417  0.402-  48 2.37  71 2.37  72 2.37  85 2.45
  19  0.000  0.500  0.000-  67 2.37  56 2.37  37 2.37  78 2.56 132 2.70
  20  0.000  0.250  0.080-  57 2.37  68 2.37  37 2.37  38 2.37
  21  0.000  0.000  0.161-  38 2.37  69 2.37  58 2.37  39 2.37
  22  0.000  0.750  0.241-  70 2.37  59 2.37  39 2.37  40 2.37
  23  0.000  0.500  0.322-  71 2.37  60 2.37  40 2.37  41 2.37
  24  0.000  0.250  0.402-  72 2.37  41 2.37  42 2.37  73 2.56 127 2.70
  25  0.333  0.833  0.000-  43 2.37  55 2.37  62 2.37 120 2.79
  26  0.333  0.583  0.080-  63 2.37  44 2.37  56 2.37  43 2.37
  27  0.333  0.333  0.161-  44 2.37  45 2.37  57 2.37  64 2.37
  28  0.333  0.083  0.241-  46 2.37  58 2.37  45 2.37  65 2.37
  29  0.333  0.833  0.322-  47 2.37  59 2.37  46 2.37  66 2.37
  30  0.333  0.583  0.402-  48 2.37  60 2.37  47 2.37 115 2.79
  31  0.667  0.167  0.000-  61 2.37  68 2.37  49 2.37 108 2.45
  32  0.667  0.917  0.080-  69 2.37  62 2.37  49 2.37  50 2.37
  33  0.667  0.667  0.161-  50 2.37  63 2.37  70 2.37  51 2.37
  34  0.667  0.417  0.241-  64 2.37  51 2.37  71 2.37  52 2.37
  35  0.667  0.167  0.322-  65 2.37  52 2.37  72 2.37  53 2.37
  36  0.667  0.917  0.402-  66 2.37  53 2.37  54 2.37 103 2.45
  37  0.083  0.333  0.000-   7 2.37  20 2.37  19 2.37  78 2.45
  38  0.083  0.083  0.080-  21 2.37   8 2.37   1 2.37  20 2.37
  39  0.083  0.833  0.161-   2 2.37   9 2.37  22 2.37  21 2.37
  40  0.083  0.583  0.241-  10 2.37   3 2.37  23 2.37  22 2.37
  41  0.083  0.333  0.322-  11 2.37   4 2.37  24 2.37  23 2.37
  42  0.083  0.083  0.402-  12 2.37   5 2.37  24 2.37  73 2.45
  43  0.417  0.667  0.000-  25 2.37  13 2.37  26 2.37 120 2.45 102 2.55
  44  0.417  0.417  0.080-  27 2.37  26 2.37  14 2.37   7 2.37
  45  0.417  0.167  0.161-   8 2.37  27 2.37  15 2.37  28 2.37
  46  0.417  0.917  0.241-  28 2.37  16 2.37   9 2.37  29 2.37
  47  0.417  0.667  0.322-  29 2.37  17 2.37  10 2.37  30 2.37
  48  0.417  0.417  0.402-  30 2.37  18 2.37  11 2.37 115 2.45  97 2.55
  49  0.750  0.000  0.000-   1 2.37  32 2.37  31 2.37 144 2.56
  50  0.750  0.750  0.080-  33 2.37   2 2.37  13 2.37  32 2.37
  51  0.750  0.500  0.161-  14 2.37   3 2.37  34 2.37  33 2.37
  52  0.750  0.250  0.241-   4 2.37  15 2.37  35 2.37  34 2.37
  53  0.750  0.000  0.322-   5 2.37  16 2.37  36 2.37  35 2.37
  54  0.750  0.750  0.402-   6 2.37  17 2.37  36 2.37 139 2.56
  55  0.083  0.833  0.000-  25 2.37   2 2.37   1 2.37  96 2.45
  56  0.083  0.583  0.080-   3 2.37  26 2.37  19 2.37   2 2.37
  57  0.083  0.333  0.161-  20 2.37  27 2.37   4 2.37   3 2.37
  58  0.083  0.083  0.241-  28 2.37  21 2.37   5 2.37   4 2.37
  59  0.083  0.833  0.322-  29 2.37  22 2.37   6 2.37   5 2.37
  60  0.083  0.583  0.402-  30 2.37  23 2.37   6 2.37  91 2.45
[...]
 130  0.126  0.075  0.743- 100 2.37  76 2.37  77 2.43  93 2.43
 131  0.126  0.325  0.826- 101 2.37  77 2.37  94 2.43  78 2.43
 132  0.126  0.575  0.909- 102 2.37  78 2.37  95 2.43  19 2.70
 133  0.459  0.991  0.493-  79 2.37 103 2.37  80 2.43  66 2.45  12 2.79
 134  0.459  0.241  0.576-  80 2.37 104 2.37  97 2.43  81 2.43
 135  0.459  0.491  0.660-  81 2.37 105 2.37  98 2.43  82 2.43
 136  0.459  0.741  0.743-  82 2.37 106 2.37  83 2.43  99 2.43
 137  0.459  0.991  0.826-  83 2.37 107 2.37 100 2.43  84 2.43
 138  0.459  0.241  0.909-  84 2.37 108 2.37 101 2.43  61 2.45   7 2.79
 139  0.793  0.658  0.493-  91 2.37  85 2.37  86 2.43  54 2.56
 140  0.793  0.908  0.576-  92 2.37  86 2.37  87 2.43 103 2.43
 141  0.793  0.158  0.660-  93 2.37  87 2.37  88 2.43 104 2.43
 142  0.793  0.408  0.743-  94 2.37  88 2.37  89 2.43 105 2.43
 143  0.793  0.658  0.826-  95 2.37  89 2.37 106 2.43  90 2.43
 144  0.793  0.908  0.909-  96 2.37  90 2.37 107 2.43  49 2.56

  LATTYP: Found a simple orthorhombic cell.
 ALAT       =     9.4916384250
 B/A-ratio  =     1.4142135624
 C/A-ratio  =     2.5383314005

  Lattice vectors:

 A1 = (   9.4916384250,   0.0000000000,   0.0000000000)
 A2 = (   0.0000000000,  13.4232037900,   0.0000000000)
 A3 = (   0.0000000000,   0.0000000000,  24.0929238560)

Analysis of symmetry for initial positions (statically):
 Subroutine PRICEL returns following result:

[...]

   2 primitive cells build up your supercell.

 Routine SETGRP: Setting up the symmetry group for a
 simple orthorhombic supercell.

 Subroutine GETGRP returns: Found  2 space group operations
 (whereof  1 operations were pure point group operations)
 out of a pool of  8 trial point group operations.

The static configuration has the point symmetry C_1 .
 The point group associated with its full space group is C_1h.

Analysis of symmetry for dynamics (positions and initial velocities):
 Subroutine PRICEL returns following result:

[...]

The dynamic configuration has the point symmetry C_1 .
 The point group associated with its full space group is C_1h.

Analysis of structural, dynamic, and magnetic symmetry:
 Subroutine PRICEL returns following result:

  LATTYP: Found a simple orthorhombic cell.
 ALAT       =     6.7116018950
 B/A-ratio  =     1.4142135623
 C/A-ratio  =     3.5897426923

  Lattice vectors:

 A1 = (   0.0000000000,  -6.7116018950,   0.0000000000)
 A2 = (   9.4916384250,   0.0000000000,   0.0000000000)
 A3 = (   0.0000000000,   0.0000000000,  24.0929238560)

   2 primitive cells build up your supercell.

 Routine SETGRP: Setting up the symmetry group for a
 simple orthorhombic supercell.

 Subroutine GETGRP returns: Found  2 space group operations
 (whereof  1 operations were pure point group operations)
 out of a pool of  8 trial point group operations.

The overall configuration has the point symmetry C_1 .
 The point group associated with its full space group is C_1h.

 Subroutine INISYM returns: Found  2 space group operations
 (whereof  1 operations are pure point group operations),
 and found     2 'primitive' translations

                                     Primitive cell

  volume of cell :    1534.8180

  direct lattice vectors                    reciprocal lattice vectors
     0.000000000 -6.711601895  0.000000000     0.000000000 -0.148995726  0.000000000
     9.491638425  0.000000000  0.000000000     0.105355889  0.000000000  0.000000000
     0.000000000  0.000000000 24.092923856     0.000000000  0.000000000  0.041505963

  length of vectors
     6.711601895  9.491638425 24.092923856     0.148995726  0.105355889  0.041505963

  position of ions in fractional coordinates (direct lattice)
     0.000000000  0.000000000  0.000000000
     0.500000000  0.000000000  0.080416665
     0.000000000  0.000000000  0.160833329
[...]
     0.000000000  0.000000000 24.092923856     0.000000000  0.000000000  0.041505963

  length of vectors
     9.491638425 13.423203790 24.092923856     0.105355889  0.074497863  0.041505963

 FORCES acting on ions
    electron-ion (+dipol)            ewald-force                    non-local-force                 convergence-correction
   -.328E+01 -.222E+02 0.945E+01   0.238E+01 0.211E+02 -.620E+01   0.128E+01 0.258E+01 -.178E+01   0.424E-05 0.909E-05 -.657E-04
   -.129E+00 0.925E+00 0.184E+02   -.313E+00 -.185E+01 -.172E+02   0.215E+00 0.728E+00 -.126E+01   0.538E-05 0.895E-05 -.411E-04
   -.129E+00 -.307E+00 0.439E+01   0.298E-01 0.188E+00 -.445E+01   0.680E-01 0.123E+00 0.850E-01   0.748E-05 -.212E-06 -.988E-05
   -.129E+00 -.307E+00 -.439E+01   0.298E-01 0.188E+00 0.445E+01   0.680E-01 0.123E+00 -.850E-01   0.748E-05 -.212E-06 0.960E-05
   -.129E+00 0.925E+00 -.184E+02   -.313E+00 -.185E+01 0.172E+02   0.215E+00 0.728E+00 0.126E+01   0.538E-05 0.895E-05 0.409E-04
   -.328E+01 -.222E+02 -.945E+01   0.238E+01 0.211E+02 0.620E+01   0.128E+01 0.258E+01 0.178E+01   0.424E-05 0.909E-05 0.657E-04
   -.622E+01 -.199E+02 0.283E+02   0.488E+01 0.192E+02 -.260E+02   0.143E+01 0.192E+00 -.282E+01   -.364E-05 0.175E-04 -.529E-04
   0.832E+00 0.195E+01 0.138E+02   -.487E+00 -.158E+01 -.145E+02   -.315E+00 -.610E+00 0.695E+00   -.207E-05 -.305E-05 -.352E-04
   0.328E-01 -.160E+00 0.477E+01   0.470E-01 0.164E+00 -.477E+01   -.819E-01 -.112E+00 -.822E-01   -.810E-05 0.446E-05 -.199E-04
   0.328E-01 -.160E+00 -.477E+01   0.470E-01 0.164E+00 0.477E+01   -.819E-01 -.112E+00 0.822E-01   -.810E-05 0.446E-05 0.197E-04
   0.832E+00 0.195E+01 -.138E+02   -.487E+00 -.158E+01 0.145E+02   -.315E+00 -.610E+00 -.695E+00   -.207E-05 -.305E-05 0.350E-04
   -.622E+01 -.199E+02 -.283E+02   0.488E+01 0.192E+02 0.260E+02   0.143E+01 0.192E+00 0.282E+01   -.363E-05 0.175E-04 0.529E-04
   -.154E+02 -.117E+00 0.131E+02   0.143E+02 -.369E+00 -.124E+02   0.142E+01 0.187E+00 -.603E+00   0.199E-04 0.131E-05 -.555E-04
   0.134E+01 -.362E+00 0.164E+02   -.174E+01 0.668E-01 -.161E+02   0.370E+00 0.153E+00 -.404E+00   0.731E-06 0.130E-05 -.438E-04
   -.413E+00 -.125E+00 0.469E+01   0.165E+00 -.511E-02 -.458E+01   0.190E+00 0.758E-01 -.933E-01   0.458E-05 0.325E-05 -.173E-04
   -.413E+00 -.125E+00 -.469E+01   0.165E+00 -.511E-02 0.458E+01   0.190E+00 0.758E-01 0.933E-01   0.458E-05 0.325E-05 0.170E-04
   0.134E+01 -.362E+00 -.164E+02   -.174E+01 0.668E-01 0.161E+02   0.370E+00 0.153E+00 0.404E+00   0.731E-06 0.130E-05 0.436E-04
   -.154E+02 -.117E+00 -.131E+02   0.143E+02 -.369E+00 0.124E+02   0.142E+01 0.187E+00 0.603E+00   0.199E-04 0.131E-05 0.555E-04
   -.328E+01 -.222E+02 0.945E+01   0.238E+01 0.211E+02 -.620E+01   0.128E+01 0.258E+01 -.178E+01   0.424E-05 0.909E-05 -.657E-04
   -.129E+00 0.925E+00 0.184E+02   -.313E+00 -.185E+01 -.172E+02   0.215E+00 0.728E+00 -.126E+01   0.538E-05 0.895E-05 -.411E-04
   -.129E+00 -.307E+00 0.439E+01   0.298E-01 0.188E+00 -.445E+01   0.680E-01 0.123E+00 0.850E-01   0.748E-05 -.212E-06 -.988E-05
   -.129E+00 -.307E+00 -.439E+01   0.298E-01 0.188E+00 0.445E+01   0.680E-01 0.123E+00 -.850E-01   0.748E-05 -.212E-06 0.960E-05
   -.129E+00 0.925E+00 -.184E+02   -.313E+00 -.185E+01 0.172E+02   0.215E+00 0.728E+00 0.126E+01   0.538E-05 0.895E-05 0.409E-04
   -.328E+01 -.222E+02 -.945E+01   0.238E+01 0.211E+02 0.620E+01   0.128E+01 0.258E+01 0.178E+01   0.424E-05 0.909E-05 0.657E-04
   -.622E+01 -.199E+02 0.283E+02   0.488E+01 0.192E+02 -.260E+02   0.143E+01 0.192E+00 -.282E+01   -.364E-05 0.175E-04 -.529E-04
   0.832E+00 0.195E+01 0.138E+02   -.487E+00 -.158E+01 -.145E+02   -.315E+00 -.610E+00 0.695E+00   -.207E-05 -.305E-05 -.352E-04
   0.328E-01 -.160E+00 0.477E+01   0.470E-01 0.164E+00 -.477E+01   -.819E-01 -.112E+00 -.822E-01   -.810E-05 0.446E-05 -.199E-04
   0.328E-01 -.160E+00 -.477E+01   0.470E-01 0.164E+00 0.477E+01   -.819E-01 -.112E+00 0.822E-01   -.810E-05 0.446E-05 0.197E-04
   0.832E+00 0.195E+01 -.138E+02   -.487E+00 -.158E+01 0.145E+02   -.315E+00 -.610E+00 -.695E+00   -.207E-05 -.305E-05 0.350E-04
   -.622E+01 -.199E+02 -.283E+02   0.488E+01 0.192E+02 0.260E+02   0.143E+01 0.192E+00 0.282E+01   -.363E-05 0.175E-04 0.529E-04
   -.154E+02 -.117E+00 0.131E+02   0.143E+02 -.369E+00 -.124E+02   0.142E+01 0.187E+00 -.603E+00   0.199E-04 0.131E-05 -.555E-04
   0.134E+01 -.362E+00 0.164E+02   -.174E+01 0.668E-01 -.161E+02   0.370E+00 0.153E+00 -.404E+00   0.731E-06 0.130E-05 -.438E-04
   -.413E+00 -.125E+00 0.469E+01   0.165E+00 -.511E-02 -.458E+01   0.190E+00 0.758E-01 -.933E-01   0.458E-05 0.325E-05 -.173E-04
   -.413E+00 -.125E+00 -.469E+01   0.165E+00 -.511E-02 0.458E+01   0.190E+00 0.758E-01 0.933E-01   0.458E-05 0.325E-05 0.170E-04
   0.134E+01 -.362E+00 -.164E+02   -.174E+01 0.668E-01 0.161E+02   0.370E+00 0.153E+00 0.404E+00   0.731E-06 0.130E-05 0.436E-04
   -.154E+02 -.117E+00 -.131E+02   0.143E+02 -.369E+00 0.124E+02   0.142E+01 0.187E+00 0.603E+00   0.199E-04 0.131E-05 0.555E-04
   0.349E+01 0.278E+02 0.173E+02   -.235E+01 -.262E+02 -.165E+02   -.383E+00 -.123E+01 -.108E+01   0.386E-05 -.141E-04 -.540E-04
   -.433E+00 -.283E+01 0.142E+02   -.316E-01 0.223E+01 -.152E+02   0.551E+00 0.714E+00 0.919E+00   0.349E-06 0.846E-07 -.346E-04
   0.555E-01 0.317E+00 0.477E+01   -.384E-02 -.227E+00 -.467E+01   0.273E-01 0.531E-01 -.233E+00   0.388E-05 -.133E-05 -.175E-04
   0.555E-01 0.317E+00 -.477E+01   -.385E-02 -.227E+00 0.467E+01   0.273E-01 0.531E-01 0.233E+00   0.388E-05 -.133E-05 0.172E-04
   -.433E+00 -.283E+01 -.142E+02   -.316E-01 0.223E+01 0.152E+02   0.551E+00 0.714E+00 -.919E+00   0.349E-06 0.845E-07 0.344E-04
   0.349E+01 0.278E+02 -.173E+02   -.235E+01 -.262E+02 0.165E+02   -.383E+00 -.123E+01 0.108E+01   0.386E-05 -.141E-04 0.540E-04
   0.118E+02 0.138E+02 0.360E+01   -.108E+02 -.129E+02 -.742E+00   -.107E+01 -.200E+01 -.114E+01   -.305E-05 -.441E-05 -.570E-04
   -.870E+00 -.482E+00 0.181E+02   0.889E+00 0.966E+00 -.174E+02   0.203E+00 -.474E+00 -.663E+00   -.781E-05 -.951E-05 -.438E-04
   0.537E-01 0.227E+00 0.441E+01   -.916E-01 -.102E+00 -.442E+01   0.720E-01 -.119E+00 -.531E-02   -.356E-05 -.857E-07 -.118E-04
   0.537E-01 0.227E+00 -.441E+01   -.916E-01 -.102E+00 0.442E+01   0.720E-01 -.119E+00 0.531E-02   -.356E-05 -.858E-07 0.115E-04
   -.870E+00 -.482E+00 -.181E+02   0.889E+00 0.966E+00 0.174E+02   0.203E+00 -.474E+00 0.663E+00   -.781E-05 -.951E-05 0.436E-04
   0.118E+02 0.138E+02 -.360E+01   -.108E+02 -.129E+02 0.742E+00   -.107E+01 -.200E+01 0.114E+01   -.305E-05 -.441E-05 0.570E-04
   0.167E+02 0.308E+01 0.216E+02   -.156E+02 -.211E+01 -.203E+02   -.795E+00 -.108E+01 -.174E+01   -.113E-04 0.840E-07 -.599E-04
   -.132E+01 -.599E-01 0.149E+02   0.152E+01 0.170E+00 -.149E+02   -.978E-01 -.723E-01 -.838E-01   -.266E-05 -.495E-05 -.436E-04
   0.314E+00 0.144E+00 0.478E+01   -.150E+00 -.179E-01 -.471E+01   -.923E-01 -.678E-01 -.984E-01   -.143E-05 -.135E-05 -.138E-04
   0.314E+00 0.144E+00 -.478E+01   -.150E+00 -.179E-01 0.471E+01   -.923E-01 -.678E-01 0.984E-01   -.143E-05 -.135E-05 0.135E-04
   -.132E+01 -.599E-01 -.149E+02   0.152E+01 0.170E+00 0.149E+02   -.978E-01 -.723E-01 0.838E-01   -.266E-05 -.495E-05 0.435E-04
   0.167E+02 0.308E+01 -.216E+02   -.156E+02 -.211E+01 0.203E+02   -.795E+00 -.108E+01 0.174E+01   -.113E-04 0.838E-07 0.599E-04
   0.349E+01 0.278E+02 0.173E+02   -.235E+01 -.262E+02 -.165E+02   -.383E+00 -.123E+01 -.108E+01   0.386E-05 -.141E-04 -.540E-04
   -.433E+00 -.283E+01 0.142E+02   -.316E-01 0.223E+01 -.152E+02   0.551E+00 0.714E+00 0.919E+00   0.349E-06 0.846E-07 -.346E-04
   0.555E-01 0.317E+00 0.477E+01   -.384E-02 -.227E+00 -.467E+01   0.273E-01 0.531E-01 -.233E+00   0.388E-05 -.133E-05 -.175E-04
   0.555E-01 0.317E+00 -.477E+01   -.385E-02 -.227E+00 0.467E+01   0.273E-01 0.531E-01 0.233E+00   0.388E-05 -.133E-05 0.172E-04
   -.433E+00 -.283E+01 -.142E+02   -.316E-01 0.223E+01 0.152E+02   0.551E+00 0.714E+00 -.919E+00   0.349E-06 0.845E-07 0.344E-04
   0.349E+01 0.278E+02 -.173E+02   -.235E+01 -.262E+02 0.165E+02   -.383E+00 -.123E+01 0.108E+01   0.386E-05 -.141E-04 0.540E-04
[...]
   0.101E+01 -.975E-01 -.105E+01   -.115E+01 0.349E+00 0.153E+01   -.146E+00 -.845E-01 -.558E+00   -.208E-05 0.291E-05 -.677E-06
   0.413E+01 -.215E+02 -.277E+01   -.369E+01 0.218E+02 0.291E+01   -.111E+01 0.155E+00 0.115E+01   0.327E-05 0.142E-05 -.374E-04
   0.485E+01 -.209E+02 -.157E+02   -.482E+01 0.212E+02 0.171E+02   -.822E+00 0.213E+01 0.700E-01   0.732E-05 0.204E-05 0.447E-04
   0.126E+01 -.118E+01 0.475E+01   -.101E+01 0.573E+00 -.404E+01   -.295E+00 0.853E+00 -.534E+00   -.513E-05 0.778E-05 -.804E-06
   0.151E+01 -.225E+01 0.105E+00   -.144E+01 0.213E+01 -.170E+00   -.286E+00 0.525E+00 0.777E-01   -.150E-06 -.385E-06 0.759E-06
   0.151E+01 -.225E+01 -.105E+00   -.144E+01 0.213E+01 0.170E+00   -.286E+00 0.525E+00 -.777E-01   -.150E-06 -.385E-06 -.605E-06
   0.126E+01 -.118E+01 -.475E+01   -.101E+01 0.573E+00 0.404E+01   -.295E+00 0.853E+00 0.534E+00   -.513E-05 0.778E-05 0.955E-06
   0.485E+01 -.209E+02 0.157E+02   -.482E+01 0.212E+02 -.171E+02   -.822E+00 0.213E+01 -.700E-01   0.732E-05 0.204E-05 -.446E-04
   0.152E+02 -.850E+00 -.479E+01   -.151E+02 0.107E+01 0.459E+01   -.111E+01 0.657E+00 -.460E+00   -.520E-05 -.130E-04 0.370E-04
   0.210E+00 -.246E+01 0.283E+01   0.154E+00 0.211E+01 -.258E+01   -.578E+00 0.543E+00 -.278E+00   -.160E-05 -.107E-06 -.233E-05
   0.176E+01 -.216E+01 0.373E+00   -.155E+01 0.198E+01 -.329E+00   -.431E+00 0.479E+00 0.887E-02   -.141E-05 0.262E-05 -.354E-05
   0.176E+01 -.216E+01 -.373E+00   -.155E+01 0.198E+01 0.329E+00   -.431E+00 0.479E+00 -.887E-02   -.141E-05 0.262E-05 0.369E-05
   0.210E+00 -.246E+01 -.283E+01   0.154E+00 0.211E+01 0.258E+01   -.578E+00 0.543E+00 0.278E+00   -.160E-05 -.107E-06 0.248E-05
   0.152E+02 -.850E+00 0.479E+01   -.151E+02 0.107E+01 -.459E+01   -.111E+01 0.657E+00 0.460E+00   -.520E-05 -.130E-04 -.369E-04
   -.521E+00 -.147E+01 0.267E-04   -.103E-12 -.799E-13 0.426E-12   0.620E+00 0.150E+01 0.389E-15   0.203E-04 0.305E-04 -.264E-06

 POSITION                                       TOTAL-FORCE (eV/Angst)
      0.00000      0.00000      0.00000         0.383164      1.484882      1.464520
      0.00000     10.06740      1.93747        -0.227734     -0.193639     -0.008161
      0.00000      6.71160      3.87495        -0.031716      0.002638      0.018771
      0.00000      3.35580      5.81242        -0.031716      0.002638     -0.018771
      0.00000      0.00000      7.74989        -0.227734     -0.193639      0.008161
      0.00000     10.06740      9.68736         0.383164      1.484882     -1.464520
      3.16388      4.47440      0.00000         0.087447     -0.442998     -0.569362
      3.16388      1.11860      1.93747         0.029351     -0.241288      0.020939
      3.16388     11.18600      3.87495        -0.002734     -0.108121     -0.077794
      3.16388      7.83020      5.81242        -0.002734     -0.108121      0.077794
      3.16388      4.47440      7.74989         0.029351     -0.241288     -0.020939
      3.16388      1.11860      9.68736         0.087447     -0.442998      0.569362
      6.32776      8.94880      0.00000         0.323202     -0.298827      0.156644
      6.32776      5.59300      1.93747        -0.029296     -0.142187     -0.067587
      6.32776      2.23720      3.87495        -0.058323     -0.054890      0.014049
      6.32776     12.30460      5.81242        -0.058323     -0.054890     -0.014049
      6.32776      8.94880      7.74989        -0.029296     -0.142187      0.067587
      6.32776      5.59300      9.68736         0.323202     -0.298827     -0.156644
      0.00000      6.71160      0.00000         0.383164      1.484882      1.464520
      0.00000      3.35580      1.93747        -0.227734     -0.193639     -0.008161
      0.00000      0.00000      3.87495        -0.031716      0.002638      0.018771
      0.00000     10.06740      5.81242        -0.031716      0.002638     -0.018771
      0.00000      6.71160      7.74989        -0.227734     -0.193639      0.008161
      0.00000      3.35580      9.68736         0.383164      1.484882     -1.464520
      3.16388     11.18600      0.00000         0.087447     -0.442998     -0.569362
      3.16388      7.83020      1.93747         0.029351     -0.241288      0.020939
      3.16388      4.47440      3.87495        -0.002734     -0.108121     -0.077794
      3.16388      1.11860      5.81242        -0.002734     -0.108121      0.077794
      3.16388     11.18600      7.74989         0.029351     -0.241288     -0.020939
      3.16388      7.83020      9.68736         0.087447     -0.442998      0.569362
      6.32776      2.23720      0.00000         0.323202     -0.298827      0.156644
      6.32776     12.30460      1.93747        -0.029296     -0.142187     -0.067587
      6.32776      8.94880      3.87495        -0.058323     -0.054890      0.014049
      6.32776      5.59300      5.81242        -0.058323     -0.054890     -0.014049
      6.32776      2.23720      7.74989        -0.029296     -0.142187      0.067587
      6.32776     12.30460      9.68736         0.323202     -0.298827     -0.156644
      0.79097      4.47440      0.00000         0.751829      0.335823     -0.288353
      0.79097      1.11860      1.93747         0.086047      0.106869     -0.101377
      0.79097     11.18600      3.87495         0.078253      0.142748     -0.135058
      0.79097      7.83020      5.81242         0.078253      0.142748      0.135058
      0.79097      4.47440      7.74989         0.086047      0.106869      0.101377
      0.79097      1.11860      9.68736         0.751829      0.335823      0.288353
      3.95485      8.94880      0.00000        -0.122934     -1.096964      1.725875
      3.95485      5.59300      1.93747         0.221714      0.010068     -0.031153
      3.95485      2.23720      3.87495         0.033378      0.005739     -0.010458
      3.95485     12.30460      5.81242         0.033378      0.005739      0.010458
      3.95485      8.94880      7.74989         0.221714      0.010068      0.031153
      3.95485      5.59300      9.68736        -0.122934     -1.096964     -1.725875
      7.11873      0.00000      0.00000         0.304332     -0.115121     -0.510792
      7.11873     10.06740      1.93747         0.099931      0.038022     -0.056845
      7.11873      6.71160      3.87495         0.071482      0.057789     -0.025621
      7.11873      3.35580      5.81242         0.071482      0.057789      0.025621
      7.11873      0.00000      7.74989         0.099931      0.038022      0.056845
      7.11873     10.06740      9.68736         0.304332     -0.115121      0.510792
      0.79097     11.18600      0.00000         0.751829      0.335823     -0.288353
      0.79097      7.83020      1.93747         0.086047      0.106869     -0.101377
      0.79097      4.47440      3.87495         0.078253      0.142748     -0.135058
      0.79097      1.11860      5.81242         0.078253      0.142748      0.135058
      0.79097     11.18600      7.74989         0.086047      0.106869      0.101377
      0.79097      7.83020      9.68736         0.751829      0.335823      0.288353
[...]
      1.19487      1.00085     17.89070        -0.254822      0.218364      0.077714
      1.19487      4.35665     19.89181        -0.289128      0.167010     -0.075387
      1.19487      7.71245     21.89292        -0.669054      0.463741      1.292521
      4.35875     13.30546     11.88736        -0.795516      2.438319      1.438679
      4.35875      3.23805     13.88848        -0.044984      0.250651      0.174767
      4.35875      6.59385     15.88959        -0.224043      0.402123      0.012207
      4.35875      9.94966     17.89070        -0.224043      0.402123     -0.012207
      4.35875     13.30546     19.89181        -0.044984      0.250651     -0.174767
      4.35875      3.23805     21.89292        -0.795516      2.438319     -1.438679
      7.52263      8.83106     11.88736        -1.003874      0.879862     -0.658130
      7.52263     12.18686     13.88848        -0.214303      0.191091     -0.027638
      7.52263      2.11945     15.88959        -0.215035      0.301516      0.052580
      7.52263      5.47525     17.89070        -0.215035      0.301516     -0.052580
      7.52263      8.83106     19.89181        -0.214303      0.191091      0.027638
      7.52263     12.18686     21.89292        -1.003874      0.879862      0.658130
    total drift:                                0.099824      0.027471      0.000026

  FREE ENERGIE OF THE ION-ELECTRON SYSTEM (eV)
  free  energy   TOTEN  =      -687.96914502 eV

  energy  without entropy=     -687.96756703  energy(sigma->0) =     -687.96835603