 vasp.6.4.3 19Mar24 (build Oct 22 2024 11:23:12) complex

 executed on             LinuxIFC date 2025.06.04  01:40:03

 INCAR:
   SYSTEM = Si and Ge interface calculation
   ISTART = 0
   ICHARG = 2
   LWAVE = .FALSE.
   LREAL = AUTO
   ENCUT = 700
   ENAUG = 900
   ADDGRID = .TRUE.
   LMAXMIX = 6
   LASPH = .TRUE.
   LMIXTAU = .TRUE.
   NCORE = 16
   NELM = 100
   NBANDS = 144
   EDIFF = 1d-7
   AMIX = 0.6
   ISMEAR = 0
   SIGMA = 0.01
   NELECT = 240
   ISPIN = 2
   NUPDOWN = 1
   LVTOT = .FALSE.
   LVHAR = .TRUE.

 POTCAR:    PAW_PBE Sn 08Apr2002
 POTCAR:    PAW_PBE Si 05Jan2001
|           W    W    AA    RRRRR   N    N  II  N    N   GGGG   !!!           |
|           W    W   A  A   R    R  NN   N  II  NN   N  G    G  !!!           |
|           W    W  A    A  R    R  N N  N  II  N N  N  G       !!!           |
|           W WW W  AAAAAA  RRRRR   N  N N  II  N  N N  G  GGG   !            |
|           WW  WW  A    A  R   R   N   NN  II  N   NN  G    G                |
|           W    W  A    A  R    R  N    N  II  N    N   GGGG   !!!           |
|     You use a magnetic or noncollinear calculation, but did not specify     |
|     the initial magnetic moment with the MAGMOM tag. Note that a            |
|     default of 0.017 will be used for all atoms. This ferromagnetic         |
|     setup may break the symmetry of the crystal, in particular it may       |
|     rule out finding an antiferromagnetic solution. Thence, we              |
|     recommend setting the initial magnetic moment manually or verifying     |
|     carefully that this magnetic setup is desired.                          |

 POTCAR:    PAW_PBE Sn 08Apr2002
   VRHFIN =Sn: s2p2

   TITEL  = PAW_PBE Sn 08Apr2002
   POMASS =  118.710; ZVAL   =    4.000    mass and valenz
   ENMAX  =  103.236; ENMIN  =   77.427 eV

 POTCAR:    PAW_PBE Si 05Jan2001
   VRHFIN =Si: s2p2

   TITEL  = PAW_PBE Si 05Jan2001
   POMASS =   28.085; ZVAL   =    4.000    mass and valenz
   ENMAX  =  245.345; ENMIN  =  184.009 eV

 Optimization of the real space projectors (new method)

 maximal supplied QI-value         = 12.47
 optimisation between [QCUT,QGAM] = [ 12.47, 27.06] = [ 43.56,205.12] Ry
 Optimized for a Real-space Cutoff    1.58 Angstroem

   l    n(q)    QCUT    max X(q) W(low)/X(q) W(high)/X(q)  e(spline)
   0     13    12.472    14.688    0.45E-04    0.45E-04    0.25E-05
   0     13    12.472     7.308    0.94E-04    0.11E-03    0.61E-05
   1     12    12.472    45.102    0.34E-03    0.14E-03    0.21E-05
   1     12    12.472    30.691    0.31E-03    0.13E-03    0.20E-05
   2     12    12.472     7.156    0.86E-04    0.11E-03    0.17E-05
 WARNING: PSMAXN for non-local potential too small
          PSMAXN should be >   13.5545592237991       NTYP=           1
 Optimization of the real space projectors (new method)

 maximal supplied QI-value         = 19.84
 optimisation between [QCUT,QGAM] = [ 13.49, 26.99] = [ 50.98,203.92] Ry
 Optimized for a Real-space Cutoff    1.07 Angstroem

   l    n(q)    QCUT    max X(q) W(low)/X(q) W(high)/X(q)  e(spline)
   0      9    13.493   159.560    0.22E-03    0.15E-03    0.72E-07
   0      9    13.493   115.863    0.21E-03    0.15E-03    0.71E-07
   1      8    13.493    88.339    0.15E-03    0.11E-03    0.13E-06
   1      8    13.493    48.592    0.15E-03    0.10E-03    0.13E-06
  PAW_PBE Sn 08Apr2002                  :
  PAW_PBE Si 05Jan2001                  :

 POSCAR: Sn+Si
  positions in direct lattice

 exchange-correlation table for PE
   RHO(1)=    0.500       N(1)  =     2000
   RHO(2)=  100.500       N(2)  =     4000

 ion  position               nearest neighbor table
   1  0.987  0.013  0.000-  59 2.34  45 2.45  22 2.81   8 2.81  58 3.07  31 3.09  57 3.11
   2  0.837  0.163  0.218-  23 2.81   9 2.81  22 2.81  54 2.82  28 2.88  56 2.95
   3  0.687  0.313  0.436-  37 1.66  26 2.32  49 2.59  24 2.81  10 2.81  23 2.81
   4  0.487  0.513  0.000-  35 2.34  30 2.45  19 2.81  11 2.81  34 3.07  46 3.09  42 3.11
   5  0.337  0.663  0.218-  20 2.81  12 2.81  19 2.81  39 2.82  43 2.88  41 2.95
   6  0.187  0.813  0.436-  52 1.66  50 2.32  25 2.59  21 2.81   7 2.81  20 2.81
   7  0.287  0.963  0.109-  36 2.30  38 2.66  16 2.81   6 2.81  17 2.81  48 2.87  50 3.17  39 3.36

   8  0.137  0.113  0.327-  58 2.19  31 2.40  17 2.81   1 2.81  18 2.81  36 3.10  47 3.23
   9  0.987  0.263  0.544-  28 0.76  56 2.01  55 2.77  18 2.81   2 2.81  45 3.28  29 3.30
  10  0.787  0.463  0.109-  60 2.30  53 2.66  13 2.81   3 2.81  14 2.81  33 2.87  26 3.17  54 3.36

[...]

  25  0.983  0.641  0.544-  21 1.89  52 2.30  53 2.33   6 2.59  20 3.13  14 3.36
  26  0.783  0.341  0.727-  53 2.30  37 2.30   3 2.32  54 2.33  13 3.08  10 3.17
  27  0.583  0.041  0.909-  16 1.41  38 2.30  54 2.30  40 2.33  23 2.91
  28  0.983  0.308  0.544-   9 0.76  55 2.30  56 2.33   2 2.88  18 3.27
  29  0.783  0.008  0.727-  56 2.30  40 2.30  57 2.33  22 2.66  15 3.06   9 3.30
  30  0.583  0.708  0.909-  41 2.30  57 2.30  34 2.33   4 2.45  12 3.28  22 3.35  15 3.43
  31  0.983  0.974  0.544-  58 2.30  59 2.33   8 2.40   1 3.09  21 3.41
  32  0.783  0.674  0.727-  34 2.30  59 2.30  60 2.33  21 2.81  11 3.23  14 3.42
  33  0.583  0.374  0.909-  35 2.30  60 2.30  37 2.33  24 2.79  10 2.87
  34  0.633  0.658  0.636-  11 2.19  32 2.30  46 2.30  30 2.33  15 2.40   4 3.07
  35  0.433  0.358  0.818-  33 2.30  47 2.30  46 2.33   4 2.34  24 2.84
  36  0.233  0.058  0.000-  17 1.99   7 2.30  48 2.30  47 2.33   8 3.10
  37  0.633  0.324  0.636-   3 1.66  24 1.92  49 2.30  26 2.30  33 2.33
  38  0.433  0.024  0.818-  16 1.57  27 2.30  50 2.30  49 2.33   7 2.66
  39  0.233  0.724  0.000-  51 2.30  50 2.33  20 2.57   5 2.82  13 3.01   7 3.36
  40  0.633  0.991  0.636-  29 2.30  43 2.30  27 2.33  12 2.77  23 2.80
  41  0.433  0.691  0.818-  12 2.01  30 2.30  44 2.30  43 2.33   5 2.95  19 3.33
  42  0.233  0.391  0.000-  19 1.12  45 2.30  44 2.33  18 3.05   4 3.11
  43  0.483  0.808  0.544-  12 0.76  40 2.30  41 2.33   5 2.88  15 3.27
  44  0.283  0.508  0.727-  55 2.30  41 2.30  42 2.33  19 2.66  18 3.06  12 3.30
  45  0.083  0.208  0.909-  56 2.30  42 2.30  58 2.33   1 2.45   9 3.28  19 3.35  18 3.43
  46  0.483  0.474  0.544-  34 2.30  35 2.33  11 2.40   4 3.09  24 3.41
  47  0.283  0.174  0.727-  35 2.30  58 2.30  36 2.33  24 2.81   8 3.23  17 3.42
  48  0.083  0.874  0.909-  36 2.30  59 2.30  52 2.33  21 2.79   7 2.87
  49  0.483  0.141  0.544-  24 1.89  37 2.30  38 2.33   3 2.59  23 3.13  17 3.36
  50  0.283  0.841  0.727-  52 2.30  38 2.30   6 2.32  39 2.33  16 3.08   7 3.17
  51  0.083  0.541  0.909-  13 1.41  53 2.30  39 2.30  55 2.33  20 2.91
  52  0.133  0.824  0.636-   6 1.66  21 1.92  50 2.30  25 2.30  48 2.33
  53  0.933  0.524  0.818-  13 1.57  51 2.30  26 2.30  25 2.33  10 2.66
  54  0.733  0.224  0.000-  27 2.30  26 2.33  23 2.57   2 2.82  16 3.01  10 3.36
  55  0.133  0.491  0.636-  44 2.30  28 2.30  51 2.33   9 2.77  20 2.80
  56  0.933  0.191  0.818-   9 2.01  45 2.30  29 2.30  28 2.33   2 2.95  22 3.33
  57  0.733  0.891  0.000-  22 1.12  30 2.30  29 2.33  15 3.05   1 3.11
  58  0.133  0.158  0.636-   8 2.19  47 2.30  31 2.30  45 2.33  18 2.40   1 3.07
  59  0.933  0.858  0.818-  48 2.30  32 2.30  31 2.33   1 2.34  21 2.84
  60  0.733  0.558  0.000-  14 1.99  10 2.30  33 2.30  32 2.33  11 3.10

  LATTYP: Found a base centered orthorhombic cell.
 ALAT       =    12.9784001740
 B/A-ratio  =     2.2360679831
 C/A-ratio  =     0.5134372249

  Lattice vectors:

 A1 = (  15.8952283860,   0.0000000000,   0.0000000000)
 A2 = ( -10.5968198780,  11.8476047520,   0.0000000000)
 A3 = (   0.0000000000,   0.0000000000,   6.6635937690)

Analysis of symmetry for initial positions (statically):
 Subroutine PRICEL returns following result:

  LATTYP: Found a simple orthorhombic cell.
 ALAT       =     6.4892001908
 B/A-ratio  =     1.0268744334
 C/A-ratio  =     2.2360679115

[...]

   2 primitive cells build up your supercell.

 Routine SETGRP: Setting up the symmetry group for a
 base centered orthorhombic supercell.

 Subroutine GETGRP returns: Found  1 space group operations
 (whereof  1 operations were pure point group operations)
 out of a pool of  8 trial point group operations.

The static configuration has the point symmetry C_1 .

Analysis of symmetry for dynamics (positions and initial velocities):
 Subroutine PRICEL returns following result:

[...]

The dynamic configuration has the point symmetry C_1 .

Analysis of structural, dynamic, and magnetic symmetry:
 Subroutine PRICEL returns following result:

  LATTYP: Found a simple orthorhombic cell.
 ALAT       =     6.4892001908
 B/A-ratio  =     1.0268744334
 C/A-ratio  =     2.2360679115

  Lattice vectors:

 A1 = (  -2.6492040845,  -5.9238025656,   0.0000000000)
 A2 = (   0.0000000000,   0.0000000000,   6.6635937690)
 A3 = ( -13.2460239625,   5.9238021864,   0.0000000000)

   2 primitive cells build up your supercell.

 Routine SETGRP: Setting up the symmetry group for a
 base centered orthorhombic supercell.

 Subroutine GETGRP returns: Found  1 space group operations
 (whereof  1 operations were pure point group operations)
 out of a pool of  8 trial point group operations.

The overall configuration has the point symmetry C_1 .

 Subroutine INISYM returns: Found  1 space group operations
 (whereof  1 operations are pure point group operations),
 and found     2 'primitive' translations

                                     Primitive cell

  volume of cell :     627.4453

  direct lattice vectors                    reciprocal lattice vectors
    -2.649204084 -5.923802566  0.000000000    -0.062911960 -0.140675414  0.000000000
     0.000000000  0.000000000  6.663593769     0.000000000  0.000000000  0.150069172
   -13.246023962  5.923802186  0.000000000    -0.062911964  0.028135075  0.000000000

  length of vectors
     6.489200191  6.663593769 14.510292318     0.154102196  0.150069172  0.068916599

  position of ions in fractional coordinates (direct lattice)
     0.000000048  0.000000018  0.025641512
     0.999999982  0.217754856  0.325641650
     0.999999902  0.435509712  0.625641832
     0.750000128  0.108877264  0.675641408
     0.750000018  0.326631993  0.975641500
     0.750000032  0.544386923  0.275641648
     0.500000032  0.000000000  0.525641528
     0.499999967  0.217754826  0.825641665
     0.499999903  0.435509652  0.125641801
     0.250000144  0.108877219  0.175641392
     0.249999901  0.326632053  0.475641589
     0.250000032  0.544386804  0.775641648
     0.376069279  0.544386864  0.658119469
     0.876069406  0.726632357  0.558119496
     0.376069672  0.908877730  0.458119504
     0.709402622  0.544386864  0.324786126
     0.209402731  0.726632357  0.224786111
     0.709402951  0.908877730  0.124786165
     0.042735906  0.544386864  0.991452842
     0.542736107  0.726632357  0.891452795
     0.042736265  0.908877730  0.791452851
     0.709402371  0.635509491  0.024786275
     0.209402591  0.817754865  0.924786299
     0.709402907  0.000000238  0.824786049
     0.042735804  0.635509491  0.691452842
     0.542736060  0.817754865  0.591452770
     0.042736136  0.000000238  0.491452850
     0.376069149  0.635509372  0.358119527
     0.876069367  0.817754865  0.258119523
[...]
     38      -0.7010      1.00000
     39      -0.5474      1.00000
     40      -0.4073      1.00000
     41      -0.3238      1.00000
     42      -0.2699      1.00000
     43      -0.0384      1.00000
     44       0.1694      1.00000
     45       0.1816      1.00000
     46       0.4573      1.00000
     47       0.5234      1.00000
     48       0.5552      1.00000
     49       0.6752      1.00000
     50       0.7321      1.00000
     51       0.7966      1.00000
     52       0.8675      1.00000
     53       1.0057      1.00000
     54       1.1024      1.00000
     55       1.2817      1.00000
     56       1.3152      1.00000
     57       1.3987      1.00000
     58       1.4936      1.00000
     59       1.6591      1.00000
     60       1.6923      1.00000
[...]
    130       7.4056      0.00000
    131       7.4291      0.00000
    132       7.4879      0.00000
    133       7.5274      0.00000
    134       7.5491      0.00000
    135       7.6334      0.00000
    136       7.6504      0.00000
    137       7.8272      0.00000
    138       7.8761      0.00000
    139       7.8818      0.00000
    140       7.9642      0.00000
    141       8.0161      0.00000
    142       8.0342      0.00000
    143       8.1116      0.00000
    144       8.2108      0.00000

 soft charge-density along one line, spin component           1
         0         1         2         3         4         5         6         7         8         9
 total charge-density along one line

 soft charge-density along one line, spin component           2
         0         1         2         3         4         5         6         7         8         9
 total charge-density along one line

------------------------ aborting loop because EDIFF is reached ----------------------------------------

  FORCE on cell =-STRESS in cart. coord.  units (eV):
  Direction    XX          YY          ZZ          XY          YZ          ZX
  Alpha Z   201.48765   201.48765   201.48765
  Ewald   -1773.50102 -1650.37312 -2243.45391   -53.30368   281.87914   154.69262
  Hartree   368.39731   413.21208    47.36909    55.05804    44.81674    43.91811
  E(xc)    -981.15210  -979.36885  -975.33889     9.65417    -7.20882     0.38110
  Local   -1348.06342 -1572.46606  -785.52578  -236.37879  -164.96577  -210.76926
  n-local  2938.21136  2900.67363  2957.84938     0.83760     0.09482    12.11390
  augment  -514.41413  -527.10137  -526.90903    -9.07964    23.23632    -5.83112
  Kinetic  1926.02419  1917.14499  1941.06754    -6.28578   -12.32183   -18.91155
  Fock        0.00000     0.00000     0.00000     0.00000     0.00000     0.00000
  Total     816.98984   703.20896   616.54604  -239.49808   165.53060   -24.40620
  in kB    1043.08907   897.81971   787.17312  -305.77837   211.34065   -31.16053

 VOLUME and BASIS-vectors are now :
  energy-cutoff  :      700.00
  volume of cell :     1254.89
      direct lattice vectors                 reciprocal lattice vectors
    15.895228386  0.000000000  0.000000000     0.062911962  0.056270169  0.000000000
   -10.596819878 11.847604752  0.000000000     0.000000000  0.084405247  0.000000000
     0.000000000  0.000000000  6.663593769     0.000000000  0.000000000  0.150069172

  length of vectors
    15.895228386 15.895229784  6.663593769     0.084405254  0.084405247  0.150069172

 FORCES acting on ions
    electron-ion (+dipol)            ewald-force                    non-local-force                 convergence-correction
   -.343E+01 0.970E+01 -.354E+02   0.402E+01 -.947E+01 0.351E+02   -.148E+00 0.818E+00 0.202E+01   0.532E-03 -.294E-03 0.121E-03
   -.504E+00 -.866E+01 -.212E+01   0.657E+00 0.820E+01 0.184E+01   0.461E+00 0.167E+01 -.312E+00   -.379E-03 -.700E-04 -.159E-03
   -.374E+02 -.143E+02 0.737E+02   0.452E+02 0.136E+02 -.839E+02   0.180E+02 -.132E+01 -.275E+02   -.220E-03 0.261E-04 -.883E-04
   -.343E+01 0.970E+01 -.354E+02   0.402E+01 -.947E+01 0.351E+02   -.148E+00 0.818E+00 0.202E+01   0.428E-03 -.427E-03 0.156E-03
   -.504E+00 -.866E+01 -.212E+01   0.657E+00 0.820E+01 0.184E+01   0.461E+00 0.167E+01 -.312E+00   -.505E-03 -.198E-03 -.266E-03
   -.374E+02 -.143E+02 0.737E+02   0.452E+02 0.136E+02 -.839E+02   0.180E+02 -.132E+01 -.275E+02   -.323E-03 0.121E-03 -.914E-04
   -.102E+02 0.978E+01 -.351E+02   0.928E+01 -.107E+02 0.351E+02   0.367E+01 -.209E+01 0.143E+01   -.235E-03 0.101E-03 0.470E-05
   -.131E+02 0.341E+01 0.336E+02   0.134E+02 -.364E+01 -.336E+02   0.248E+01 -.956E+00 -.717E+01   0.414E-03 -.248E-03 -.604E-04
   -.212E+02 0.243E+02 0.514E+02   0.261E+03 -.259E+03 -.493E+02   0.336E+02 -.267E+02 -.126E+02   0.118E-03 -.967E-04 -.302E-04
   -.102E+02 0.978E+01 -.351E+02   0.928E+01 -.107E+02 0.351E+02   0.367E+01 -.209E+01 0.143E+01   -.102E-03 0.692E-04 0.744E-05
   -.131E+02 0.341E+01 0.336E+02   0.134E+02 -.364E+01 -.336E+02   0.248E+01 -.956E+00 -.717E+01   0.489E-03 -.173E-03 -.746E-04
   -.212E+02 0.243E+02 0.514E+02   0.261E+03 -.259E+03 -.493E+02   0.336E+02 -.267E+02 -.126E+02   0.163E-03 -.101E-03 -.368E-04
   0.828E+01 0.282E+02 -.820E+02   -.327E+02 -.409E+02 0.117E+03   -.153E+02 -.130E+02 0.450E+02   -.521E-03 0.298E-03 0.379E-04
   -.861E+01 -.332E+02 -.264E+02   0.897E+01 0.353E+02 0.267E+02   0.291E+01 0.755E+01 0.873E+01   0.153E-03 0.908E-05 -.225E-04
   -.102E+02 -.187E+02 0.215E+02   0.109E+02 0.195E+02 -.206E+02   -.105E+01 0.184E+01 -.737E+00   0.876E-03 -.593E-04 -.229E-03
   0.828E+01 0.282E+02 -.820E+02   -.327E+02 -.409E+02 0.117E+03   -.153E+02 -.130E+02 0.450E+02   -.553E-03 0.371E-03 0.469E-04
   -.861E+01 -.332E+02 -.264E+02   0.897E+01 0.353E+02 0.267E+02   0.291E+01 0.755E+01 0.873E+01   0.327E-04 -.160E-03 -.177E-04
   -.102E+02 -.187E+02 0.215E+02   0.109E+02 0.195E+02 -.206E+02   -.105E+01 0.184E+01 -.737E+00   0.691E-03 -.314E-03 -.216E-03
   -.446E+01 -.345E+02 -.614E+02   0.136E+02 0.120E+03 0.135E+03   0.445E+01 0.367E+02 0.319E+02   0.481E-03 -.524E-03 -.476E-04
   -.461E+01 0.121E+02 -.142E+02   0.427E+01 -.123E+02 0.146E+02   -.231E+00 -.827E+00 0.232E+01   -.737E-03 0.293E-03 -.116E-03
   0.642E+02 -.138E+02 0.415E+02   -.680E+02 0.153E+02 -.420E+02   -.264E+02 0.588E+01 -.538E+01   -.208E-04 0.324E-04 -.340E-04
   -.446E+01 -.345E+02 -.614E+02   0.136E+02 0.120E+03 0.135E+03   0.445E+01 0.367E+02 0.319E+02   0.591E-03 -.299E-03 -.428E-04
   -.461E+01 0.121E+02 -.142E+02   0.427E+01 -.123E+02 0.146E+02   -.231E+00 -.827E+00 0.232E+01   -.686E-03 0.368E-03 -.106E-03
   0.642E+02 -.138E+02 0.415E+02   -.680E+02 0.153E+02 -.420E+02   -.264E+02 0.588E+01 -.538E+01   -.286E-04 -.179E-03 -.401E-04
   -.333E+01 0.596E+02 0.353E+02   0.465E+01 -.624E+02 -.356E+02   0.113E+02 -.137E+02 0.444E+00   -.154E-03 0.538E-04 -.295E-04
   -.366E+02 0.990E+01 0.138E+02   0.365E+02 -.947E+01 -.124E+02   0.313E+01 -.477E+00 0.103E+01   -.488E-03 0.147E-03 0.128E-03
   -.492E+02 0.122E+02 -.237E+01   0.979E+02 0.605E+00 -.198E+02   0.287E+02 0.770E+01 -.153E+02   -.555E-03 0.527E-03 0.480E-04
   0.377E+02 -.514E+01 0.379E+02   -.300E+03 0.271E+03 -.374E+02   -.112E+02 0.286E+01 -.119E+01   -.223E-03 0.133E-03 0.321E-04
   -.819E+01 0.173E+01 0.341E+02   0.829E+01 -.145E+01 -.338E+02   0.465E+00 -.884E+00 -.170E+01   0.359E-03 -.151E-03 0.157E-03
   -.445E+01 -.813E+00 -.331E+02   0.358E+01 -.238E-01 0.324E+02   0.466E+00 0.197E+01 0.783E+00   0.885E-03 -.660E-04 0.296E-03
   0.187E+02 0.293E+02 0.383E+02   -.190E+02 -.295E+02 -.380E+02   -.138E+01 -.196E+01 0.236E+00   0.534E-03 -.184E-03 -.818E-04
   -.105E+02 0.807E+01 0.164E+02   0.996E+01 -.819E+01 -.152E+02   0.816E+00 -.123E+00 -.121E+01   0.362E-03 0.528E-04 0.150E-04
   0.255E+01 0.144E+02 -.417E+02   -.275E+01 -.147E+02 0.416E+02   0.478E+00 -.283E-01 0.136E+01   0.781E-04 -.114E-03 0.746E-04
   -.266E+01 -.828E+01 -.172E+00   0.292E+01 0.790E+01 0.108E+01   -.967E+00 0.340E+00 0.660E+01   0.732E-03 -.201E-03 -.780E-04
   0.161E+02 0.784E+01 -.180E+02   -.151E+02 -.819E+01 0.172E+02   -.571E+00 -.159E+01 -.302E+00   0.168E-03 -.309E-03 0.709E-04
   0.138E+02 0.142E+01 -.206E+01   -.149E+02 -.215E+01 0.665E+00   -.544E+01 -.537E+01 -.989E+01   0.643E-04 -.252E-04 0.590E-04
   0.215E+01 -.402E+02 -.210E+02   -.899E+01 0.434E+02 0.350E+02   -.426E+01 0.740E+01 0.262E+02   -.330E-04 -.378E-04 0.281E-04
   0.356E+02 -.110E+02 0.292E+02   -.539E+02 0.128E+02 -.486E+02   -.184E+02 0.315E+01 -.247E+02   -.459E-03 0.247E-03 -.363E-04
   -.197E+02 -.255E+02 -.199E+02   0.191E+02 0.241E+02 0.205E+02   0.151E+01 0.285E+01 -.145E+01   -.743E-03 0.215E-03 0.895E-04
   0.463E+01 -.271E+02 0.244E+02   -.494E+01 0.229E+02 -.239E+02   -.477E+00 0.327E+01 -.824E+00   -.502E-03 0.753E-03 0.148E-03
   0.245E+02 0.116E+01 -.540E+02   -.236E+02 -.120E+01 0.523E+02   -.190E+01 -.494E+01 0.133E+02   0.647E-04 -.285E-03 0.324E-03
   -.430E+01 0.178E+02 -.169E+02   -.103E+02 -.121E+03 -.715E+02   -.355E+00 -.196E+02 -.166E+02   0.651E-03 -.239E-03 0.284E-03
   0.377E+02 -.514E+01 0.379E+02   -.300E+03 0.271E+03 -.374E+02   -.112E+02 0.286E+01 -.119E+01   -.396E-03 0.351E-03 0.346E-04
   -.819E+01 0.173E+01 0.341E+02   0.829E+01 -.145E+01 -.338E+02   0.465E+00 -.884E+00 -.170E+01   0.223E-03 -.435E-03 0.190E-03
   -.444E+01 -.813E+00 -.331E+02   0.358E+01 -.238E-01 0.324E+02   0.466E+00 0.197E+01 0.783E+00   0.864E-03 -.169E-03 0.252E-03
   0.187E+02 0.293E+02 0.383E+02   -.190E+02 -.295E+02 -.380E+02   -.138E+01 -.196E+01 0.236E+00   0.469E-03 -.346E-03 -.107E-03
   -.105E+02 0.807E+01 0.164E+02   0.996E+01 -.819E+01 -.152E+02   0.816E+00 -.123E+00 -.121E+01   0.214E-03 -.179E-03 0.207E-04
   0.255E+01 0.144E+02 -.417E+02   -.275E+01 -.147E+02 0.416E+02   0.478E+00 -.283E-01 0.136E+01   0.157E-04 0.562E-04 0.594E-04
   -.333E+01 0.596E+02 0.353E+02   0.465E+01 -.624E+02 -.356E+02   0.113E+02 -.137E+02 0.444E+00   -.181E-03 -.233E-04 -.315E-04
   -.366E+02 0.990E+01 0.138E+02   0.365E+02 -.947E+01 -.124E+02   0.313E+01 -.477E+00 0.103E+01   -.622E-03 0.235E-03 0.132E-03
   -.492E+02 0.122E+02 -.237E+01   0.979E+02 0.605E+00 -.198E+02   0.287E+02 0.770E+01 -.153E+02   -.595E-03 0.401E-03 0.511E-04
   0.215E+01 -.402E+02 -.210E+02   -.899E+01 0.434E+02 0.350E+02   -.426E+01 0.740E+01 0.262E+02   -.136E-03 0.106E-03 0.454E-04
   0.356E+02 -.110E+02 0.292E+02   -.539E+02 0.128E+02 -.486E+02   -.184E+02 0.315E+01 -.247E+02   -.377E-03 0.209E-03 -.989E-05
   -.197E+02 -.255E+02 -.199E+02   0.191E+02 0.241E+02 0.205E+02   0.151E+01 0.285E+01 -.145E+01   -.647E-03 0.208E-03 0.737E-04
   0.463E+01 -.271E+02 0.244E+02   -.494E+01 0.229E+02 -.239E+02   -.477E+00 0.327E+01 -.824E+00   -.569E-03 0.364E-03 0.908E-04
   0.245E+02 0.116E+01 -.540E+02   -.236E+02 -.120E+01 0.523E+02   -.190E+01 -.494E+01 0.133E+02   0.115E-03 -.158E-03 0.686E-04
   -.430E+01 0.178E+02 -.169E+02   -.103E+02 -.121E+03 -.715E+02   -.355E+00 -.196E+02 -.166E+02   0.737E-03 -.451E-04 0.247E-03
   -.266E+01 -.828E+01 -.172E+00   0.292E+01 0.790E+01 0.108E+01   -.967E+00 0.340E+00 0.660E+01   0.644E-03 -.336E-03 -.686E-04
   0.161E+02 0.784E+01 -.180E+02   -.151E+02 -.819E+01 0.172E+02   -.571E+00 -.159E+01 -.302E+00   0.289E-03 -.412E-04 0.310E-04
   0.138E+02 0.142E+01 -.206E+01   -.149E+02 -.215E+01 0.665E+00   -.544E+01 -.537E+01 -.989E+01   0.220E-03 0.492E-04 0.975E-04
   -.487E+02 0.189E+02 -.294E+02   0.425E-12 -.320E-13 -.102E-12   0.490E+02 -.190E+02 0.290E+02   0.167E-02 -.693E-03 0.140E-02

 POSITION                                       TOTAL-FORCE (eV/Angst)
     15.55558      0.15190      0.00000         0.445266      1.048903      1.711845
     11.58177      1.92904      1.45103         0.609006      1.209495     -0.583534
      7.60796      3.70618      2.90206        25.868531     -2.085542    -37.727508
      2.30956      6.07570      0.00000         0.445266      1.048903      1.711845
     -1.66425      7.85284      1.45103         0.609006      1.209495     -0.583534
     -5.63806      9.62998      2.90206        25.868531     -2.085542    -37.727508
     -5.63806     11.40712      0.72551         2.740648     -3.029274      1.507677
      0.98495      1.33666      2.17654         2.759915     -1.178785     -7.141195
     12.90637      3.11380      3.62757       273.857096   -261.744111    -10.524520
      7.60797      5.48332      0.72551         2.740648     -3.029274      1.507677
      3.63416      7.26046      2.17654         2.759915     -1.178785     -7.141195
     -0.33965      9.03760      3.62757       273.857096   -261.744111    -10.524520
     10.25717      6.07570      0.00000       -39.702166    -25.705253     80.048882
      6.28336      7.85284      1.45103         3.258827      9.677787      9.073222
      2.30955      9.62998      2.90206        -0.322226      2.639946      0.150872
      7.60797      0.15190      0.00000       -39.702166    -25.705253     80.048882
      3.63416      1.92904      1.45103         3.258827      9.677787      9.073222
     -0.33965      3.70618      2.90206        -0.322226      2.639946      0.150872
     -0.33965      5.48332      0.72551        13.560636    122.621673    105.102622
     -4.31346      7.26046      2.17654        -0.577847     -1.087968      2.750313
      7.60796      9.03760      3.62757       -30.106208      7.402871     -5.916436
      2.30956     11.40712      0.72551        13.560636    122.621673    105.102622
      8.93257      1.33666      2.17654        -0.577847     -1.087968      2.750313
      4.95876      3.11380      3.62757       -30.106208      7.402871     -5.916436
      8.83068      7.59461      3.62757        12.645023    -16.472647      0.189061
      8.83068      4.04033      4.84198         3.026852     -0.047292      2.416942
      8.83068      0.48605      6.05639        77.417568     20.485161    -37.429453
     12.36296      3.64541      3.62757      -273.961154    268.253989     -0.681612
     12.36296      0.09113      4.84198         0.553798     -0.607148     -1.459734
      1.76613      8.38445      6.05639        -0.406196      1.134744      0.073001
      5.29841     11.54381      3.62757        -1.688489     -2.216929      0.509614
      5.29841      7.98953      4.84198         0.253586     -0.239149     -0.009850
      5.29841      4.43525      6.05639         0.279900     -0.290183      1.278640
      3.09074      7.79207      4.23478        -0.711263     -0.035857      7.517727
      3.09074      4.23779      5.44919         0.398757     -1.944019     -1.062778
      3.09074      0.68351      0.00000        -6.499280     -6.110589    -11.276076
      6.62301      3.84287      4.23478       -11.106063     10.581323     40.238636
      6.62301      0.28859      5.44919       -36.735145      4.930986    -44.078215
     -3.97381      8.58191      0.00000         0.956004      1.408939     -0.886553
     -0.44154     11.74127      4.23478        -0.792171     -0.953380     -0.333750
     -0.44154      8.18699      5.44919        -1.049830     -4.972125     11.517431
     -0.44154      4.63271      0.00000       -14.973376   -122.675567   -104.975271
     -0.88307      9.56921      3.62757      -273.961154    268.253989     -0.681612
     -0.88307      6.01493      4.84198         0.553798     -0.607148     -1.459734
     -0.88307      2.46065      6.05639        -0.406196      1.134744      0.073001
      2.64920      5.62001      3.62757        -1.688489     -2.216929      0.509614
      2.64920      2.06573      4.84198         0.253586     -0.239149     -0.009850
     -7.94762     10.35905      6.05639         0.279900     -0.290183      1.278640
      6.18148      1.67081      3.62757        12.645023    -16.472647      0.189061
     -4.41534      9.96413      4.84198         3.026852     -0.047292      2.416942
     -4.41534      6.40985      6.05639        77.417568     20.485161    -37.429453
     -6.62301      9.76667      4.23478       -11.106063     10.581323     40.238636
      9.27222      6.21239      5.44919       -36.735145      4.930986    -44.078215
      9.27222      2.65811      0.00000         0.956004      1.408939     -0.886553
     -3.09074      5.81747      4.23478        -0.792171     -0.953380     -0.333750
     12.80449      2.26319      5.44919        -1.049830     -4.972125     11.517431
      2.20767     10.55651      0.00000       -14.973376   -122.675567   -104.975271
      0.44153      1.86827      4.23478        -0.711263     -0.035857      7.517727
      5.73994     10.16159      5.44919         0.398757     -1.944019     -1.062778
      5.73994      6.60731      0.00000        -6.499280     -6.110589    -11.276076
    total drift:                                0.238249     -0.069610     -0.334103

  FREE ENERGIE OF THE ION-ELECTRON SYSTEM (eV)
  free  energy   TOTEN  =       342.52091198 eV

  energy  without entropy=      342.52279420  energy(sigma->0) =      342.52185309