 vasp.6.4.3 19Mar24 (build Oct 22 2024 11:23:12) complex

 executed on             LinuxIFC date 2025.03.27  22:05:27

 INCAR:
   SYSTEM = Si and Ge interface calculation
   ISTART = 0
   ICHARG = 2
   ENCUT = 600.00 eV
   ALGO = VeryFast
   NELM = 60
   EDIFF = 1E-06
   SIGMA = 0.05
   ISMEAR = 0
   EDIFFG = -1E-02
   NSW = 20
   IBRION = 2
   POTIM = .5
   ISIF = 3
   KPAR = 4
   NCORE = 4
   LREAL = A

 POTCAR:    PAW_PBE Si 05Jan2001
 POTCAR:    PAW_PBE Ge 05Jan2001
|           W    W    AA    RRRRR   N    N  II  N    N   GGGG   !!!           |
|           W    W   A  A   R    R  NN   N  II  NN   N  G    G  !!!           |
|           W    W  A    A  R    R  N N  N  II  N N  N  G       !!!           |
|           W WW W  AAAAAA  RRRRR   N  N N  II  N  N N  G  GGG   !            |
|           WW  WW  A    A  R   R   N   NN  II  N   NN  G    G                |
|           W    W  A    A  R    R  N    N  II  N    N   GGGG   !!!           |
|     The value NCORE = 4 specified in the INCAR file was overwritten,        |
|     because it was not compatible with the 1 processes available:           |
|     NCORE = 1                                                               |
|     was used instead, please check that this makes sense for your           |
|     machine.                                                                |

 POTCAR:    PAW_PBE Si 05Jan2001
   VRHFIN =Si: s2p2

   TITEL  = PAW_PBE Si 05Jan2001
   POMASS =   28.085; ZVAL   =    4.000    mass and valenz
   ENMAX  =  245.345; ENMIN  =  184.009 eV

 POTCAR:    PAW_PBE Ge 05Jan2001
   VRHFIN =Ge: s2p2

   TITEL  = PAW_PBE Ge 05Jan2001
   POMASS =   72.610; ZVAL   =    4.000    mass and valenz
   ENMAX  =  173.807; ENMIN  =  130.355 eV

 Optimization of the real space projectors (new method)

 maximal supplied QI-value         = 19.84
 optimisation between [QCUT,QGAM] = [ 12.50, 25.00] = [ 43.76,175.03] Ry
 Optimized for a Real-space Cutoff    1.06 Angstroem

   l    n(q)    QCUT    max X(q) W(low)/X(q) W(high)/X(q)  e(spline)
   0      8    12.501   159.560    0.25E-03    0.87E-04    0.85E-07
   0      8    12.501   115.863    0.25E-03    0.85E-04    0.84E-07
   1      7    12.501    88.339    0.32E-03    0.53E-03    0.87E-07
   1      7    12.501    48.592    0.31E-03    0.51E-03    0.85E-07
 Optimization of the real space projectors (new method)

 maximal supplied QI-value         = 16.25
 optimisation between [QCUT,QGAM] = [ 12.51, 25.03] = [ 43.85,175.40] Ry
 Optimized for a Real-space Cutoff    1.23 Angstroem

   l    n(q)    QCUT    max X(q) W(low)/X(q) W(high)/X(q)  e(spline)
   0      9    12.514    65.336    0.42E-03    0.23E-03    0.14E-06
   0      9    12.514    52.220    0.42E-03    0.23E-03    0.13E-06
   1      9    12.514    36.409    0.35E-03    0.65E-03    0.33E-06
   1      9    12.514    21.334    0.35E-03    0.63E-03    0.32E-06
   2      8    12.514     4.673    0.48E-03    0.34E-03    0.74E-07
  PAW_PBE Si 05Jan2001                  :
  PAW_PBE Ge 05Jan2001                  :

 POSCAR: Si Ge
  positions in cartesian coordinates

 exchange-correlation table for PE
   RHO(1)=    0.500       N(1)  =     2000
   RHO(2)=  100.500       N(2)  =     4000

 ion  position               nearest neighbor table
   1  0.045  0.000  0.000-  19 1.74  20 2.05  20 2.05   2 2.39   2 2.39
   2  0.955  0.545  0.077-  20 1.70   5 2.36   1 2.39   1 2.39   3 2.40
   3  0.591  0.727  0.103-   4 2.39   4 2.39   2 2.40
   4  0.500  0.273  0.180-   7 2.36   3 2.39   3 2.39   5 2.40
   5  0.136  0.455  0.206-   2 2.36   6 2.39   6 2.39   4 2.40
   6  0.045  0.000  0.284-   9 2.36   5 2.39   5 2.39   7 2.40
   7  0.682  0.182  0.309-   4 2.36   8 2.39   8 2.39   6 2.40
   8  0.591  0.727  0.387-   7 2.39   7 2.39   9 2.40
   9  0.227  0.909  0.412-  11 1.70   6 2.36  10 2.39  10 2.39   8 2.40
  10  0.136  0.455  0.490-  12 1.74  11 2.05  11 2.05   9 2.39   9 2.39
  11  0.045  0.000  0.490-   9 1.70  10 2.05  10 2.05  12 2.41  12 2.41
  12  0.955  0.545  0.570-  10 1.74  13 2.40  11 2.41  11 2.41  15 2.44
  13  0.591  0.727  0.597-  12 2.40  14 2.41  14 2.41
  14  0.500  0.273  0.678-  15 2.40  13 2.41  13 2.41  17 2.44
  15  0.136  0.455  0.705-  14 2.40  16 2.41  16 2.41  12 2.44
  16  0.045  0.000  0.785-  17 2.40  15 2.41  15 2.41  19 2.44
  17  0.682  0.182  0.812-  16 2.40  18 2.41  18 2.41  14 2.44
  18  0.591  0.727  0.893-  19 2.40  17 2.41  17 2.41
  19  0.227  0.909  0.919-   1 1.74  18 2.40  20 2.41  20 2.41  16 2.44
  20  0.136  0.455  0.000-   2 1.70   1 2.05   1 2.05  19 2.41  19 2.41

  LATTYP: Found a base centered orthorhombic cell.
 ALAT       =     3.9201999949
 B/A-ratio  =     3.3166247904
 C/A-ratio  =     4.0508136108

  Lattice vectors:

 A1 = (  -6.7899855670,   0.0000000000,   0.0000000000)
 A2 = (   5.6583213058,  -3.7533057429,   0.0000000000)
 A3 = (   0.0000000000,   0.0000000000,  15.8799994962)

Analysis of symmetry for initial positions (statically):
 Subroutine PRICEL returns:
 Original cell was already a primitive cell.

 Routine SETGRP: Setting up the symmetry group for a
 base centered orthorhombic supercell.

 Subroutine GETGRP returns: Found  4 space group operations
 (whereof  1 operations were pure point group operations)
 out of a pool of  8 trial point group operations.

The static configuration has the point symmetry C_1 .
 The point group associated with its full space group is C_2h.

Analysis of symmetry for dynamics (positions and initial velocities):
 Subroutine PRICEL returns:
 Original cell was already a primitive cell.

 Routine SETGRP: Setting up the symmetry group for a
 base centered orthorhombic supercell.

 Subroutine GETGRP returns: Found  4 space group operations
 (whereof  1 operations were pure point group operations)
 out of a pool of  8 trial point group operations.

The dynamic configuration has the point symmetry C_1 .
 The point group associated with its full space group is C_2h.

 Subroutine INISYM returns: Found  4 space group operations
 (whereof  1 operations are pure point group operations),
 and found     1 'primitive' translations

                                     Primitive cell

  volume of cell :     404.7001

  direct lattice vectors                    reciprocal lattice vectors
     6.789985567  0.000000000  0.000000000     0.147275718 -0.044405300  0.000000000
     1.131664261  3.753305743  0.000000000     0.000000000  0.266431799  0.000000000
     0.000000000  0.000000000 15.879999496     0.000000000  0.000000000  0.062972294

  length of vectors
     6.789985567  3.920199995 15.879999496     0.153824471  0.266431799  0.062972294

  position of ions in fractional coordinates (direct lattice)
     0.045454545  0.000000000  0.000000000
     0.954545455  0.545454545  0.077323992
     0.590909091  0.727272727  0.103098656
     0.500000000  0.272727273  0.180422648
     0.136363636  0.454545455  0.206197311
     0.045454545  0.000000000  0.283521303
     0.681818182  0.181818182  0.309295967
     0.590909091  0.727272727  0.386619959
     0.227272727  0.909090909  0.412394623
     0.136363636  0.454545455  0.489718615
     0.045454545  0.000000000  0.489718615
     0.954545455  0.545454545  0.570289360
     0.590909091  0.727272727  0.597146275
     0.500000000  0.272727273  0.677717020
     0.136363636  0.454545455  0.704573935
     0.045454545  0.000000000  0.785144680
     0.681818182  0.181818182  0.812001595
     0.590909091  0.727272727  0.892572340
     0.227272727  0.909090909  0.919429255
     0.136363636  0.454545455  0.000000000

  ion indices of the primitive-cell ions
   primitive index   ion index
                 1           1
                 2           2
                 3           3
                 4           4
                 5           5
                 6           6
                 7           7
                 8           8
                 9           9
                10          10
                11          11
                12          12
                13          13
                14          14
                15          15
                16          16
                17          17
                18          18
                19          19
                20          20

 KPOINTS: 4x4x4

Automatic generation of k-mesh.
 Grid dimensions read from file:
 generate k-points for:    4    4    4

 Generating k-lattice:

  Cartesian coordinates                     Fractional coordinates (reciprocal lattice)
     0.036818930 -0.011101325  0.000000000     0.250000000 -0.000000000  0.000000000
     0.000000000  0.066607950  0.000000000     0.000000000  0.250000000  0.000000000
     0.000000000  0.000000000  0.015743074     0.000000000  0.000000000  0.250000000

  Length of vectors
     0.038456118  0.066607950  0.015743074

  Shift w.r.t. Gamma in fractional coordinates (k-lattice)
     0.000000000  0.000000000  0.000000000

 Subroutine IBZKPT returns following result:

 Found     24 irreducible k-points:

 Following reciprocal coordinates:
            Coordinates               Weight
  0.000000  0.000000  0.000000      1.000000
  0.250000  0.000000  0.000000      2.000000
  0.500000  0.000000  0.000000      1.000000
  0.000000  0.250000  0.000000      4.000000
  0.500000  0.250000  0.000000      4.000000
  0.000000  0.500000  0.000000      2.000000
  0.250000  0.500000  0.000000      2.000000
  0.000000  0.000000  0.250000      2.000000
  0.250000  0.000000  0.250000      2.000000
 -0.250000 -0.000000  0.250000      2.000000
  0.500000  0.000000  0.250000      2.000000
  0.000000  0.250000  0.250000      4.000000
  0.000000 -0.250000  0.250000      4.000000
  0.500000  0.250000  0.250000      4.000000
  0.500000 -0.250000  0.250000      4.000000
  0.000000  0.500000  0.250000      4.000000
  0.250000  0.500000  0.250000      4.000000
  0.000000  0.000000  0.500000      1.000000
  0.250000  0.000000  0.500000      2.000000
  0.500000  0.000000  0.500000      1.000000
  0.000000  0.250000  0.500000      4.000000
  0.500000  0.250000  0.500000      4.000000
  0.000000  0.500000  0.500000      2.000000
  0.250000  0.500000  0.500000      2.000000

 Following cartesian coordinates:
            Coordinates               Weight
  0.000000  0.000000  0.000000      1.000000
  0.036819 -0.011101  0.000000      2.000000
  0.073638 -0.022203  0.000000      1.000000
  0.000000  0.066608  0.000000      4.000000
  0.073638  0.044405  0.000000      4.000000
  0.000000  0.133216  0.000000      2.000000
  0.036819  0.122115  0.000000      2.000000
  0.000000  0.000000  0.015743      2.000000
  0.036819 -0.011101  0.015743      2.000000
 -0.036819  0.011101  0.015743      2.000000
  0.073638 -0.022203  0.015743      2.000000
  0.000000  0.066608  0.015743      4.000000
  0.000000 -0.066608  0.015743      4.000000
  0.073638  0.044405  0.015743      4.000000
  0.073638 -0.088811  0.015743      4.000000
  0.000000  0.133216  0.015743      4.000000
  0.036819  0.122115  0.015743      4.000000
  0.000000  0.000000  0.031486      1.000000
  0.036819 -0.011101  0.031486      2.000000
  0.073638 -0.022203  0.031486      1.000000
  0.000000  0.066608  0.031486      4.000000
  0.073638  0.044405  0.031486      4.000000
[...]
      2.57196      3.41210      6.54883        15.788529     -4.760420    -17.448783
      1.44030      1.70605      7.77673        16.396134     -4.943620    -14.880902
      0.30864      0.00000      7.77673       -18.384576      5.543158     15.462430
      7.09862      2.04726      9.05619       -13.182900      3.974794     16.218361
      4.83529      2.72968      9.48268        -0.540440      0.162949     -1.431749
      3.70363      1.02363     10.76215         0.309831     -0.093418     -0.112227
      1.44030      1.70605     11.18863        -0.128011      0.038597      0.256306
      0.30864      0.00000     12.46810         0.128011     -0.038597     -0.256306
      4.83529      0.68242     12.89458        -0.309831      0.093418      0.112227
      4.83529      2.72968     14.17405         0.540440     -0.162949      1.431749
      2.57196      3.41210     14.60054        13.182900     -3.974794    -16.218361
      1.44030      1.70605      0.00000        18.384576     -5.543158    -15.462430
    total drift:                                0.000002     -0.000011      0.000000

  FREE ENERGIE OF THE ION-ELECTRON SYSTEM (eV)
  free  energy   TOTEN  =       -63.56702026 eV

  energy  without entropy=      -63.54519175  energy(sigma->0) =      -63.55610600

[...]

 E-fermi :   1.2999     XC(G=0):  -7.6165     alpha+bet : -6.6577

[...]

 d Force = 0.1254970E+03[-0.360E+02, 0.287E+03]  d Energy = 0.5649942E+01 0.120E+03
 d Force = 0.2230544E+03[-0.390E+03, 0.836E+03]  d Ewald  =-0.3192284E+03 0.542E+03

 Steepest descent step on ions:
 trial-energy change:   -5.649942  1 .order -123.111416 -280.807286   34.584453
  (g-gl).g = 0.281E+03      g.g   = 0.281E+03  gl.gl    = 0.000E+00
 g(Force)  = 0.208E+03   g(Stress)= 0.729E+02 ortho     = 0.000E+00
 gamma     =   0.00000
 trial     =   1.00000
 opt step  =   0.89034  (harmonic =   0.89034) maximal distance =0.78966498
 next E    =  -188.574625   (d E  =-125.00760)

[...]

 d Force = 0.2613483E+01[ 0.251E+01, 0.272E+01]  d Energy = 0.3466690E+01-0.853E+00
 d Force = 0.2854138E+02[ 0.275E+02, 0.296E+02]  d Ewald  = 0.6256028E+02-0.340E+02

[...]

 d Force = 0.1958204E+01[ 0.122E+01, 0.270E+01]  d Energy = 0.2652737E+01-0.695E+00
 d Force =-0.4193625E+01[-0.189E+02, 0.106E+02]  d Ewald  = 0.6623597E+02-0.704E+02

[...]

 d Force = 0.1321405E+00[-0.175E+00, 0.439E+00]  d Energy =-0.8766277E-01 0.220E+00
 d Force =-0.9052622E+01[-0.114E+02,-0.673E+01]  d Ewald  = 0.1491894E+02-0.240E+02

[...]

 d Force =-0.3189895E-01[-0.178E+00, 0.115E+00]  d Energy = 0.1633077E+00-0.195E+00
 d Force = 0.6543008E+01[ 0.550E+01, 0.758E+01]  d Ewald  =-0.8944725E+01 0.155E+02

[...]

 d Force = 0.1903107E-01[ 0.176E-01, 0.204E-01]  d Energy = 0.3521262E-02 0.155E-01
 d Force =-0.6469779E+00[-0.660E+00,-0.634E+00]  d Ewald  = 0.1155994E+01-0.180E+01

[...]

 d Force = 0.1602276E+01[ 0.455E+00, 0.275E+01]  d Energy = 0.1540645E+01 0.616E-01
 d Force = 0.1047481E+02[ 0.574E+01, 0.152E+02]  d Ewald  =-0.3536022E+02 0.458E+02

 Conjugate gradient step on ions:
 trial-energy change:   -1.540645  1 .order   -1.798534   -3.600363    0.003296
  (g-gl).g = 0.439E+01      g.g   = 0.432E+01  gl.gl    = 0.281E+03
 g(Force)  = 0.323E+01   g(Stress)= 0.109E+01 ortho     =-0.711E-01
 gamma     =   0.01563
 trial     =   0.83391
 opt step  =   0.83258  (harmonic =   0.83315) maximal distance =0.12986591
 next E    =   -89.885018   (d E  =  -1.54065)

[...]

 d Force =-0.7014646E-03[-0.703E-03,-0.700E-03]  d Energy =-0.2375431E-04-0.678E-03
 d Force =-0.8690341E-02[-0.870E-02,-0.868E-02]  d Ewald  = 0.6361441E-01-0.723E-01

[...]

 E-fermi :   4.3494     XC(G=0):  -9.1330     alpha+bet : -9.9053

[...]

 Conjugate gradient step on ions:
 trial-energy change:   -0.489378  1 .order   -0.489465   -0.573569   -0.405361
  (g-gl).g = 0.740E+00      g.g   = 0.748E+00  gl.gl    = 0.884E+00
 g(Force)  = 0.646E+00   g(Stress)= 0.102E+00 ortho     = 0.394E-01
 gamma     =   0.83679
 trial     =   0.73429
 opt step  =   2.50383  (harmonic =   2.50383) maximal distance =0.24148546
 next E    =   -91.925335   (d E  =  -0.97790)

[...]

 d Force = 0.3537526E+00[ 0.215E+00, 0.492E+00]  d Energy = 0.4191836E+00-0.654E-01
 d Force = 0.4829297E+01[ 0.289E+01, 0.677E+01]  d Ewald  = 0.1471679E+02-0.989E+01

 Conjugate gradient step on ions:
 trial-energy change:   -0.419184  1 .order   -0.415578   -0.574876   -0.256279
  (g-gl).g = 0.515E+00      g.g   = 0.568E+00  gl.gl    = 0.748E+00
 g(Force)  = 0.374E+00   g(Stress)= 0.194E+00 ortho     =-0.576E-01
 gamma     =   0.68868
 trial     =   1.08820
 opt step  =   1.87197  (harmonic =   1.96354) maximal distance =0.18720474
 next E    =   -92.376331   (d E  =  -0.51282)

[...]

 d Force = 0.9021426E-01[ 0.252E-01, 0.155E+00]  d Energy = 0.1102045E+00-0.200E-01
 d Force = 0.9505039E+00[-0.171E+00, 0.207E+01]  d Ewald  = 0.8194961E+01-0.724E+01

[...]

 d Force = 0.2571588E+00[ 0.130E+00, 0.384E+00]  d Energy = 0.2920935E+00-0.349E-01
 d Force =-0.5380749E+01[-0.644E+01,-0.432E+01]  d Ewald  =-0.1981418E+01-0.340E+01

[...]

 d Force = 0.2955819E-01[-0.839E-02, 0.675E-01]  d Energy = 0.4426713E-01-0.147E-01
 d Force =-0.3654116E+01[-0.396E+01,-0.335E+01]  d Ewald  =-0.1865306E+01-0.179E+01

--------------------------------------- Ionic step       20  -------------------------------------------

[...]

 eigenvalue-minimisations  :  2498
 total energy-change (2. order) : 0.8903290E-03  (-0.8690184E-03)
 number of electron      80.0000000 magnetization
 augmentation part       -9.0430538 magnetization

[...]

 Broyden mixing:
  rms(total) = 0.21153E-03    rms(broyden)= 0.21153E-03
  rms(prec ) = 0.23629E-03
  weight for this iteration     100.00

 eigenvalues of (default mixing * dielectric matrix)
  average eigenvalue GAMMA=   1.5731
  3.0304  2.5439  1.8222  0.5837  1.2743  0.9912  1.1694  1.1694

[...]

--------------------------------------- Iteration     20(  10)  ---------------------------------------

 eigenvalue-minimisations  :  1890
 total energy-change (2. order) :-0.5091301E-06  (-0.3892516E-06)
 number of electron      80.0000000 magnetization
 augmentation part       -9.0424471 magnetization

 Free energy of the ion-electron system (eV)
  alpha Z        PSCENC =       105.97403662
  Ewald energy   TEWEN  =     -2231.10443868
  -Hartree energ DENC   =      -171.14135778
  -exchange      EXHF   =         0.00000000
  -V(xc)+E(xc)   XCENC  =      -164.88935067
  PAW double counting   =      5273.82359924    -4954.84809207
  entropy T*S    EENTRO =        -0.01000880
  eigenvalues    EBANDS =       -31.34107330
  atomic energy  EATOM  =      2080.62436032
  Solvation  Ediel_sol  =         0.00000000
  free energy    TOTEN  =       -92.91232512 eV

  energy without entropy =      -92.90231632  energy(sigma->0) =      -92.90732072

 average (electrostatic) potential at core
  the test charge radii are     0.9892  1.1631
  (the norm of the test charge is              1.0000)
       1 -84.8941       2 -84.6379       3 -84.9308       4 -84.7471       5 -84.5908
       6 -84.5908       7 -84.7471       8 -84.9308       9 -84.6379      10 -84.8941
      11 -32.0895      12 -31.6739      13 -32.0909      14 -31.9046      15 -31.6903
      16 -31.6903      17 -31.9046      18 -32.0908      19 -31.6739      20 -32.0895

 E-fermi :   4.7104     XC(G=0):  -9.4384     alpha+bet :-10.5396

 val. band max:        4.6955412555   @ k =   0.5000   0.0000   0.5000
 cond. band min:       4.7274130894   @ k =   0.0000   0.0000   0.2500
 fundamental gap:      0.0318718339
 Fermi energy:         4.7103652808

[...]

 k-point    24 :       0.2500    0.5000    0.5000
  band No.  band energies     occupation
      1      -5.6794      2.00000
      2      -5.6435      2.00000
      3      -5.3045      2.00000
      4      -5.2813      2.00000
      5      -4.7803      2.00000
      6      -4.6129      2.00000
      7      -4.0857      2.00000
      8      -3.9704      2.00000
      9      -3.7035      2.00000
     10      -3.6193      2.00000
     11      -3.2220      2.00000
     12      -3.2136      2.00000
     13      -2.9727      2.00000
     14      -2.8358      2.00000
     15      -2.3384      2.00000
     16      -2.2206      2.00000
     17      -1.7049      2.00000
     18      -1.6825      2.00000
     19      -1.1810      2.00000
     20      -0.8512      2.00000
     21       0.4751      2.00000
     22       0.5083      2.00000
     23       0.6537      2.00000
     24       0.7538      2.00000
     25       1.1687      2.00000
     26       1.3014      2.00000
     27       1.5769      2.00000
     28       1.6441      2.00000
     29       2.0455      2.00000
     30       2.0665      2.00000
     31       2.4019      2.00000
     32       2.5844      2.00000
     33       2.7625      2.00000
     34       2.7895      2.00000
     35       3.0266      2.00000
     36       3.0422      2.00000
     37       3.3045      2.00000
     38       3.5196      2.00000
     39       3.9708      2.00000
     40       3.9937      2.00000
     41       4.4571      2.00000
     42       4.6352      1.96645
     43       5.2413      0.00000
     44       5.3247      0.00000
     45       6.0429      0.00000
     46       6.0591      0.00000
     47       6.6106      0.00000
     48       6.7491      0.00000
     49       7.0941      0.00000
     50       7.3189      0.00000
     51       7.3651      0.00000

 soft charge-density along one line, spin component           1
         0         1         2         3         4         5         6         7         8         9
 total charge-density along one line

------------------------ aborting loop because EDIFF is reached ----------------------------------------

  FORCE on cell =-STRESS in cart. coord.  units (eV):
  Direction    XX          YY          ZZ          XY          YZ          ZX
  Alpha Z   105.97404   105.97404   105.97404
  Ewald    -692.20569  -720.66670  -818.23830    -9.43945     3.05866   -10.14444
  Hartree    96.19224    82.99102    -8.03687    -4.37835     1.16684    -3.86997
  E(xc)    -259.41372  -259.64901  -259.60644    -0.07804    -0.00972     0.03223
  Local    -348.88401  -311.46270  -119.85422    12.41130    -3.89022    12.90243
  n-local   574.32617   577.12136   574.10544     0.48996    -0.35240     0.05334
  augment   -47.70891   -48.10072   -47.85564    -0.13008    -0.00124     0.00147
  Kinetic   568.18699   573.86356   575.85769    -2.72846    -1.89296     0.93099
  Fock        0.00000     0.00000     0.00000     0.00000     0.00000     0.00000
  Total      -1.20762    -2.25445     2.34570    -0.34719    -0.13410     0.44477
  in kB      -4.56060    -8.51398     8.85861    -1.31119    -0.50644     1.67967

 VOLUME and BASIS-vectors are now :
  energy-cutoff  :      600.00
  volume of cell :      424.25
      direct lattice vectors                 reciprocal lattice vectors
     6.811734441  0.045849996  0.105145428     0.147137685 -0.044363681 -0.002175639
     1.160633612  3.849386212  0.000000000    -0.001768980  0.260315043  0.001087820
     0.219798552 -0.066271757 16.216251074    -0.000954034  0.000287652  0.061680641

  length of vectors
     6.812700190  4.020552771 16.217876009     0.153695699  0.260323327  0.061688689

 FORCES acting on ions
    electron-ion (+dipol)            ewald-force                    non-local-force                 convergence-correction
   0.893E+01 -.269E+01 0.326E+02   -.987E+01 0.298E+01 -.328E+02   0.113E+01 -.340E+00 -.137E+00   -.121E-03 0.365E-04 -.498E-03
   -.407E+00 0.123E+00 0.190E+01   -.318E+00 0.959E-01 -.951E+00   0.803E+00 -.242E+00 -.100E+01   -.370E-03 0.112E-03 0.632E-03
   0.141E+02 -.426E+01 0.142E+02   -.125E+02 0.377E+01 -.127E+02   -.140E+01 0.423E+00 -.137E+01   0.315E-03 -.949E-04 0.549E-03
   -.591E+01 0.178E+01 -.263E+01   0.553E+01 -.167E+01 0.294E+01   0.370E+00 -.112E+00 -.105E+00   -.325E-04 0.981E-05 0.679E-03
   -.294E+01 0.887E+00 -.369E+01   0.263E+01 -.792E+00 0.282E+01   0.155E+00 -.467E-01 0.917E+00   0.581E-04 -.175E-04 0.533E-03
   0.294E+01 -.887E+00 0.369E+01   -.263E+01 0.792E+00 -.282E+01   -.155E+00 0.467E-01 -.917E+00   -.581E-04 0.175E-04 -.533E-03
   0.591E+01 -.178E+01 0.263E+01   -.553E+01 0.167E+01 -.294E+01   -.370E+00 0.112E+00 0.105E+00   0.326E-04 -.982E-05 -.680E-03
   -.141E+02 0.426E+01 -.142E+02   0.125E+02 -.377E+01 0.127E+02   0.140E+01 -.423E+00 0.137E+01   -.315E-03 0.949E-04 -.549E-03
   0.407E+00 -.123E+00 -.190E+01   0.318E+00 -.959E-01 0.951E+00   -.803E+00 0.242E+00 0.100E+01   0.370E-03 -.112E-03 -.632E-03
   -.893E+01 0.269E+01 -.326E+02   0.987E+01 -.298E+01 0.328E+02   -.113E+01 0.340E+00 0.137E+00   0.121E-03 -.365E-04 0.498E-03
   0.115E+02 -.346E+01 -.234E+02   -.121E+02 0.365E+01 0.223E+02   0.714E+00 -.215E+00 0.804E+00   0.310E-06 -.927E-07 0.979E-03
   0.546E+01 -.165E+01 -.464E+02   -.543E+01 0.164E+01 0.468E+02   0.547E-01 -.165E-01 -.335E+00   0.989E-05 -.298E-05 0.222E-02
   0.864E+01 -.261E+01 -.361E+02   -.913E+01 0.275E+01 0.360E+02   0.638E+00 -.192E+00 -.120E+00   -.113E-03 0.341E-04 0.201E-02
   -.857E+01 0.258E+01 -.267E+02   0.915E+01 -.276E+01 0.267E+02   -.643E+00 0.194E+00 0.302E+00   -.160E-03 0.484E-04 0.169E-02
   -.353E+01 0.107E+01 -.137E+02   0.406E+01 -.122E+01 0.138E+02   -.741E+00 0.223E+00 0.197E+00   0.580E-04 -.175E-04 0.929E-03
   0.353E+01 -.107E+01 0.137E+02   -.406E+01 0.122E+01 -.138E+02   0.741E+00 -.223E+00 -.197E+00   -.579E-04 0.175E-04 -.928E-03
   0.857E+01 -.258E+01 0.267E+02   -.915E+01 0.276E+01 -.267E+02   0.643E+00 -.194E+00 -.302E+00   0.160E-03 -.484E-04 -.169E-02
   -.864E+01 0.261E+01 0.361E+02   0.913E+01 -.275E+01 -.360E+02   -.638E+00 0.192E+00 0.120E+00   0.113E-03 -.341E-04 -.201E-02
   -.546E+01 0.165E+01 0.464E+02   0.543E+01 -.164E+01 -.468E+02   -.547E-01 0.165E-01 0.335E+00   -.985E-05 0.297E-05 -.222E-02
   -.115E+02 0.346E+01 0.234E+02   0.121E+02 -.365E+01 -.223E+02   -.714E+00 0.215E+00 -.804E+00   -.308E-06 0.923E-07 -.979E-03
   -.311E-05 -.591E-07 -.881E-06   -.142E-13 0.187E-13 0.107E-12   -.222E-15 -.111E-15 0.000E+00   0.174E-07 -.517E-08 -.304E-06

 POSITION                                       TOTAL-FORCE (eV/Angst)
      6.40021      0.26537      0.27515         0.188464     -0.056824     -0.316873
      7.04239      2.17141      1.62261         0.077613     -0.023401     -0.057575
      4.75446      2.86125      1.65092         0.206310     -0.062205      0.113096
      3.76234      1.06072      2.94781        -0.009501      0.002865      0.210511
      1.53420      1.73253      3.42719        -0.160732      0.048462      0.046364
      0.33950     -0.00692      4.53332         0.160732     -0.048462     -0.046364
      4.92309      0.71074      5.11786         0.009501     -0.002865     -0.210511
      5.09160      2.75959      6.41474        -0.206310      0.062205     -0.113096
      2.80368      3.44943      6.44305        -0.077613      0.023401      0.057575
      2.28522      1.50608      7.79051        -0.188464      0.056824      0.316873
      6.31309      0.29164      7.97662         0.060035     -0.018101     -0.290223
      7.25016      2.10876      9.53728         0.086385     -0.026046      0.037822
      4.72557      2.86996      9.15702         0.149055     -0.044942     -0.218836
      4.06583      0.96921     10.87529        -0.064290      0.019384      0.239311
      1.73633      1.67158     11.46750        -0.214209      0.064586      0.290615
      0.35717     -0.01225     12.70927         0.214209     -0.064586     -0.290615
      4.83940      0.73597     13.40662         0.064290     -0.019384     -0.239311
      5.34030      2.68461     15.12490        -0.149055      0.044942      0.218836
      2.81571      3.44580     14.74463        -0.086385      0.026046     -0.037822
      2.37234      1.47982      0.08904        -0.060035      0.018101      0.290223
    total drift:                               -0.000003     -0.000000     -0.000001

  FREE ENERGIE OF THE ION-ELECTRON SYSTEM (eV)
  free  energy   TOTEN  =       -92.91232512 eV

  energy  without entropy=      -92.90231632  energy(sigma->0) =      -92.90732072

 d Force = 0.9084519E-01[ 0.346E-01, 0.147E+00]  d Energy = 0.1830691E+00-0.922E-01
 d Force =-0.7303575E+01[-0.784E+01,-0.677E+01]  d Ewald  =-0.1385787E+02 0.655E+01

 Conjugate gradient step on ions:
 trial-energy change:   -0.183069  1 .order   -0.181305   -0.297927   -0.064684
  (g-gl).g = 0.220E+00      g.g   = 0.212E+00  gl.gl    = 0.322E+00
 g(Force)  = 0.115E+00   g(Stress)= 0.967E-01 ortho     = 0.731E-02
 gamma     =   0.68306
 trial     =   1.37487
 opt step  =   1.73549  (harmonic =   1.75615) maximal distance =0.06725547
 next E    =   -92.920840   (d E  =  -0.19158)

 writing wavefunctions