 vasp.6.4.3 19Mar24 (build Oct 22 2024 11:23:12) complex

 executed on             LinuxIFC date 2025.06.03  23:53:35

 INCAR:
   SYSTEM = Si and Ge interface calculation
   ISTART = 0
   ICHARG = 2
   LWAVE = .FALSE.
   LREAL = AUTO
   ENCUT = 700
   ENAUG = 900
   ADDGRID = .TRUE.
   LMAXMIX = 6
   LASPH = .TRUE.
   LMIXTAU = .TRUE.
   NCORE = 16
   NELM = 100
   NBANDS = 116
   EDIFF = 1d-7
   AMIX = 0.6
   ISMEAR = 0
   SIGMA = 0.01
   NELECT = 192
   ISPIN = 2
   NUPDOWN = 1
   LVTOT = .FALSE.
   LVHAR = .TRUE.

 POTCAR:    PAW_PBE Ge 05Jan2001
|           W    W    AA    RRRRR   N    N  II  N    N   GGGG   !!!           |
|           W    W   A  A   R    R  NN   N  II  NN   N  G    G  !!!           |
|           W    W  A    A  R    R  N N  N  II  N N  N  G       !!!           |
|           W WW W  AAAAAA  RRRRR   N  N N  II  N  N N  G  GGG   !            |
|           WW  WW  A    A  R   R   N   NN  II  N   NN  G    G                |
|           W    W  A    A  R    R  N    N  II  N    N   GGGG   !!!           |
|     You use a magnetic or noncollinear calculation, but did not specify     |
|     the initial magnetic moment with the MAGMOM tag. Note that a            |
|     default of 0.021 will be used for all atoms. This ferromagnetic         |
|     setup may break the symmetry of the crystal, in particular it may       |
|     rule out finding an antiferromagnetic solution. Thence, we              |
|     recommend setting the initial magnetic moment manually or verifying     |
|     carefully that this magnetic setup is desired.                          |

 POTCAR:    PAW_PBE Ge 05Jan2001
   VRHFIN =Ge: s2p2

   TITEL  = PAW_PBE Ge 05Jan2001
   POMASS =   72.610; ZVAL   =    4.000    mass and valenz
   ENMAX  =  173.807; ENMIN  =  130.355 eV

 Optimization of the real space projectors (new method)

 maximal supplied QI-value         = 16.25
 optimisation between [QCUT,QGAM] = [ 13.49, 26.98] = [ 50.95,203.80] Ry
 Optimized for a Real-space Cutoff    1.25 Angstroem

   l    n(q)    QCUT    max X(q) W(low)/X(q) W(high)/X(q)  e(spline)
   0     10    13.489    65.336    0.91E-04    0.11E-03    0.34E-06
   0     10    13.489    52.220    0.89E-04    0.11E-03    0.34E-06
   1     10    13.489    36.409    0.22E-03    0.27E-03    0.14E-06
   1     10    13.489    21.334    0.21E-03    0.27E-03    0.14E-06
   2      9    13.489     4.673    0.11E-03    0.12E-03    0.19E-06
  PAW_PBE Ge 05Jan2001                  :

 POSCAR: Ge+Ge
  positions in direct lattice

 exchange-correlation table for PE
   RHO(1)=    0.500       N(1)  =     2000
   RHO(2)=  100.500       N(2)  =     4000

 ion  position               nearest neighbor table
   1  0.345  0.672  0.000-  48 1.71  42 2.27  13 2.45  28 2.45  39 2.69
   2  0.678  0.839  0.248-  13 2.45  14 2.45  34 2.45  29 2.45
   3  0.011  0.006  0.496-  35 2.45  14 2.45  30 2.45  15 2.45  43 2.89
   4  0.011  0.006  0.000-  10 2.45  34 2.45  43 2.89
   5  0.345  0.172  0.248-  31 2.45  11 2.45  10 2.45  35 2.45
   6  0.678  0.339  0.496-  32 2.45  11 2.45  12 2.45  36 2.45
   7  0.678  0.339  0.000-  16 2.45  31 2.45  41 2.50  44 2.70  45 2.82
   8  0.011  0.506  0.248-  32 2.45  28 2.45  16 2.45  17 2.45
   9  0.345  0.672  0.496-  29 2.45  18 2.45  17 2.45  33 2.45
  10  0.095  0.922  0.124-  23 2.45   4 2.45   5 2.45  19 2.45
  11  0.428  0.089  0.372-  24 2.45   5 2.45  20 2.45   6 2.45
  12  0.761  0.256  0.620-  41 2.38   6 2.45  21 2.45
  13  0.428  0.589  0.124-   1 2.45   2 2.45  26 2.45  22 2.45
  14  0.761  0.756  0.372-   2 2.45  23 2.45  27 2.45   3 2.45
  15  0.095  0.922  0.620-  37 2.12   3 2.45  24 2.45  43 2.52  40 2.57
  16  0.761  0.256  0.124-   7 2.45  20 2.45   8 2.45  25 2.45  45 2.50
  17  0.095  0.422  0.372-  26 2.45   9 2.45  21 2.45   8 2.45
  18  0.428  0.589  0.620-   9 2.45  27 2.45  46 2.46
  19  0.178  0.839  0.000-  28 2.45  10 2.45  38 2.50  47 2.70  48 2.82
  20  0.511  0.006  0.248-  16 2.45  28 2.45  29 2.45  11 2.45
  21  0.845  0.172  0.496-  29 2.45  30 2.45  17 2.45  12 2.45
  22  0.511  0.506  0.000-  13 2.45  31 2.45  46 2.89
  23  0.845  0.672  0.248-  10 2.45  14 2.45  31 2.45  32 2.45
  24  0.178  0.839  0.496-  11 2.45  32 2.45  33 2.45  15 2.45
  25  0.845  0.172  0.000-  45 1.71  39 2.27  34 2.45  16 2.45  42 2.69
  26  0.178  0.339  0.248-  17 2.45  13 2.45  35 2.45  34 2.45
  27  0.511  0.506  0.496-  14 2.45  35 2.45  36 2.45  18 2.45  46 2.89
  28  0.261  0.756  0.124-   1 2.45  19 2.45   8 2.45  20 2.45  48 2.50
  29  0.595  0.922  0.372-   9 2.45  21 2.45   2 2.45  20 2.45
  30  0.928  0.089  0.620-  21 2.45   3 2.45  43 2.46
  31  0.595  0.422  0.124-   5 2.45  23 2.45   7 2.45  22 2.45
  32  0.928  0.589  0.372-   8 2.45   6 2.45  24 2.45  23 2.45
  33  0.261  0.756  0.620-  38 2.38  24 2.45   9 2.45
  34  0.928  0.089  0.124-  25 2.45  26 2.45   2 2.45   4 2.45
  35  0.261  0.256  0.372-   3 2.45  27 2.45  26 2.45   5 2.45
  36  0.595  0.422  0.620-  40 2.12  27 2.45   6 2.45  46 2.52  37 2.57
  37  0.283  0.169  0.707-  15 2.12  46 2.45  43 2.45  47 2.45  36 2.57
  38  0.172  0.780  0.789-  33 2.38  47 2.45  44 2.45  48 2.45  19 2.50
  39  0.061  0.391  0.872-  25 2.27  48 2.45  45 2.45   1 2.69
  40  0.783  0.669  0.707-  36 2.12  46 2.45  43 2.45  44 2.45  15 2.57
  41  0.672  0.280  0.789-  12 2.38  45 2.45  47 2.45  44 2.45   7 2.50
  42  0.561  0.891  0.872-   1 2.27  48 2.45  45 2.45  25 2.69
  43  0.977  0.975  0.748-  40 2.45  37 2.45  30 2.46  15 2.52   3 2.89   4 2.89
  44  0.866  0.586  0.830-  41 2.45  38 2.45  40 2.45   7 2.70
  45  0.755  0.197  0.913-  25 1.71  41 2.45  39 2.45  42 2.45  16 2.50   7 2.82
  46  0.477  0.475  0.748-  37 2.45  40 2.45  18 2.46  36 2.52  27 2.89  22 2.89
  47  0.366  0.086  0.830-  41 2.45  38 2.45  37 2.45  19 2.70
  48  0.255  0.697  0.913-   1 1.71  39 2.45  42 2.45  38 2.45  28 2.50  19 2.82

  LATTYP: Found a base centered orthorhombic cell.
 ALAT       =     8.0013375965
 B/A-ratio  =     3.0000001508
 C/A-ratio  =     1.4264332444

  Lattice vectors:

 A1 = (  12.6512260440,   0.0000000000,   0.0000000000)
 A2 = ( -10.1209812160,   7.5907354350,   0.0000000000)
 A3 = (   0.0000000000,   0.0000000000,  11.4133739470)

Analysis of symmetry for initial positions (statically):
 Subroutine PRICEL returns following result:

  LATTYP: Found a simple orthorhombic cell.
 ALAT       =     4.0006688343
 B/A-ratio  =     2.8528664630
 C/A-ratio  =     3.0000000188

[...]

   2 primitive cells build up your supercell.

 Routine SETGRP: Setting up the symmetry group for a
 base centered orthorhombic supercell.

 Subroutine GETGRP returns: Found  1 space group operations
 (whereof  1 operations were pure point group operations)
 out of a pool of  8 trial point group operations.

The static configuration has the point symmetry C_1 .

Analysis of symmetry for dynamics (positions and initial velocities):
 Subroutine PRICEL returns following result:

[...]

The dynamic configuration has the point symmetry C_1 .

Analysis of structural, dynamic, and magnetic symmetry:
 Subroutine PRICEL returns following result:

  LATTYP: Found a simple orthorhombic cell.
 ALAT       =     4.0006688343
 B/A-ratio  =     2.8528664630
 C/A-ratio  =     3.0000000188

  Lattice vectors:

 A1 = (  -1.2651220269,  -3.7953678845,   0.0000000000)
 A2 = (   0.0000000000,   0.0000000000,  11.4133739470)
 A3 = ( -11.3861032429,   3.7953675505,   0.0000000000)

   2 primitive cells build up your supercell.

 Routine SETGRP: Setting up the symmetry group for a
 base centered orthorhombic supercell.

 Subroutine GETGRP returns: Found  1 space group operations
 (whereof  1 operations were pure point group operations)
 out of a pool of  8 trial point group operations.

The overall configuration has the point symmetry C_1 .

 Subroutine INISYM returns: Found  1 space group operations
 (whereof  1 operations are pure point group operations),
 and found     2 'primitive' translations

                                     Primitive cell

  volume of cell :     548.0252

  direct lattice vectors                    reciprocal lattice vectors
    -1.265122027 -3.795367884  0.000000000    -0.079043721 -0.237131175  0.000000000
     0.000000000  0.000000000 11.413373947     0.000000000  0.000000000  0.087616511
   -11.386103243  3.795367551  0.000000000    -0.079043728  0.026347897  0.000000000

  length of vectors
     4.000668834 11.413373947 12.002006578     0.249958205  0.087616511  0.083319401

  position of ions in fractional coordinates (direct lattice)
     0.982916600  0.000000000  0.327638840
     0.482916448  0.247858331  0.160972255
     0.982916364  0.495716691  0.994305575
     0.982916542  0.000000000  0.994305515
     0.482916450  0.247858331  0.827638870
     0.982916418  0.495716691  0.660972285
     0.982916730  0.000000000  0.660972121
     0.482916593  0.247858331  0.494305610
     0.982916302  0.495716691  0.327638900
     0.982916596  0.123929165  0.827638857
     0.482916431  0.371787518  0.660972113
     0.982916360  0.619645953  0.494305593
     0.982916482  0.123929165  0.160972208
     0.482916360  0.371787518  0.994305593
     0.982916277  0.619645953  0.827638912
     0.982916598  0.123929165  0.494305473
     0.482916387  0.371787518  0.327638828
     0.982916423  0.619645953  0.160972267
     0.547768666  0.706548631  0.886160259
     0.047768774  0.789168060  0.608382511
     0.547768900  0.871787548  0.330604693
     0.047768692  0.747858286  0.997271356
     0.547768779  0.830477834  0.719493542
     0.047769015  0.913097322  0.441715758

  ion indices of the primitive-cell ions
   primitive index   ion index
                 1           1
                 2          26
                 3          27
                 4          22
                 5           5
                 6          24
                 7          19
                 8           8
                 9           9
                10          10
                11          32
                12          33
                13          13
                14          35
                15          36
                16          28
                17          17
                18          18
                19          40
                20          38
                21          42
                22          46
                23          47
                24          48

 KPOINTS: Automatic KPOINTS generated

Automatic generation of k-mesh.
 Grid dimensions read from file:
 generate k-points for:    4    4    3

 Generating k-lattice:

  Cartesian coordinates                     Fractional coordinates (reciprocal lattice)
     0.019760931  0.026347909  0.000000000     0.250000000 -0.000000000  0.000000000
     0.000000000  0.032934885  0.000000000     0.000000000  0.250000000  0.000000000
     0.000000000  0.000000000  0.029205504     0.000000000  0.000000000  0.333333333

  Length of vectors
     0.032934886  0.032934885  0.029205504

  Shift w.r.t. Gamma in fractional coordinates (k-lattice)
     0.000000000  0.000000000  0.000000000

 Subroutine IBZKPT returns following result:

 Found     26 irreducible k-points:

 Following reciprocal coordinates:
[...]
     42      -2.5796      1.00000
     43      -2.2942      1.00000
     44      -1.9163      1.00000
     45      -1.8124      1.00000
     46      -1.4246      1.00000
     47      -1.0939      1.00000
     48      -0.9411      1.00000
     49      -0.7163      1.00000
     50      -0.5942      1.00000
     51      -0.5643      1.00000
     52      -0.4812      1.00000
     53      -0.3716      1.00000
     54      -0.3209      1.00000
     55      -0.3136      1.00000
     56      -0.2539      1.00000
     57      -0.1534      1.00000
     58      -0.0522      1.00000
     59      -0.0449      1.00000
     60       0.1472      1.00000
[...]
    102       4.4498      0.00000
    103       4.4561      0.00000
    104       4.5297      0.00000
    105       4.6284      0.00000
    106       4.7235      0.00000
    107       4.8097      0.00000
    108       4.8390      0.00000
    109       4.8858      0.00000
    110       4.9906      0.00000
    111       5.1377      0.00000
    112       5.1995      0.00000
    113       5.2414      0.00000
    114       5.3455      0.00000
    115       5.3642      0.00000
    116       5.4777      0.00000
 Fermi energy:         3.5845968373

 spin component 2

[...]

 k-point    26 :       0.5000    0.5000    0.3333
  band No.  band energies     occupation
      1     -11.4251      1.00000
      2     -10.6226      1.00000
      3      -9.9891      1.00000
      4      -8.7748      1.00000
      5      -8.5773      1.00000
      6      -8.5711      1.00000
      7      -8.2368      1.00000
      8      -7.5715      1.00000
      9      -7.4606      1.00000
     10      -7.2538      1.00000
     11      -7.2009      1.00000
     12      -7.1800      1.00000
     13      -7.0346      1.00000
     14      -6.9726      1.00000
     15      -6.8037      1.00000
     16      -6.4309      1.00000
     17      -6.2986      1.00000
     18      -6.2464      1.00000
     19      -6.2167      1.00000
     20      -6.0964      1.00000
     21      -6.0632      1.00000
     22      -5.9437      1.00000
     23      -5.8357      1.00000
     24      -5.3544      1.00000
     25      -5.3471      1.00000
     26      -4.9649      1.00000
     27      -4.8603      1.00000
     28      -4.8456      1.00000
     29      -4.4055      1.00000
     30      -4.2647      1.00000
     31      -4.1635      1.00000
     32      -4.0885      1.00000
     33      -3.9594      1.00000
     34      -3.9045      1.00000
     35      -3.7096      1.00000
     36      -3.5434      1.00000
     37      -3.4751      1.00000
     38      -3.4591      1.00000
     39      -3.1089      1.00000
     40      -3.0234      1.00000
     41      -2.6425      1.00000
     42      -2.5650      1.00000
     43      -2.2781      1.00000
     44      -1.8998      1.00000
     45      -1.7946      1.00000
     46      -1.4083      1.00000
     47      -1.0791      1.00000
     48      -0.9293      1.00000
     49      -0.6943      1.00000
     50      -0.5793      1.00000
     51      -0.5482      1.00000
     52      -0.4640      1.00000
     53      -0.3532      1.00000
     54      -0.3030      1.00000
     55      -0.2995      1.00000
     56      -0.2347      1.00000
     57      -0.1322      1.00000
     58      -0.0345      1.00000
     59      -0.0306      1.00000
     60       0.1650      1.00000
[...]
    102       4.4794      0.00000
    103       4.4868      0.00000
    104       4.5565      0.00000
    105       4.6587      0.00000
    106       4.7412      0.00000
    107       4.8332      0.00000
    108       4.8557      0.00000
    109       4.9020      0.00000
    110       5.0072      0.00000
    111       5.1534      0.00000
    112       5.2577      0.00000
    113       5.2664      0.00000
    114       5.3624      0.00000
    115       5.3842      0.00000
    116       5.4923      0.00000

 soft charge-density along one line, spin component           1
         0         1         2         3         4         5         6         7         8         9
 total charge-density along one line

 soft charge-density along one line, spin component           2
         0         1         2         3         4         5         6         7         8         9
 total charge-density along one line

------------------------ aborting loop because EDIFF is reached ----------------------------------------

  FORCE on cell =-STRESS in cart. coord.  units (eV):
  Direction    XX          YY          ZZ          XY          YZ          ZX
  Alpha Z   401.77793   401.77793   401.77793
  Ewald   -1607.12898 -1678.74609 -1666.46051   -23.91116   -67.93651   228.28768
  Hartree   154.63415   270.20081   181.51799    43.36815   -43.57622   129.90340
  E(xc)    -669.09999  -665.87684  -666.41778     1.11234     0.23243    -1.17621
  Local    -693.59476  -772.74742  -675.00717   -27.04782   112.63027  -335.86761
  n-local   996.64220   964.98191   974.98389   -11.61778    -2.69148    12.97859
  augment    64.05397    60.68726    62.65168    -0.33086    -0.06302     3.00291
  Kinetic  1473.30405  1483.85803  1487.66420     8.64070     2.19673    -6.28526
  Fock        0.00000     0.00000     0.00000     0.00000     0.00000     0.00000
  Total     120.58857    64.13559   100.71023    -9.78644     0.79221    30.84350
  in kB     176.27317    93.75170   147.21553   -14.30555     1.15803    45.08622

 VOLUME and BASIS-vectors are now :
  energy-cutoff  :      700.00
  volume of cell :     1096.05
      direct lattice vectors                 reciprocal lattice vectors
    12.651226044  0.000000000  0.000000000     0.079043722  0.105391637  0.000000000
   -10.120981216  7.590735435  0.000000000     0.000000000  0.131739541  0.000000000
     0.000000000  0.000000000 11.413373947     0.000000000  0.000000000  0.087616511

  length of vectors
    12.651226044 12.651226234 11.413373947     0.131739543  0.131739541  0.087616511

 FORCES acting on ions
    electron-ion (+dipol)            ewald-force                    non-local-force                 convergence-correction
   -.648E+02 0.234E+02 -.158E+02   0.767E+02 -.252E+02 0.236E+02   0.110E+02 -.245E+01 0.970E+01   0.276E-04 -.188E-04 0.575E-04
   -.393E+01 0.144E+01 0.468E+01   0.395E+01 -.130E+01 -.461E+01   -.997E-01 -.113E+00 -.111E-01   0.148E-04 -.496E-05 0.170E-04
   0.202E+02 -.659E+01 0.158E+02   -.209E+02 0.673E+01 -.159E+02   0.135E+00 -.452E-01 -.763E+00   -.797E-05 0.146E-05 -.292E-04
   0.140E+02 -.498E+01 0.206E+02   -.138E+02 0.507E+01 -.221E+02   -.256E+00 -.115E+00 0.311E+00   0.279E-04 -.108E-04 -.154E-05
   0.771E+01 -.254E+01 0.915E+01   -.779E+01 0.263E+01 -.910E+01   0.481E-01 -.730E-01 -.126E+00   0.178E-04 -.743E-05 -.148E-04
   -.113E+02 0.382E+01 0.769E+01   0.119E+02 -.397E+01 -.744E+01   -.126E+00 -.110E-01 -.543E+00   -.664E-05 0.135E-05 -.175E-04
   0.228E+02 -.721E+01 -.184E+02   -.243E+02 0.739E+01 0.182E+02   0.126E+00 0.336E+00 0.976E+00   -.457E-04 0.151E-04 0.266E-05
   -.347E+01 0.130E+01 -.104E+02   0.349E+01 -.130E+01 0.112E+02   0.841E-01 -.266E-01 -.618E+00   -.352E-04 0.125E-04 0.248E-04
   -.619E+01 0.190E+01 -.188E+02   0.608E+01 -.202E+01 0.189E+02   -.547E-01 0.517E-02 0.576E-01   0.675E-05 -.170E-05 0.255E-05
   0.154E+02 -.497E+01 0.788E+01   -.155E+02 0.494E+01 -.784E+01   -.266E+00 0.460E-01 0.193E+00   0.303E-04 -.921E-05 -.281E-05
   -.457E+01 0.149E+01 0.130E+01   0.398E+01 -.131E+01 -.118E+01   0.365E+00 -.124E+00 -.188E+00   -.153E-04 0.378E-05 -.153E-04
   -.346E+02 0.958E+01 0.264E+01   0.346E+02 -.932E+01 -.242E+01   0.570E+00 -.234E+00 -.993E+00   -.110E-04 0.353E-05 -.164E-04
   -.128E+02 0.425E+01 0.145E+02   0.137E+02 -.474E+01 -.142E+02   -.787E+00 0.230E+00 -.156E+00   0.245E-04 -.903E-05 0.239E-04
   0.102E+02 -.345E+01 0.936E+01   -.983E+01 0.333E+01 -.927E+01   -.205E+00 0.357E-01 -.209E+00   0.142E-04 -.548E-05 -.156E-04
   -.127E+02 0.152E+02 0.160E+02   0.134E+02 -.164E+02 -.167E+02   0.112E+01 -.271E+01 -.250E+01   0.320E-04 -.252E-04 -.213E-04
   0.147E+01 -.202E+01 -.267E+02   -.250E+01 0.252E+01 0.284E+02   0.213E+00 -.375E-01 0.125E+00   -.632E-04 0.195E-04 0.294E-04
   -.514E+01 0.188E+01 -.126E+02   0.547E+01 -.183E+01 0.125E+02   -.258E+00 -.513E-01 0.172E+00   0.127E-05 -.839E-06 0.191E-04
   0.328E+02 -.118E+02 -.289E+02   -.327E+02 0.124E+02 0.297E+02   -.366E+00 -.279E+00 -.415E+00   -.111E-04 0.228E-05 -.138E-04
   0.228E+02 -.721E+01 -.184E+02   -.243E+02 0.739E+01 0.182E+02   0.126E+00 0.336E+00 0.976E+00   -.451E-04 0.152E-04 0.161E-05
   -.347E+01 0.130E+01 -.104E+02   0.349E+01 -.130E+01 0.112E+02   0.841E-01 -.266E-01 -.618E+00   -.353E-04 0.113E-04 0.249E-04
   -.619E+01 0.190E+01 -.188E+02   0.608E+01 -.202E+01 0.189E+02   -.547E-01 0.517E-02 0.576E-01   0.761E-05 -.307E-05 0.302E-05
   0.140E+02 -.498E+01 0.206E+02   -.138E+02 0.507E+01 -.221E+02   -.256E+00 -.115E+00 0.311E+00   0.276E-04 -.108E-04 -.157E-05
   0.771E+01 -.254E+01 0.915E+01   -.779E+01 0.263E+01 -.910E+01   0.481E-01 -.730E-01 -.126E+00   0.179E-04 -.685E-05 -.146E-04
   -.113E+02 0.382E+01 0.769E+01   0.119E+02 -.397E+01 -.744E+01   -.126E+00 -.110E-01 -.543E+00   -.626E-05 0.177E-05 -.170E-04
   -.648E+02 0.234E+02 -.158E+02   0.767E+02 -.252E+02 0.236E+02   0.110E+02 -.245E+01 0.970E+01   0.287E-04 -.193E-04 0.576E-04
   -.393E+01 0.144E+01 0.468E+01   0.395E+01 -.130E+01 -.461E+01   -.997E-01 -.113E+00 -.111E-01   0.150E-04 -.546E-05 0.169E-04
   0.202E+02 -.659E+01 0.158E+02   -.209E+02 0.673E+01 -.159E+02   0.135E+00 -.452E-01 -.763E+00   -.723E-05 0.121E-05 -.300E-04
   0.147E+01 -.202E+01 -.267E+02   -.250E+01 0.252E+01 0.284E+02   0.213E+00 -.375E-01 0.125E+00   -.635E-04 0.204E-04 0.285E-04
   -.514E+01 0.188E+01 -.126E+02   0.547E+01 -.183E+01 0.125E+02   -.258E+00 -.513E-01 0.172E+00   0.129E-05 -.713E-06 0.191E-04
   0.328E+02 -.118E+02 -.289E+02   -.327E+02 0.124E+02 0.297E+02   -.366E+00 -.279E+00 -.415E+00   -.113E-04 0.237E-05 -.134E-04
   0.154E+02 -.497E+01 0.788E+01   -.155E+02 0.494E+01 -.784E+01   -.266E+00 0.460E-01 0.193E+00   0.304E-04 -.935E-05 -.160E-05
   -.457E+01 0.149E+01 0.130E+01   0.398E+01 -.131E+01 -.118E+01   0.365E+00 -.124E+00 -.188E+00   -.155E-04 0.481E-05 -.155E-04
   -.346E+02 0.958E+01 0.264E+01   0.346E+02 -.932E+01 -.242E+01   0.570E+00 -.234E+00 -.993E+00   -.117E-04 0.399E-05 -.155E-04
   -.128E+02 0.425E+01 0.145E+02   0.137E+02 -.474E+01 -.142E+02   -.787E+00 0.230E+00 -.156E+00   0.255E-04 -.999E-05 0.234E-04
   0.102E+02 -.345E+01 0.936E+01   -.983E+01 0.333E+01 -.927E+01   -.205E+00 0.357E-01 -.209E+00   0.145E-04 -.530E-05 -.153E-04
   -.127E+02 0.152E+02 0.160E+02   0.134E+02 -.164E+02 -.167E+02   0.112E+01 -.271E+01 -.250E+01   0.311E-04 -.254E-04 -.222E-04
   0.221E+02 -.215E+02 -.243E+02   -.223E+02 0.226E+02 0.244E+02   0.361E+00 0.271E+01 0.202E+01   0.189E-04 0.130E-04 0.212E-04
   -.951E+01 0.865E+01 0.209E+02   0.878E+01 -.852E+01 -.223E+02   0.661E+00 -.615E+00 0.379E+00   -.356E-04 0.118E-04 0.151E-04
   -.539E+02 0.849E+01 0.510E+02   0.565E+02 -.813E+01 -.542E+02   -.570E+00 0.885E+00 0.878E-01   0.293E-04 0.394E-05 -.371E-04
   0.221E+02 -.215E+02 -.243E+02   -.223E+02 0.226E+02 0.244E+02   0.361E+00 0.271E+01 0.202E+01   0.190E-04 0.141E-04 0.210E-04
   -.951E+01 0.865E+01 0.209E+02   0.878E+01 -.852E+01 -.223E+02   0.661E+00 -.615E+00 0.379E+00   -.359E-04 0.111E-04 0.141E-04
   -.539E+02 0.849E+01 0.510E+02   0.565E+02 -.813E+01 -.542E+02   -.570E+00 0.885E+00 0.878E-01   0.287E-04 0.301E-05 -.371E-04
   0.538E+02 -.118E+02 -.512E+02   -.546E+02 0.121E+02 0.520E+02   -.143E+01 -.183E+00 0.193E+01   -.304E-04 0.113E-05 0.286E-04
   0.143E+02 -.103E+02 -.193E+02   -.146E+02 0.106E+02 0.191E+02   0.636E+00 -.725E-01 0.124E+01   0.131E-04 -.276E-07 0.363E-04
   0.876E+01 0.744E+01 0.415E+02   -.198E+02 -.633E+01 -.507E+02   -.116E+02 0.122E+01 -.747E+01   -.106E-03 0.253E-04 -.156E-04
   0.538E+02 -.118E+02 -.512E+02   -.546E+02 0.121E+02 0.520E+02   -.143E+01 -.183E+00 0.193E+01   -.299E-04 0.395E-06 0.285E-04
   0.143E+02 -.103E+02 -.193E+02   -.146E+02 0.106E+02 0.191E+02   0.636E+00 -.725E-01 0.124E+01   0.120E-04 -.301E-05 0.365E-04
   0.876E+01 0.744E+01 0.415E+02   -.198E+02 -.633E+01 -.507E+02   -.116E+02 0.122E+01 -.747E+01   -.107E-03 0.262E-04 -.158E-04
   0.142E+01 0.333E+01 -.669E+01   -.178E-13 0.577E-13 0.853E-13   -.147E+01 -.335E+01 0.641E+01   -.219E-03 0.378E-04 0.153E-03

 POSITION                                       TOTAL-FORCE (eV/Angst)
     -2.44380      5.10372      0.00000        22.871662     -4.303909     17.562512
      0.08645      6.36884      2.82890        -0.087258      0.027463      0.070597
      0.08645      0.04323      5.65780        -0.511315      0.097324     -0.935953
      0.08645      0.04323      0.00000        -0.061715     -0.024341     -1.181808
      2.61670      1.30835      2.82890        -0.036807      0.016107     -0.067111
      5.14694      2.57347      5.65780         0.480470     -0.156756     -0.290443
      5.14694      2.57347      0.00000        -1.305831      0.517307      0.784218
     -4.97404      3.83859      2.82890         0.100807     -0.025503      0.140427
     -2.44380      5.10372      5.65780        -0.169518     -0.116930      0.082362
     -8.13685      7.00140      1.41445        -0.322565      0.013077      0.241907
      4.51438      0.67579      4.24335        -0.221975      0.054053     -0.069952
      7.04462      1.94091      7.07225         0.568252      0.022847     -0.768135
     -0.54611      4.47115      1.41445         0.184569     -0.258177      0.116776
      1.98413      5.73628      4.24335         0.129334     -0.082905     -0.111572
     -8.13685      7.00140      7.07225         1.834415     -3.952750     -3.268793
      7.04462      1.94091      1.41445        -0.812680      0.465059      1.905969
     -3.07636      3.20603      4.24335         0.081634     -0.009551      0.003234
     -0.54611      4.47116      7.07225        -0.302570      0.375154      0.429684
     -6.23916      6.36884      0.00000        -1.305831      0.517307      0.784218
      6.41206      0.04323      2.82890         0.100807     -0.025503      0.140427
      8.94231      1.30835      5.65780        -0.169518     -0.116930      0.082362
      1.35157      3.83859      0.00000        -0.061715     -0.024341     -1.181808
      3.88182      5.10372      2.82890        -0.036807      0.016107     -0.067111
     -6.23916      6.36884      5.65780         0.480470     -0.156756     -0.290443
      8.94231      1.30835      0.00000        22.871662     -4.303909     17.562512
     -1.17867      2.57347      2.82890        -0.087258      0.027463      0.070597
      1.35157      3.83859      5.65780        -0.511315      0.097324     -0.935953
     -4.34148      5.73628      1.41445        -0.812680      0.465059      1.905969
     -1.81123      7.00140      4.24335         0.081634     -0.009551      0.003234
     10.83999      0.67579      7.07225        -0.302570      0.375154      0.429684
      3.24926      3.20603      1.41445        -0.322565      0.013077      0.241907
      5.77950      4.47115      4.24335        -0.221975      0.054053     -0.069952
     -4.34148      5.73628      7.07225         0.568252      0.022847     -0.768135
     10.83999      0.67579      1.41445         0.184569     -0.258177      0.116776
      0.71901      1.94091      4.24335         0.129334     -0.082905     -0.111572
      3.24926      3.20603      7.07225         1.834415     -3.952750     -3.268793
      1.86832      1.28432      8.06410         0.232912      3.839951      2.192585
     -5.72242      5.92310      9.00707        -0.066667     -0.489235     -0.938652
     -3.19217      2.97115      9.95004         2.057437      1.242122     -3.062171
      3.13344      5.07969      8.06410         0.232912      3.839951      2.192585
      5.66369      2.12774      9.00707        -0.066667     -0.489235     -0.938652
     -1.92705      6.76652      9.95004         2.057437      1.242122     -3.062171
      2.50088      7.39908      8.53559        -2.264217      0.162549      2.825224
      5.03112      4.44713      9.47855         0.305252      0.262559      1.020908
      7.56137      1.49517     10.42152       -22.683626      2.324486    -16.681813
      1.23576      3.60371      8.53559        -2.264217      0.162549      2.825224
      3.76600      0.65176      9.47855         0.305252      0.262559      1.020908
     -3.82473      5.29054     10.42152       -22.683626      2.324486    -16.681813
    total drift:                               -0.049976     -0.017975     -0.279204

  FREE ENERGIE OF THE ION-ELECTRON SYSTEM (eV)
  free  energy   TOTEN  =      -179.88163656 eV

  energy  without entropy=     -179.88135269  energy(sigma->0) =     -179.88149462