 vasp.6.4.3 19Mar24 (build Oct 22 2024 11:23:12) complex

 executed on             LinuxIFC date 2025.06.09  18:34:00

 INCAR:
   SYSTEM = Si and Ge interface calculation
   ISTART = 0
   ICHARG = 2
   LWAVE = .FALSE.
   LREAL = AUTO
   ENCUT = 700
   ENAUG = 900
   ADDGRID = .TRUE.
   LMAXMIX = 6
   LASPH = .TRUE.
   LMIXTAU = .TRUE.
   NCORE = 16
   NELM = 100
   NBANDS = 634
   EDIFF = 1d-7
   AMIX = 0.6
   ISMEAR = 0
   SIGMA = 0.01
   NELECT = 1056
   ISPIN = 2
   NUPDOWN = 1
   LVTOT = .FALSE.
   LVHAR = .TRUE.

 POTCAR:    PAW_PBE Si 05Jan2001
 POTCAR:    PAW_PBE Sn 08Apr2002
|           W    W    AA    RRRRR   N    N  II  N    N   GGGG   !!!           |
|           W    W   A  A   R    R  NN   N  II  NN   N  G    G  !!!           |
|           W    W  A    A  R    R  N N  N  II  N N  N  G       !!!           |
|           W WW W  AAAAAA  RRRRR   N  N N  II  N  N N  G  GGG   !            |
|           WW  WW  A    A  R   R   N   NN  II  N   NN  G    G                |
|           W    W  A    A  R    R  N    N  II  N    N   GGGG   !!!           |
|     You use a magnetic or noncollinear calculation, but did not specify     |
|     the initial magnetic moment with the MAGMOM tag. Note that a            |
|     default of 3.788e-3 will be used for all atoms. This ferromagnetic      |
|     setup may break the symmetry of the crystal, in particular it may       |
|     rule out finding an antiferromagnetic solution. Thence, we              |
|     recommend setting the initial magnetic moment manually or verifying     |
|     carefully that this magnetic setup is desired.                          |

 POTCAR:    PAW_PBE Si 05Jan2001
   VRHFIN =Si: s2p2

   TITEL  = PAW_PBE Si 05Jan2001
   POMASS =   28.085; ZVAL   =    4.000    mass and valenz
   ENMAX  =  245.345; ENMIN  =  184.009 eV

 POTCAR:    PAW_PBE Sn 08Apr2002
   VRHFIN =Sn: s2p2

   TITEL  = PAW_PBE Sn 08Apr2002
   POMASS =  118.710; ZVAL   =    4.000    mass and valenz
   ENMAX  =  103.236; ENMIN  =   77.427 eV

 Optimization of the real space projectors (new method)

 maximal supplied QI-value         = 19.84
 optimisation between [QCUT,QGAM] = [ 13.49, 26.99] = [ 50.98,203.92] Ry
 Optimized for a Real-space Cutoff    1.07 Angstroem

   l    n(q)    QCUT    max X(q) W(low)/X(q) W(high)/X(q)  e(spline)
   0      9    13.493   159.560    0.22E-03    0.15E-03    0.72E-07
   0      9    13.493   115.863    0.21E-03    0.15E-03    0.71E-07
   1      8    13.493    88.339    0.15E-03    0.11E-03    0.13E-06
   1      8    13.493    48.592    0.15E-03    0.10E-03    0.13E-06
 Optimization of the real space projectors (new method)

 maximal supplied QI-value         = 12.47
 optimisation between [QCUT,QGAM] = [ 12.47, 27.06] = [ 43.56,205.12] Ry
 Optimized for a Real-space Cutoff    1.58 Angstroem

   l    n(q)    QCUT    max X(q) W(low)/X(q) W(high)/X(q)  e(spline)
   0     13    12.472    14.688    0.45E-04    0.45E-04    0.25E-05
   0     13    12.472     7.308    0.94E-04    0.11E-03    0.61E-05
   1     12    12.472    45.102    0.34E-03    0.14E-03    0.21E-05
   1     12    12.472    30.691    0.31E-03    0.13E-03    0.20E-05
   2     12    12.472     7.156    0.86E-04    0.11E-03    0.17E-05
 WARNING: PSMAXN for non-local potential too small
          PSMAXN should be >   13.5545592237991       NTYP=           2
  PAW_PBE Si 05Jan2001                  :
  PAW_PBE Sn 08Apr2002                  :

 POSCAR: Si+Sn
  positions in direct lattice

 exchange-correlation table for PE
   RHO(1)=    0.500       N(1)  =     2000
   RHO(2)=  100.500       N(2)  =     4000

 ion  position               nearest neighbor table
   1  0.996  0.997  0.000- 174 1.62 195 2.26 145 2.35  37 2.35 246 2.36
   2  0.881  0.920  0.182- 186 2.35 146 2.35  50 2.35 145 2.35
   3  0.765  0.843  0.364- 229 1.85  77 2.35  89 2.35   6 2.35 146 2.35 202 3.33
   4  0.073  0.382  0.000-  43 2.35 154 2.35 171 2.42 118 2.58 243 3.23 242 3.32 225 3.32
   5  0.957  0.305  0.182-  73 2.35  60 2.35 155 2.35 154 2.35
   6  0.669  0.863  0.456-   3 2.35 105 2.35 202 2.44 181 2.69 229 3.17 247 3.26 230 3.30
   7  0.227  0.151  0.000- 255 1.38 228 2.08 201 2.35  46 2.35
   8  0.111  0.074  0.182-  37 2.35  47 2.35 119 2.35 201 2.35
   9  0.996  0.997  0.364- 163 1.36  50 2.35  48 2.35  18 2.35 119 2.35
  10  0.477  0.901  0.091-  67 1.89  20 2.35  22 2.35 107 2.35 231 3.28
  11  0.246  0.747  0.456- 238 1.62 166 2.26 108 2.35  42 2.35 211 2.36
  12  0.919  0.613  0.364-  81 2.28  41 2.35 122 2.35 123 2.35  54 2.35  84 3.14
  13  0.304  0.536  0.000- 207 2.31  79 2.35 103 2.35 121 2.60 177 3.07 225 3.29
  14  0.188  0.459  0.182-  43 2.35  91 2.35  97 2.35 103 2.35 121 3.05
  15  0.073  0.382  0.364- 160 2.25  60 2.35  57 2.35 126 2.35  91 2.35
  16  0.284  0.940  0.091-  51 2.35 106 2.35  22 2.35 125 2.35  23 2.35  67 2.87 255 3.22 183 3.32

  17  0.342  0.228  0.182-  46 2.35 128 2.35  59 2.35 127 2.35 131 3.07
  18  0.900  0.016  0.456- 163 1.89 262 2.10   9 2.35 157 2.35 235 3.26
  19  0.611  0.074  0.000-  70 0.67 130 2.35  61 2.35 165 2.39 237 3.33
  20  0.496  0.997  0.182-  10 2.35 210 2.35  62 2.35 130 2.35
  21  0.162  0.167  0.456- 129 0.62 120 1.89 244 2.82 190 2.82 138 2.87
  22  0.381  0.920  0.000-  67 0.62  16 2.35  10 2.35 183 2.47 231 3.25
  23  0.265  0.843  0.182-  52 2.35 134 2.35  65 2.35  16 2.35 249 3.30
  24  0.784  0.440  0.456-  84 1.46  39 2.35 232 2.35 259 3.01 178 3.18 205 3.34
  25  0.323  0.632  0.273- 108 2.35  95 2.35 153 2.35 150 2.35 166 2.80
  26  0.592  0.478  0.456- 223 1.95 250 2.04 111 2.35  39 2.35 178 3.14
  27  0.438  0.709  0.456- 166 2.30 108 2.35 169 2.35 220 2.68  29 2.99 247 3.29
  28  0.554  0.286  0.091- 196 2.35 100 2.35 101 2.35 133 2.35 261 2.94
  29  0.412  0.583  0.564-  69 2.10 166 2.82 176 2.82 223 2.82 224 2.82  27 2.99
  30  0.457  0.305  0.364- 141 2.35  59 2.35 140 2.35  93 2.35  36 2.92  33 3.12 199 3.29
  31  0.669  0.363  0.273-  39 2.35 114 2.35 113 2.35 196 2.35 178 2.78
  32  0.727  0.151  0.182-  61 2.35 162 2.35 143 2.35 142 2.35 192 3.35
  33  0.495  0.167  0.456- 144 1.49 102 2.28  93 2.60 199 2.82 253 2.82  59 3.05  30 3.12 226 3.21

[...]

 161  0.828  0.333  0.673- 208 2.82 191 2.82 259 2.82 260 2.82
 162  0.823  0.132  0.273- 147 2.35  80 2.35  32 2.35 157 2.35 235 2.80
 163  0.995  0.000  0.456-   9 1.36  18 1.89  48 1.95 184 2.82 262 2.82 119 3.30  50 3.35
 164  0.828  0.000  0.673- 202 2.82 185 2.82 262 2.82 263 2.82
 165  0.662  0.000  0.891-  19 2.39 203 2.82 263 2.82  76 2.82  70 2.82 124 3.29  61 3.29
 166  0.328  0.667  0.456- 108 1.83  11 2.26  27 2.30  25 2.80  29 2.82 238 2.82 150 2.94  87 3.22
                            69 3.26
 167  0.162  0.667  0.673- 187 2.82 197 2.82 239 2.82 238 2.82
 168  0.995  0.667  0.891-  49 2.44 188 2.82 198 2.82 239 2.82 240 2.82 115 3.24 149 3.33  40 3.33

[...]

 173  0.162  0.000  0.673- 184 2.82 194 2.82 245 2.82 244 2.82
 174  0.995  0.000  0.891-   1 1.62 185 2.82 195 2.82 245 2.82 246 2.82
 175  0.662  0.667  0.456-  78 0.62 117 1.89 205 2.82 247 2.82 169 2.87 123 3.23
 176  0.495  0.667  0.673- 248 2.82  29 2.82 206 2.82 247 2.82
 177  0.328  0.667  0.891-  94 2.04 197 2.82 207 2.82 248 2.82 249 2.82  13 3.07
 178  0.662  0.333  0.456- 114 1.90  93 2.31 156 2.36  31 2.78 250 2.82 208 2.82  39 2.85  26 3.14
                            24 3.18
 179  0.495  0.333  0.673- 251 2.82 199 2.82 209 2.82 250 2.82
 180  0.328  0.333  0.891-  85 2.05 200 2.82 251 2.82 131 2.82 121 2.82 133 3.05 127 3.05
 181  0.662  0.000  0.456-  75 1.40 226 2.22   6 2.69 202 2.82 253 2.82  62 3.07 157 3.17 105 3.20
                           144 3.40
 182  0.495  0.000  0.673- 254 2.82 193 2.82 203 2.82 253 2.82
 183  0.328  0.000  0.891-  22 2.47 194 2.82  67 2.82 254 2.82 255 2.82  88 3.26 125 3.29  16 3.32

[...]

 206  0.578  0.583  0.782- 159 2.82 176 2.82 233 2.82 234 2.82
 207  0.412  0.583  0.000-  79 1.90  13 2.31  56 2.36 153 2.78 177 2.82 234 2.82 136 2.85  94 3.14
                           137 3.18
 208  0.745  0.250  0.564- 156 1.62 161 2.82 236 2.82 235 2.82 178 2.82
 209  0.578  0.250  0.782-  74 2.82 236 2.82 237 2.82 179 2.82
 210  0.400  0.016  0.273- 102 2.35  20 2.35  51 2.35 106 2.35 217 2.35 172 3.07
 211  0.162  0.833  0.456-  42 1.90 135 2.31  11 2.36 134 2.78 238 2.82 184 2.82  90 2.85  48 3.14
                            92 3.18
 212  0.995  0.833  0.673- 256 2.82 239 2.82 185 2.82 184 2.82
 213  0.828  0.833  0.891-  34 2.05 257 2.82 240 2.82 185 2.82  76 2.82 115 3.05 186 3.05
 214  0.150  0.266  0.182- 201 2.35  43 2.35 128 2.35  60 2.35 118 3.07
 215  0.995  0.500  0.673- 259 2.82 242 2.82 188 2.82 187 2.82
 216  0.828  0.500  0.891- 112 2.47 260 2.82 243 2.82 188 2.82 189 2.82  49 3.26  58 3.29 264 3.32

[...]

 242  0.078  0.417  0.782- 225 2.82 215 2.82 170 2.82 171 2.82   4 3.32
 243  0.912  0.417  0.000- 112 0.62 154 1.89 216 2.82 171 2.82 264 2.87   4 3.23
 244  0.245  0.083  0.564-  44 2.42  21 2.82 227 2.82 173 2.82 172 2.82 129 3.25 120 3.28  92 3.34

[...]

 257  0.745  0.750  0.782- 230 2.82 213 2.82 159 2.82 158 2.82
 258  0.578  0.750  0.000- 137 1.46 204 2.31 231 2.82 159 2.82  35 3.07 148 3.14 136 3.17
 259  0.912  0.417  0.564- 126 2.08  84 2.82 215 2.82 161 2.82 160 2.82  24 3.01 232 3.04
 260  0.745  0.417  0.782- 233 2.82 216 2.82  74 2.82 161 2.82
 261  0.578  0.417  0.000- 139 1.83  56 2.26  58 2.30 196 2.80 234 2.82  74 2.82  28 2.94 133 3.22
                           100 3.26
 262  0.912  0.083  0.564-  18 2.10 235 2.82 218 2.82 164 2.82 163 2.82 116 2.99
 263  0.745  0.083  0.782- 236 2.82 165 2.82 164 2.82 219 2.82
 264  0.784  0.440  0.091-  38 2.35 112 2.35 113 2.35  58 2.35 243 2.87 189 3.22 216 3.32

  LATTYP: Found a simple tetragonal cell.
 ALAT       =    19.5817508700
 C/A-ratio  =     0.7609253398

  Lattice vectors:

 A1 = (  19.5817508700,   0.0000000000,   0.0000000000)
 A2 = (   0.0000000000,  19.5817489620,   0.0000000000)
 A3 = (   0.0000000000,   0.0000000000,  14.9002504350)

Analysis of symmetry for initial positions (statically):
 Subroutine PRICEL returns:
 Original cell was already a primitive cell.

 Routine SETGRP: Setting up the symmetry group for a
 simple tetragonal supercell.

 Subroutine GETGRP returns: Found  1 space group operations
 (whereof  1 operations were pure point group operations)
 out of a pool of 16 trial point group operations.

The static configuration has the point symmetry C_1 .

Analysis of symmetry for dynamics (positions and initial velocities):
 Subroutine PRICEL returns:
 Original cell was already a primitive cell.

[...]

The dynamic configuration has the point symmetry C_1 .

Analysis of structural, dynamic, and magnetic symmetry:
 Subroutine PRICEL returns:
 Original cell was already a primitive cell.

 Routine SETGRP: Setting up the symmetry group for a
 simple tetragonal supercell.

 Subroutine GETGRP returns: Found  1 space group operations
 (whereof  1 operations were pure point group operations)
 out of a pool of 16 trial point group operations.

The overall configuration has the point symmetry C_1 .

 Subroutine INISYM returns: Found  1 space group operations
 (whereof  1 operations are pure point group operations),
[...]
     0.000000000  0.000000000 14.900250435     0.000000000  0.000000000  0.067112966

  length of vectors
    19.581750870 19.581748962 14.900250435     0.051067956  0.051067961  0.067112966

 FORCES acting on ions
    electron-ion (+dipol)            ewald-force                    non-local-force                 convergence-correction
   0.798E+01 0.109E+01 0.577E+02   -.782E+01 -.155E+01 -.403E+02   -.251E+00 -.351E-01 0.312E+02   -.567E+00 -.146E+00 -.103E+00
   0.382E+01 0.841E+00 0.151E+02   -.349E+01 -.919E+00 -.132E+02   0.221E+00 0.177E+01 0.106E+01   0.277E-01 0.458E+00 -.103E+01
   0.395E+02 -.264E+01 -.359E+01   -.370E+02 0.143E+01 0.527E+01   -.161E+02 0.248E+01 -.178E+02   -.219E+01 0.115E+01 -.142E+01
   -.112E+02 -.204E+02 0.919E+02   0.120E+02 0.206E+02 -.912E+02   0.239E+01 -.368E+00 0.947E+00   -.145E+01 0.832E+00 0.395E-01
   0.543E+01 0.189E+01 0.101E+02   -.428E+01 -.153E+01 -.103E+02   -.248E+00 -.919E+00 0.145E+01   -.805E+00 0.473E+00 -.749E+00
   0.147E+02 0.152E+02 -.905E+02   -.127E+02 -.172E+02 0.901E+02   -.251E+01 -.687E+00 -.105E+01   -.121E+01 0.110E+01 -.719E-02
   -.902E+01 -.460E+02 0.943E+02   -.776E+01 0.105E+03 -.929E+02   0.405E+00 0.300E+02 0.502E+01   -.103E+01 0.321E-01 -.130E+01
   0.184E+02 -.183E+01 0.129E+02   -.163E+02 0.184E+01 -.119E+02   -.988E+00 -.199E+01 0.899E+00   -.176E+01 -.240E+00 0.319E-01
   0.463E+01 0.213E+01 -.525E+01   -.360E+01 -.552E+01 -.629E+02   0.284E+00 -.976E+00 -.297E+02   0.126E-01 0.572E+00 -.183E+00
   -.734E+02 0.175E+02 0.362E+02   0.741E+02 -.168E+02 -.362E+02   0.709E+01 -.156E+01 0.916E+01   -.215E+01 -.792E+00 -.260E+01
   0.142E+01 0.176E+01 -.572E+02   -.161E+01 -.250E+01 0.402E+02   -.478E+00 -.186E+00 -.316E+02   -.216E-02 0.312E+00 0.218E-02
   0.149E+02 0.109E+02 -.299E+02   -.168E+02 -.881E+01 0.301E+02   0.270E+00 -.196E+01 -.198E+00   0.289E+00 -.799E+00 -.712E+00
   0.106E+02 -.980E+00 0.103E+03   -.111E+02 -.113E+00 -.103E+03   -.294E+01 -.241E+01 0.550E+00   -.665E+00 0.784E+00 -.122E+00
   0.436E+01 -.443E+01 0.680E+01   -.327E+01 0.339E+01 -.599E+01   -.324E-02 0.220E+00 0.276E+00   -.936E+00 0.956E+00 -.814E+00
   -.117E+02 -.116E+02 -.311E+02   0.156E+02 0.109E+02 0.301E+02   0.150E+01 0.277E+01 -.202E+01   -.117E+01 0.215E+00 -.501E+00
   0.929E+01 0.470E+02 0.689E+02   -.110E+02 -.399E+02 -.620E+02   0.695E+00 -.156E+00 -.479E+00   0.141E+01 -.375E+01 -.313E+01
   0.265E+00 -.124E+02 0.607E+01   -.247E+00 0.112E+02 -.651E+01   -.479E+00 0.136E+00 0.823E+00   0.244E+00 0.115E+01 -.200E+00
   0.462E+02 0.186E+02 -.813E+02   -.506E+02 -.192E+02 0.824E+02   -.123E+02 -.414E+01 -.560E+01   -.642E-01 0.150E+01 0.631E-01
   -.674E+02 0.199E+02 0.971E+02   0.483E+03 -.138E+03 -.966E+02   0.424E+02 -.737E+01 0.313E+01   0.110E+01 -.740E+00 -.338E+00
   -.223E+02 0.136E+02 0.196E+02   0.211E+02 -.120E+02 -.185E+02   0.260E+01 -.527E+00 -.235E+01   0.101E+01 -.175E+01 -.357E+00
   -.275E+02 -.346E+01 -.123E+03   0.565E+03 -.609E+02 0.117E+03   0.209E+02 0.272E+01 0.149E+02   -.965E+00 -.682E+00 0.367E+00
   0.300E+02 0.202E+02 0.110E+03   -.572E+03 0.474E+02 -.107E+03   -.279E+02 -.167E+01 0.137E+01   0.205E+01 -.187E+01 -.138E+01
   -.216E+01 0.121E+02 0.983E+01   0.213E+01 -.104E+02 -.101E+02   0.930E-01 -.762E+00 0.133E+01   0.334E+00 -.120E+01 -.912E+00
   0.553E+02 0.728E+02 -.104E+03   -.578E+02 -.731E+02 0.104E+03   -.289E+02 -.382E+02 0.164E+01   0.215E+00 -.524E+00 -.118E+00
   -.423E+00 0.344E+01 -.271E+00   0.754E+00 -.400E+01 0.564E+00   -.129E+00 -.226E+00 -.984E+00   -.129E+00 0.641E+00 -.495E+00
   -.417E+02 -.207E+02 -.778E+02   0.450E+02 0.202E+02 0.786E+02   0.121E+02 0.481E+01 -.901E+01   0.575E+00 -.525E+00 -.466E-01
   -.161E+02 -.309E+01 -.101E+03   0.175E+02 0.317E+01 0.102E+03   0.545E+00 0.101E+01 0.992E+00   -.375E+00 0.679E+00 -.109E+00
   -.712E+01 0.523E+01 0.407E+02   0.522E+01 -.580E+01 -.410E+02   0.906E+00 -.244E+01 -.732E+00   0.871E+00 0.442E+00 0.387E-01
   -.605E+01 -.192E+02 -.125E+03   0.433E+01 0.170E+02 0.123E+03   0.180E+01 0.388E+01 0.437E+01   -.142E+00 0.541E+00 0.263E+00
   -.133E+02 -.893E+01 -.373E+02   0.119E+02 0.928E+01 0.379E+02   0.402E+00 -.204E+00 -.106E+01   0.145E+01 -.601E-01 -.172E+00
   -.250E+01 -.442E+01 -.285E+00   0.200E+01 0.427E+01 0.309E+00   0.192E+01 -.120E+00 0.396E+00   0.825E+00 -.107E+00 -.215E-01
   0.308E+00 0.647E+01 0.945E+01   -.174E+01 -.650E+01 -.106E+02   -.207E+01 0.532E+00 -.628E+00   0.849E+00 0.873E-01 0.432E+00
   0.704E+01 -.771E+02 -.101E+03   -.689E+01 0.791E+02 0.101E+03   -.125E+02 0.444E+02 0.374E+00   0.117E+01 -.896E+00 0.305E+00
   0.188E+02 0.785E+02 0.816E+02   -.171E+02 -.788E+02 -.810E+02   0.206E+01 -.414E+02 0.618E+01   0.516E-01 -.931E-01 -.156E+00
   0.307E+00 -.966E+01 0.179E+02   0.450E+00 0.930E+01 -.162E+02   0.660E+00 0.245E+01 0.158E+01   -.273E+00 0.366E+00 -.845E+00
   0.336E+02 -.161E+02 -.123E+03   -.455E+03 0.133E+03 0.116E+03   -.325E+02 0.871E+01 0.161E+02   0.633E-01 0.279E+00 0.382E+00
   0.221E+01 -.270E+02 0.166E+02   0.169E+00 0.317E+02 -.113E+02   0.243E+01 0.117E+02 0.138E+02   -.110E+01 -.589E+00 -.324E+00
   -.232E+01 0.114E+01 0.810E+01   0.126E+01 0.162E+00 -.692E+01   0.825E+00 0.134E+01 0.197E+01   0.606E+00 -.558E+00 -.889E+00
   0.217E+01 -.863E+01 -.389E+02   -.174E+01 0.909E+01 0.391E+02   -.119E+01 0.511E+00 -.760E+00   0.604E+00 -.525E+00 -.251E+00
   0.351E+02 -.142E+01 0.864E+01   -.361E+02 0.214E+01 -.767E+01   -.160E+02 0.243E+01 0.179E+02   0.696E+00 -.490E+00 -.109E+01
   -.326E+01 -.233E+01 -.570E+01   0.338E+01 0.282E+01 0.580E+01   0.582E+00 0.231E+01 -.129E+01   0.750E-01 -.430E+00 -.884E+00
   0.880E+01 0.335E+02 -.165E+02   -.946E+01 -.363E+02 0.138E+02   -.166E+01 -.105E+02 -.115E+02   0.446E-03 0.372E-01 -.290E+00
   0.160E+02 0.714E+01 0.318E+02   -.162E+02 -.617E+01 -.310E+02   0.655E+00 -.621E-02 -.120E+01   -.117E+01 0.677E+00 -.434E+00
   -.164E+02 -.204E+02 -.101E+03   0.157E+02 0.223E+02 0.992E+02   0.195E+01 0.772E+00 -.102E+01   0.364E+00 -.828E+00 0.106E+01
   0.830E+01 0.127E+01 0.987E+01   -.864E+01 -.728E+00 -.747E+01   -.946E+00 -.249E+01 0.146E+01   0.242E+00 -.364E+00 -.140E+01
   -.244E+02 -.447E+02 0.616E+02   0.264E+02 0.396E+02 -.539E+02   0.175E+01 0.266E+01 0.148E+01   -.151E-01 0.124E+01 -.238E+01
   0.401E+02 -.288E+01 -.366E+02   -.336E+02 0.296E+01 0.330E+02   -.388E+00 -.858E-01 -.487E+00   -.272E+01 -.796E+00 0.128E+01
   -.358E+02 -.177E+02 -.813E+02   0.401E+02 0.170E+02 0.817E+02   0.118E+02 0.444E+01 -.875E+01   -.158E+00 -.195E+00 0.141E+00
   0.150E+02 0.152E+02 0.910E+02   -.149E+02 -.153E+02 -.910E+02   -.223E+01 -.753E+00 0.126E+01   0.372E+00 -.594E+00 0.218E-01
   0.506E+01 0.451E+01 -.743E+01   -.576E+01 -.551E+01 0.903E+01   -.148E+00 0.647E+00 -.884E+00   0.571E+00 0.432E+00 -.965E+00
   0.280E+00 0.647E+01 0.958E+01   0.629E+01 -.375E+01 -.788E+01   -.636E+01 -.339E+00 -.275E+01   -.123E+01 -.178E+01 -.637E+00
   -.235E+01 0.555E+01 0.712E+01   0.332E+01 -.826E+01 0.622E+02   0.232E+00 -.124E+01 0.293E+02   0.136E+00 0.124E+00 -.505E+00
   -.717E+00 0.349E+00 -.113E+02   0.114E+01 -.755E+00 0.117E+02   -.472E-01 0.195E+00 0.720E-01   -.200E+00 0.106E+00 -.784E+00
   0.643E+01 0.813E+02 -.812E+02   -.394E+01 -.806E+02 0.809E+02   0.360E+01 -.425E+02 -.760E+01   -.127E+00 -.263E+00 -.113E+00
   0.594E+02 0.712E+02 0.106E+03   -.611E+02 -.727E+02 -.106E+03   -.287E+02 -.379E+02 -.134E+01   -.915E+00 0.233E+00 -.617E-01
   0.237E+00 -.391E+01 0.563E+02   -.712E+00 0.288E+01 -.391E+02   -.528E+00 -.863E-01 0.314E+02   0.345E+00 0.569E+00 -.110E+00
   0.150E+02 0.128E+02 -.918E+02   -.133E+02 -.143E+02 0.917E+02   -.170E+01 0.649E+00 -.112E+01   -.118E+01 0.338E+00 0.640E-01
   -.149E+02 -.469E+01 0.101E+03   0.147E+02 0.545E+01 -.102E+03   0.789E+00 0.923E+00 -.861E+00   0.107E+01 0.128E+00 0.111E-01
   -.615E+01 -.799E+01 -.859E+01   0.454E+01 0.747E+01 0.785E+01   0.321E+00 0.523E+00 -.273E-01   0.140E+01 0.180E+00 0.471E+00
   0.549E+00 -.610E+00 -.632E+01   -.180E+00 0.783E+00 0.681E+01   -.141E+01 -.805E-01 0.109E+01   -.121E+01 0.110E+00 -.472E+00
[...]
   -.893E+00 -.179E+01 0.390E+02   0.869E+00 0.171E+01 -.392E+02   -.166E+00 -.157E+00 -.503E-01   0.212E+00 0.399E+00 0.195E+00
   0.467E+00 0.895E+01 0.419E+02   -.850E+00 -.866E+01 -.409E+02   0.101E+01 -.679E+00 0.665E+00   -.625E-01 -.470E+00 -.405E+00
   -.169E+02 0.308E+01 -.131E+03   0.173E+02 -.384E+01 0.131E+03   0.405E+01 0.109E+00 0.106E+02   0.505E+00 -.336E+00 -.247E+00
   -.455E+01 0.559E+01 0.424E+02   0.502E+01 -.404E+01 -.424E+02   -.319E+00 -.559E+00 -.467E+00   0.864E-01 -.113E+01 -.144E-02
   0.396E+01 0.461E+02 0.120E+03   0.827E+01 -.933E+02 -.119E+03   0.108E+02 -.468E+02 -.138E+01   -.749E+00 -.426E+00 -.200E+01
   -.651E+01 0.156E+02 -.119E+03   0.339E+01 -.119E+02 0.114E+03   0.266E+01 -.413E+01 0.386E+01   0.133E+01 -.124E+01 0.180E+01
   0.470E+01 -.279E+01 0.357E+02   -.453E+01 0.291E+01 -.365E+02   -.182E+00 -.215E+00 -.567E+00   0.412E-01 0.664E-01 0.893E+00
   -.237E+02 -.756E+02 0.965E+02   0.413E+02 0.104E+03 -.979E+02   0.240E+02 0.405E+02 -.357E+01   -.166E+00 0.546E+00 -.650E-01
   0.144E+02 -.313E+01 -.129E+03   -.147E+02 0.451E+01 0.128E+03   -.509E+01 0.153E+01 0.963E+01   -.332E+00 -.134E+00 0.152E+00
   0.185E+00 0.772E+00 0.404E+02   0.479E-01 -.654E-01 -.404E+02   -.111E+01 -.111E+01 0.974E-01   0.413E+00 0.391E-01 0.300E+00
   0.506E+01 0.378E+02 0.119E+03   -.695E+01 -.415E+02 -.123E+03   -.179E+01 -.178E+02 -.159E+02   0.792E+00 0.290E+00 -.134E+00
   -.102E+01 -.155E+02 -.123E+03   0.270E+00 0.152E+02 0.123E+03   0.193E+01 0.577E+01 0.753E+01   -.389E+00 0.312E+00 0.344E-01
   0.190E+01 0.182E+01 0.385E+02   -.305E+01 -.236E+01 -.383E+02   0.599E+00 0.630E+00 0.179E-01   0.482E+00 -.978E-01 -.244E+00
   0.116E+02 0.359E+01 0.370E+02   -.108E+02 -.425E+01 -.374E+02   -.280E+01 0.141E-01 0.217E+01   0.168E+01 -.141E+00 -.787E+00
   0.307E+01 0.370E+02 0.280E+02   0.124E-11 0.408E-12 0.109E-11   0.102E+01 -.361E+02 -.191E+01   -.196E+01 0.162E-01 -.248E+02

 POSITION                                       TOTAL-FORCE (eV/Angst)
     19.50133     19.52813      0.00000        -0.660239     -0.640443     48.466551
     17.24190     18.02184      2.71550         0.569315      2.143217      1.877110
     14.98246     16.51556      5.43100       -15.817707      2.416403    -17.525164
      1.42587      7.47783      0.00000         1.753645      0.625933      1.616357
     18.74818      5.97154      2.71550         0.095312     -0.090482      0.540681
     13.09960     16.89213      6.78875        -1.684282     -1.591329     -1.438731
      4.43844      2.95896      0.00000       -17.406200     89.241204      5.115831
      2.17901      1.45267      2.71550        -0.674413     -2.222041      1.930380
     19.50133     19.52813      5.43100         1.313600     -3.800746    -98.046094
      9.33388     17.64527      1.35775         5.644597     -1.668539      6.644316
      4.81502     14.63270      6.78875        -0.676259     -0.612573    -48.572387
     17.99504     11.99669      5.43100        -1.308274     -0.623740     -0.772728
      5.94473     10.49040      0.00000        -4.150774     -2.721394     -0.304196
      3.68530      8.98411      2.71550         0.141963      0.136158      0.264409
      1.42587      7.47783      5.43100         4.212708      2.247399     -3.525580
      5.56816     18.39842      1.35775         0.390908      3.208740      3.375236
      6.69788      4.46525      2.71550        -0.225229      0.037802      0.181627
     17.61847      0.32296      6.78875       -16.760103     -3.196408     -4.436230
     11.96989      1.45267      0.00000       458.997256   -125.810597      3.306827
      9.71045     19.52813      2.71550         2.417612     -0.653010     -1.592998
      3.16640      3.26362      6.78875       557.371740    -62.339751      9.073964
      7.45102     18.02185      0.00000      -567.847389     63.998717      2.776836
      5.19159     16.51556      2.71550         0.394716     -0.178680      0.137005
     15.35903      8.60754      6.78875       -31.181594    -39.051958      1.536673
      6.32130     12.37327      4.07325         0.064906     -0.152454     -1.190896
     11.59331      9.36069      6.78875        16.012858      3.793045     -8.296405
      8.58074     13.87955      6.78875         1.606760      1.773593      2.163346
     10.84017      5.59497      1.35775        -0.133661     -2.570063     -1.037560
      8.06184     11.42269      8.41105        -0.069074      2.222094      2.903698
      8.95731      5.97154      5.43100         0.383318      0.076483     -0.593797
     13.09960      7.10125      4.07325         2.235553     -0.371483      0.394117
     14.22932      2.95896      2.71550        -2.661696      0.587463     -1.377555
      9.69365      3.26362      6.78875       -11.198320     45.397266      0.903670
     14.98247     16.51556      0.00000         3.810267    -41.749012      6.541756
     12.72303     15.00927      2.71550         1.135770      2.451410      2.422662
      6.43003      6.52725      6.78875      -453.969235    126.071237     10.064746
      1.80244     19.15156      1.35775         3.696541     15.805160     18.799771
     15.73561     10.49040      2.71550         0.359240      2.078438      2.255901
     13.47617      8.98411      5.43100        -0.169530      0.434235     -0.780640
      0.29615     11.62012      1.35775       -16.289510      2.658233     17.799327
     17.61847     10.11383      4.07325         0.767780      2.367766     -2.080851
      2.93216     15.00927      5.43100        -2.322073    -13.208011    -14.499135
      3.30873      7.10126      1.35775        -0.800002      1.635067     -0.817367
      6.32130      2.58239      6.78875         1.624910      1.806661     -1.398211
     16.48875     14.25612      2.71550        -1.058225     -2.319562      2.460412
      6.32131      2.58239      1.35775         3.702409     -1.184487      6.800839
      4.06187      1.07610      4.07325         3.340910     -0.805537     -2.774380
      1.80244     19.15156      6.78875        15.976364      3.534012     -8.195736
     17.99504     11.99669      0.00000        -1.740903     -1.520013      1.362102
     19.12476     17.64527      4.07325        -0.284720      0.070081     -0.252817
      5.94473      0.69953      2.71550        -1.025907      0.603843     -1.690714
      4.81502     14.63270      1.35775         1.332589     -3.827777     98.160791
      2.55558     13.12641      4.07325         0.165003     -0.109119     -0.284177
      0.29615     11.62012      6.78875         5.965376    -42.123384     -8.048786
      0.67272      3.71211      0.00000       -31.323287    -39.172604     -1.570962
      9.71045      9.73726      0.00000        -0.667345     -0.550348     48.513518
      3.30873      7.10125      6.78875        -1.228578     -0.499370     -1.130887
     13.47617      8.98412      0.00000         1.605887      1.803754     -2.166213
      8.58074      4.08868      4.07325         0.107074      0.186490     -0.297466
      1.04929      5.59497      4.07325        -2.255328      0.198914      1.107391
[...]
     11.32547      8.15906      8.41105        -1.271140     -6.654997      9.946487
      8.06184      8.15906     11.65565         0.013861      0.158071     -0.094061
      1.04929     15.38584      1.35775         0.558197     -0.863757      1.277856
     11.32547      1.63181      8.41105         4.902035     -0.986971     10.363298
      8.06184      1.63181     11.65565         0.222567     -0.142540     -0.428410
      4.79822      1.63181      0.00000        22.307323    -94.386860     -1.822820
     17.85272     14.68631      8.41105         0.863833     -1.634774      1.003810
     14.58909     14.68631     11.65565         0.021346     -0.026039     -0.470710
     11.32547     14.68631      0.00000        41.438950     69.353607     -5.071897
     17.85272      8.15906      8.41105        -5.724455      2.780251      8.875073
     14.58909      8.15906     11.65565        -0.470874     -0.363674      0.430133
     11.32547      8.15906      0.00000        -2.895059    -21.267735    -20.092886
     17.85272      1.63181      8.41105         0.781672      5.739892      7.788562
     14.58909      1.63181     11.65565        -0.077548     -0.016340     -0.033848
     15.35904      8.60754      1.35775        -0.310356     -0.798728      0.909602
    total drift:                                2.128403      0.947830      1.216758

  FREE ENERGIE OF THE ION-ELECTRON SYSTEM (eV)
  free  energy   TOTEN  =       905.37161791 eV

  energy  without entropy=      905.37634311  energy(sigma->0) =      905.37398051