 vasp.6.4.3 19Mar24 (build Oct 22 2024 11:23:12) complex

 executed on             LinuxIFC date 2025.06.14  13:26:58

 INCAR:
   SYSTEM = Si and Ge interface calculation
   ISTART = 0
   ICHARG = 2
   LWAVE = .FALSE.
   LREAL = AUTO
   ENCUT = 700
   ENAUG = 900
   ADDGRID = .TRUE.
   LMAXMIX = 6
   LASPH = .TRUE.
   LMIXTAU = .TRUE.
   NCORE = 16
   NELM = 100
   NBANDS = 20
   EDIFF = 1d-7
   AMIX = 0.6
   ISMEAR = 0
   SIGMA = 0.01
   NELECT = 32
   ISPIN = 2
   NUPDOWN = 1
   LVTOT = .FALSE.
   LVHAR = .TRUE.

 POTCAR:    PAW_PBE Ge 05Jan2001
 POTCAR:    PAW_PBE Sn 08Apr2002
 POTCAR:    PAW_PBE Ge 05Jan2001
 POTCAR:    PAW_PBE Sn 08Apr2002
 POTCAR:    PAW_PBE Ge 05Jan2001
 POTCAR:    PAW_PBE Sn 08Apr2002
 POTCAR:    PAW_PBE Ge 05Jan2001
 POTCAR:    PAW_PBE Sn 08Apr2002
|           W    W    AA    RRRRR   N    N  II  N    N   GGGG   !!!           |
|           W    W   A  A   R    R  NN   N  II  NN   N  G    G  !!!           |
|           W    W  A    A  R    R  N N  N  II  N N  N  G       !!!           |
|           W WW W  AAAAAA  RRRRR   N  N N  II  N  N N  G  GGG   !            |
|           WW  WW  A    A  R   R   N   NN  II  N   NN  G    G                |
|           W    W  A    A  R    R  N    N  II  N    N   GGGG   !!!           |
|     You use a magnetic or noncollinear calculation, but did not specify     |
|     the initial magnetic moment with the MAGMOM tag. Note that a            |
|     default of 0.125 will be used for all atoms. This ferromagnetic         |
|     setup may break the symmetry of the crystal, in particular it may       |
|     rule out finding an antiferromagnetic solution. Thence, we              |
|     recommend setting the initial magnetic moment manually or verifying     |
|     carefully that this magnetic setup is desired.                          |

 POTCAR:    PAW_PBE Ge 05Jan2001
   VRHFIN =Ge: s2p2

   TITEL  = PAW_PBE Ge 05Jan2001
   POMASS =   72.610; ZVAL   =    4.000    mass and valenz
   ENMAX  =  173.807; ENMIN  =  130.355 eV

 POTCAR:    PAW_PBE Sn 08Apr2002
   VRHFIN =Sn: s2p2

   TITEL  = PAW_PBE Sn 08Apr2002
   POMASS =  118.710; ZVAL   =    4.000    mass and valenz
   ENMAX  =  103.236; ENMIN  =   77.427 eV

[...]

 POTCAR:    PAW_PBE Ge 05Jan2001
   VRHFIN =Ge: s2p2

   TITEL  = PAW_PBE Ge 05Jan2001
   POMASS =   72.610; ZVAL   =    4.000    mass and valenz
   ENMAX  =  173.807; ENMIN  =  130.355 eV

 POTCAR:    PAW_PBE Sn 08Apr2002
   VRHFIN =Sn: s2p2

   TITEL  = PAW_PBE Sn 08Apr2002
   POMASS =  118.710; ZVAL   =    4.000    mass and valenz
   ENMAX  =  103.236; ENMIN  =   77.427 eV

 Optimization of the real space projectors (new method)

 maximal supplied QI-value         = 16.25
 optimisation between [QCUT,QGAM] = [ 13.49, 26.98] = [ 50.95,203.80] Ry
 Optimized for a Real-space Cutoff    1.25 Angstroem

   l    n(q)    QCUT    max X(q) W(low)/X(q) W(high)/X(q)  e(spline)
   0     10    13.489    65.336    0.91E-04    0.11E-03    0.34E-06
   0     10    13.489    52.220    0.89E-04    0.11E-03    0.34E-06
   1     10    13.489    36.409    0.22E-03    0.27E-03    0.14E-06
   1     10    13.489    21.334    0.21E-03    0.27E-03    0.14E-06
   2      9    13.489     4.673    0.11E-03    0.12E-03    0.19E-06
 Optimization of the real space projectors (new method)

[...]

   l    n(q)    QCUT    max X(q) W(low)/X(q) W(high)/X(q)  e(spline)
   0     13    12.472    14.688    0.45E-04    0.45E-04    0.25E-05
   0     13    12.472     7.308    0.94E-04    0.11E-03    0.61E-05
   1     12    12.472    45.102    0.34E-03    0.14E-03    0.21E-05
   1     12    12.472    30.691    0.31E-03    0.13E-03    0.20E-05
   2     12    12.472     7.156    0.86E-04    0.11E-03    0.17E-05
 WARNING: PSMAXN for non-local potential too small
          PSMAXN should be >   13.5545592237991       NTYP=           2
 Optimization of the real space projectors (new method)

[...]

   l    n(q)    QCUT    max X(q) W(low)/X(q) W(high)/X(q)  e(spline)
   0     13    12.472    14.688    0.45E-04    0.45E-04    0.25E-05
   0     13    12.472     7.308    0.94E-04    0.11E-03    0.61E-05
   1     12    12.472    45.102    0.34E-03    0.14E-03    0.21E-05
   1     12    12.472    30.691    0.31E-03    0.13E-03    0.20E-05
   2     12    12.472     7.156    0.86E-04    0.11E-03    0.17E-05
 WARNING: PSMAXN for non-local potential too small
          PSMAXN should be >   13.5545592237991       NTYP=           6
 Optimization of the real space projectors (new method)

[...]

   l    n(q)    QCUT    max X(q) W(low)/X(q) W(high)/X(q)  e(spline)
   0     10    13.489    65.336    0.91E-04    0.11E-03    0.34E-06
   0     10    13.489    52.220    0.89E-04    0.11E-03    0.34E-06
   1     10    13.489    36.409    0.22E-03    0.27E-03    0.14E-06
   1     10    13.489    21.334    0.21E-03    0.27E-03    0.14E-06
   2      9    13.489     4.673    0.11E-03    0.12E-03    0.19E-06
 Optimization of the real space projectors (new method)

 maximal supplied QI-value         = 12.47
 optimisation between [QCUT,QGAM] = [ 12.47, 27.06] = [ 43.56,205.12] Ry
 Optimized for a Real-space Cutoff    1.58 Angstroem

   l    n(q)    QCUT    max X(q) W(low)/X(q) W(high)/X(q)  e(spline)
   0     13    12.472    14.688    0.45E-04    0.45E-04    0.25E-05
   0     13    12.472     7.308    0.94E-04    0.11E-03    0.61E-05
   1     12    12.472    45.102    0.34E-03    0.14E-03    0.21E-05
   1     12    12.472    30.691    0.31E-03    0.13E-03    0.20E-05
   2     12    12.472     7.156    0.86E-04    0.11E-03    0.17E-05
 WARNING: PSMAXN for non-local potential too small
          PSMAXN should be >   13.5545592237991       NTYP=           8
  PAW_PBE Ge 05Jan2001                  :
  PAW_PBE Sn 08Apr2002                  :
  PAW_PBE Ge 05Jan2001                  :
  PAW_PBE Sn 08Apr2002                  :
  PAW_PBE Ge 05Jan2001                  :
  PAW_PBE Sn 08Apr2002                  :
  PAW_PBE Ge 05Jan2001                  :
  PAW_PBE Sn 08Apr2002                  :

 POSCAR: Ge Sn Ge Sn Ge Sn Ge Sn
  positions in direct lattice

 exchange-correlation table for PE
   RHO(1)=    0.500       N(1)  =     2000
   RHO(2)=  100.500       N(2)  =     4000

 ion  position               nearest neighbor table
   1  0.000  0.000  0.000-   2 2.63   4 2.63   6 2.63   8 2.63
   2  0.250  0.250  0.250-   1 2.63   3 2.63   5 2.63   7 2.63
   3  0.000  0.500  0.500-   2 2.63   4 2.63   6 2.63   8 2.63
   4  0.250  0.750  0.750-   1 2.63   3 2.63   5 2.63   7 2.63
   5  0.500  0.000  0.500-   2 2.63   4 2.63   6 2.63   8 2.63
   6  0.750  0.250  0.750-   1 2.63   3 2.63   5 2.63   7 2.63
   7  0.500  0.500  0.000-   2 2.63   4 2.63   6 2.63   8 2.63
   8  0.750  0.750  0.250-   1 2.63   3 2.63   5 2.63   7 2.63

  LATTYP: Found a simple cubic cell.
 ALAT       =     6.0750000000

  Lattice vectors:

 A1 = (   6.0750000000,   0.0000000000,   0.0000000000)
 A2 = (   0.0000000000,   6.0750000000,   0.0000000000)
 A3 = (   0.0000000000,   0.0000000000,   6.0750000000)

Analysis of symmetry for initial positions (statically):
 Subroutine PRICEL returns:
 Original cell was already a primitive cell.

 Routine SETGRP: Setting up the symmetry group for a
 simple cubic supercell.

 Subroutine GETGRP returns: Found  1 space group operations
 (whereof  1 operations were pure point group operations)
 out of a pool of 48 trial point group operations.

The static configuration has the point symmetry C_1 .

Analysis of symmetry for dynamics (positions and initial velocities):
 Subroutine PRICEL returns:
 Original cell was already a primitive cell.

[...]

The dynamic configuration has the point symmetry C_1 .

Analysis of structural, dynamic, and magnetic symmetry:
 Subroutine PRICEL returns:
 Original cell was already a primitive cell.

 Routine SETGRP: Setting up the symmetry group for a
 simple cubic supercell.

 Subroutine GETGRP returns: Found  1 space group operations
 (whereof  1 operations were pure point group operations)
 out of a pool of 48 trial point group operations.

The overall configuration has the point symmetry C_1 .

 Subroutine INISYM returns: Found  1 space group operations
 (whereof  1 operations are pure point group operations),
 and found     1 'primitive' translations

                                     Primitive cell

  volume of cell :     224.2017

  direct lattice vectors                    reciprocal lattice vectors
     6.075000000  0.000000000  0.000000000     0.164609053  0.000000000  0.000000000
     0.000000000  6.075000000  0.000000000     0.000000000  0.164609053  0.000000000
     0.000000000  0.000000000  6.075000000     0.000000000  0.000000000  0.164609053

  length of vectors
     6.075000000  6.075000000  6.075000000     0.164609053  0.164609053  0.164609053

  position of ions in fractional coordinates (direct lattice)
     0.000000000  0.000000000  0.000000000
     0.250000000  0.250000000  0.250000000
     0.000000000  0.500000000  0.500000000
     0.250000000  0.750000000  0.750000000
     0.500000000  0.000000000  0.500000000
     0.750000000  0.250000000  0.750000000
     0.500000000  0.500000000  0.000000000
     0.750000000  0.750000000  0.250000000

  ion indices of the primitive-cell ions
   primitive index   ion index
                 1           1
                 2           2
                 3           3
                 4           4
                 5           5
                 6           6
                 7           7
                 8           8

 KPOINTS: Automatic KPOINTS generated

Automatic generation of k-mesh.
 Grid dimensions read from file:
 generate k-points for:    5    5    5

 Generating k-lattice:

  Cartesian coordinates                     Fractional coordinates (reciprocal lattice)
     0.032921811  0.000000000  0.000000000     0.200000000  0.000000000  0.000000000
     0.000000000  0.032921811  0.000000000     0.000000000  0.200000000  0.000000000
     0.000000000  0.000000000  0.032921811     0.000000000  0.000000000  0.200000000

  Length of vectors
     0.032921811  0.032921811  0.032921811

  Shift w.r.t. Gamma in fractional coordinates (k-lattice)
     0.000000000  0.000000000  0.000000000

 Subroutine IBZKPT returns following result:

 Found     63 irreducible k-points:

 Following reciprocal coordinates:
            Coordinates               Weight
  0.000000  0.000000  0.000000      1.000000
  0.200000  0.000000  0.000000      2.000000
  0.000000  0.200000  0.000000      2.000000
  0.000000  0.000000  0.200000      2.000000
  0.400000  0.000000  0.000000      2.000000
  0.000000  0.400000  0.000000      2.000000
  0.000000  0.000000  0.400000      2.000000
  0.200000  0.200000  0.000000      2.000000
  0.000000  0.200000  0.200000      2.000000
  0.200000  0.000000  0.200000      2.000000
 -0.200000  0.200000  0.000000      2.000000
 -0.200000  0.000000  0.200000      2.000000
  0.000000 -0.200000  0.200000      2.000000
  0.400000  0.200000  0.000000      2.000000
  0.000000  0.400000  0.200000      2.000000
  0.200000  0.000000  0.400000      2.000000
 -0.200000  0.400000  0.000000      2.000000
 -0.400000  0.000000  0.200000      2.000000
  0.000000  0.200000  0.400000      2.000000
[...]
  -0.40000000 -0.40000000  0.20000000       0.016
  -0.20000000 -0.40000000  0.40000000       0.016
  -0.40000000 -0.20000000  0.40000000       0.016
   0.40000000 -0.40000000  0.20000000       0.016
   0.40000000 -0.20000000  0.40000000       0.016
   0.20000000 -0.40000000  0.40000000       0.016
   0.40000000  0.40000000  0.40000000       0.016
  -0.40000000  0.40000000  0.40000000       0.016
  -0.40000000 -0.40000000  0.40000000       0.016
   0.40000000 -0.40000000  0.40000000       0.016

 position of ions in fractional coordinates (direct lattice)
   0.00000000  0.00000000  0.00000000
   0.25000000  0.25000000  0.25000000
   0.00000000  0.50000000  0.50000000
   0.25000000  0.75000000  0.75000000
   0.50000000  0.00000000  0.50000000
   0.75000000  0.25000000  0.75000000
   0.50000000  0.50000000  0.00000000
   0.75000000  0.75000000  0.25000000

 position of ions in cartesian coordinates  (Angst):
   0.00000000  0.00000000  0.00000000
   1.51875000  1.51875000  1.51875000
   0.00000000  3.03750000  3.03750000
   1.51875000  4.55625000  4.55625000
   3.03750000  0.00000000  3.03750000
   4.55625000  1.51875000  4.55625000
   3.03750000  3.03750000  0.00000000
   4.55625000  4.55625000  1.51875000

 k-point     1 :   0.0000 0.0000 0.0000  plane waves:    9435
 k-point     2 :   0.2000 0.0000 0.0000  plane waves:    9434
 k-point     3 :   0.0000 0.2000 0.0000  plane waves:    9434
 k-point     4 :   0.0000 0.0000 0.2000  plane waves:    9434
 k-point     5 :   0.4000 0.0000 0.0000  plane waves:    9426
 k-point     6 :   0.0000 0.4000 0.0000  plane waves:    9426
 k-point     7 :   0.0000 0.0000 0.4000  plane waves:    9426
 k-point     8 :   0.2000 0.2000 0.0000  plane waves:    9411
 k-point     9 :   0.0000 0.2000 0.2000  plane waves:    9411
 k-point    10 :   0.2000 0.0000 0.2000  plane waves:    9411
 k-point    11 :  -0.2000 0.2000 0.0000  plane waves:    9411
 k-point    12 :  -0.2000 0.0000 0.2000  plane waves:    9411
 k-point    13 :   0.0000-0.2000 0.2000  plane waves:    9411
 k-point    14 :   0.4000 0.2000 0.0000  plane waves:    9429
 k-point    15 :   0.0000 0.4000 0.2000  plane waves:    9429
 k-point    16 :   0.2000 0.0000 0.4000  plane waves:    9429
 k-point    17 :  -0.2000 0.4000 0.0000  plane waves:    9429
 k-point    18 :  -0.4000 0.0000 0.2000  plane waves:    9429
 k-point    19 :   0.0000 0.2000 0.4000  plane waves:    9429
 k-point    20 :   0.0000-0.4000 0.2000  plane waves:    9429
 k-point    21 :  -0.2000 0.0000 0.4000  plane waves:    9429
 k-point    22 :   0.4000 0.0000 0.2000  plane waves:    9429
 k-point    23 :   0.0000-0.2000 0.4000  plane waves:    9429
 k-point    24 :   0.4000-0.2000 0.0000  plane waves:    9429
 k-point    25 :   0.2000 0.4000 0.0000  plane waves:    9429
 k-point    26 :   0.4000 0.4000 0.0000  plane waves:    9440
 k-point    27 :   0.0000 0.4000 0.4000  plane waves:    9440
 k-point    28 :   0.4000 0.0000 0.4000  plane waves:    9440
 k-point    29 :  -0.4000 0.4000 0.0000  plane waves:    9440
 k-point    30 :  -0.4000 0.0000 0.4000  plane waves:    9440
 k-point    31 :   0.0000-0.4000 0.4000  plane waves:    9440
 k-point    32 :   0.2000 0.2000 0.2000  plane waves:    9423
 k-point    33 :  -0.2000 0.2000 0.2000  plane waves:    9423
 k-point    34 :  -0.2000-0.2000 0.2000  plane waves:    9423
 k-point    35 :   0.2000-0.2000 0.2000  plane waves:    9423
 k-point    36 :   0.4000 0.2000 0.2000  plane waves:    9430
 k-point    37 :   0.2000 0.4000 0.2000  plane waves:    9430
 k-point    38 :   0.2000 0.2000 0.4000  plane waves:    9430
 k-point    39 :  -0.2000 0.4000 0.2000  plane waves:    9430
 k-point    40 :  -0.4000 0.2000 0.2000  plane waves:    9430
 k-point    41 :  -0.2000 0.2000 0.4000  plane waves:    9430
 k-point    42 :  -0.4000-0.2000 0.2000  plane waves:    9430
 k-point    43 :  -0.2000-0.4000 0.2000  plane waves:    9430
 k-point    44 :  -0.2000-0.2000 0.4000  plane waves:    9430
 k-point    45 :   0.2000-0.4000 0.2000  plane waves:    9430
 k-point    46 :   0.4000-0.2000 0.2000  plane waves:    9430
 k-point    47 :   0.2000-0.2000 0.4000  plane waves:    9430
 k-point    48 :   0.4000 0.4000 0.2000  plane waves:    9453
 k-point    49 :   0.2000 0.4000 0.4000  plane waves:    9453
 k-point    50 :   0.4000 0.2000 0.4000  plane waves:    9453
 k-point    51 :  -0.4000 0.4000 0.2000  plane waves:    9453
 k-point    52 :  -0.4000 0.2000 0.4000  plane waves:    9453
 k-point    53 :  -0.2000 0.4000 0.4000  plane waves:    9453
 k-point    54 :  -0.4000-0.4000 0.2000  plane waves:    9453
 k-point    55 :  -0.2000-0.4000 0.4000  plane waves:    9453
 k-point    56 :  -0.4000-0.2000 0.4000  plane waves:    9453
 k-point    57 :   0.4000-0.4000 0.2000  plane waves:    9453
 k-point    58 :   0.4000-0.2000 0.4000  plane waves:    9453
 k-point    59 :   0.2000-0.4000 0.4000  plane waves:    9453
 k-point    60 :   0.4000 0.4000 0.4000  plane waves:    9426
 k-point    61 :  -0.4000 0.4000 0.4000  plane waves:    9426
 k-point    62 :  -0.4000-0.4000 0.4000  plane waves:    9426
 k-point    63 :   0.4000-0.4000 0.4000  plane waves:    9426

 maximum and minimum number of plane-waves per node :       619      564

 maximum number of plane-waves:      9453
 maximum index in each direction:
   IXMAX=   13   IYMAX=   13   IZMAX=   13
   IXMIN=  -13   IYMIN=  -13   IZMIN=  -13

 real space projection operators:
  max/ min on nodes  :        211.66        134.06

 parallel 3D FFT for wavefunctions:
    minimum data exchange during FFTs selected (reduces bandwidth)
 parallel 3D FFT for charge:
    minimum data exchange during FFTs selected (reduces bandwidth)

 Broyden mixing: mesh for mixing (old mesh)
   NGX = 27   NGY = 27   NGZ = 27
  (NGX  = 80   NGY  = 80   NGZ  = 80)
  gives a total of  19683 points

 initial charge density was supplied:
 charge density of overlapping atoms calculated
 number of electron      32.0000000 magnetization       1.0000000
 keeping initial charge density in first step

 Maximum index for non-local projection operator          346
 Maximum index for augmentation-charges         4117 (set IRDMAX)

 First call to EWALD:  gamma=   0.292
 Maximum number of real-space cells 3x 3x 3
 Maximum number of reciprocal cells 3x 3x 3

--------------------------------------- Ionic step        1  -------------------------------------------

--------------------------------------- Iteration      1(   1)  ---------------------------------------

 eigenvalue-minimisations  :  5040
 total energy-change (2. order) : 0.1492080E+03  (-0.1330352E+04)
 number of electron      32.0000000 magnetization       1.0000000
 augmentation part       32.0000000 magnetization       1.0000000

 Free energy of the ion-electron system (eV)
  alpha Z        PSCENC =        45.13427724
  Ewald energy   TEWEN  =      -817.18517526
  -Hartree energ DENC   =       -50.55362685
  -exchange      EXHF   =         0.00000000
  -V(xc)+E(xc)   XCENC  =      -503.43007741
  PAW double counting   =      1110.23139473     -556.86476512
  entropy T*S    EENTRO =        -0.00012767
  eigenvalues    EBANDS =       125.54850875
  atomic energy  EATOM  =       796.32757134
  Solvation  Ediel_sol  =         0.00000000
  free energy    TOTEN  =       149.20797975 eV

  energy without entropy =      149.20810742  energy(sigma->0) =      149.20804359

[...]

 eigenvalue-minimisations  :  6572
 total energy-change (2. order) :-0.1687272E+03  (-0.1629242E+03)
 number of electron      32.0000000 magnetization       1.0000000
 augmentation part       32.0000000 magnetization       1.0000000

[...]

 Broyden mixing:
  rms(total) = 0.65216E+00    rms(broyden)= 0.65216E+00
  rms(prec ) = 0.93230E+00
  weight for this iteration     100.00

[...]

 eigenvalues of (default mixing * dielectric matrix)
  average eigenvalue GAMMA=   1.6968
  1.6968

[...]

 eigenvalue-minimisations  :  5656
 total energy-change (2. order) : 0.5144336E-01  (-0.1187246E-01)
 number of electron      32.0000000 magnetization       1.0000000
 augmentation part       -6.9393654 magnetization      -0.1471444

[...]

 Broyden mixing:
  rms(total) = 0.25093E-03    rms(broyden)= 0.25093E-03
  rms(prec ) = 0.31161E-03
  weight for this iteration     100.00

 eigenvalues of (default mixing * dielectric matrix)
  average eigenvalue GAMMA=   1.0083
  2.0835  1.7058  1.0043  1.0043  0.8207  0.5219  0.4556  0.4706

[...]

--------------------------------------- Iteration      1(  14)  ---------------------------------------

 eigenvalue-minimisations  :  5704
 total energy-change (2. order) :-0.8796906E-07  (-0.7614779E-07)
 number of electron      32.0000000 magnetization       1.0000000
 augmentation part       -6.9334562 magnetization      -0.1449866

 Free energy of the ion-electron system (eV)
  alpha Z        PSCENC =        45.13427724
  Ewald energy   TEWEN  =      -817.18517526
  -Hartree energ DENC   =       -61.08952471
  -exchange      EXHF   =         0.00000000
  -V(xc)+E(xc)   XCENC  =      -500.77317706
  PAW double counting   =      2121.36656823    -1570.19548472
  entropy T*S    EENTRO =        -0.00074997
  eigenvalues    EBANDS =       -45.88884247
  atomic energy  EATOM  =       796.32757134
  Solvation  Ediel_sol  =         0.00000000
  free energy    TOTEN  =       -32.30453739 eV

  energy without entropy =      -32.30378742  energy(sigma->0) =      -32.30416240

 average (electrostatic) potential at core
  the test charge radii are     1.1631  1.4072  1.1631  1.4072  1.1631  1.4072  1.1631  1.4072
  (the norm of the test charge is              1.0000)
       1 -32.9859       2 -45.6733       3 -32.9859       4 -45.6733       5 -32.9859
       6 -45.6733       7 -32.9859       8 -45.6733

 E-fermi :   2.7933     XC(G=0):  -9.0079     alpha+bet : -8.8435

 val. band max:        4.6324079872   @ k =  -0.2000   0.0000   0.2000
 cond. band min:       2.8653563052   @ k =   0.4000   0.0000   0.4000
 fundamental gap:     -1.7670516820
 Fermi energy:         4.6331454080

 spin component 1

 k-point     1 :       0.0000    0.0000    0.0000
  band No.  band energies     occupation
      1      -8.0128      1.00000
      2      -5.0244      1.00000
      3      -5.0244      1.00000
      4      -5.0244      1.00000
      5      -4.0398      1.00000
      6      -4.0398      1.00000
      7      -4.0398      1.00000
      8       0.8890      1.00000
      9       0.8890      1.00000
     10       0.8890      1.00000
     11       0.8890      1.00000
     12       0.8890      1.00000
     13       0.8890      1.00000
     14       3.1366      1.00000
     15       3.6642      1.00000
     16       3.6642      1.00000
     17       3.6642      1.00000
     18       4.2129      1.00000
     19       4.2129      1.00000
     20       4.2129      1.00000

[...]

 k-point    63 :       0.4000   -0.4000    0.4000
  band No.  band energies     occupation
      1      -6.5345      1.00000
      2      -6.1707      1.00000
      3      -6.1707      1.00000
      4      -6.1707      1.00000
      5      -3.1489      1.00000
      6      -3.1489      1.00000
      7      -3.1489      1.00000
      8      -2.6851      1.00000
      9       1.5339      1.00000
     10       1.5339      1.00000
     11       1.5339      1.00000
     12       2.1736      1.00000
     13       2.1736      1.00000
     14       2.1736      1.00000
     15       2.4623      1.00000
     16       2.4623      1.00000
     17       3.7631      1.00000
     18       4.5786      1.00000
     19       4.5786      1.00000
     20       4.5786      1.00000
 Fermi energy:         2.7932976338

 spin component 2

[...]

 k-point    63 :       0.4000   -0.4000    0.4000
  band No.  band energies     occupation
      1      -6.4298      1.00000
      2      -6.0660      1.00000
      3      -6.0660      1.00000
      4      -6.0660      1.00000
      5      -3.0451      1.00000
      6      -3.0451      1.00000
      7      -3.0451      1.00000
      8      -2.5808      1.00000
      9       1.6427      1.00000
     10       1.6427      1.00000
     11       1.6427      1.00000
     12       2.2832      1.00000
     13       2.2832      1.00000
     14       2.2832      1.00000
     15       2.5718      1.00000
     16       2.5718      1.00000
     17       3.8647      0.00000
     18       4.6818      0.00000
     19       4.6818      0.00000
     20       4.6818      0.00000

 soft charge-density along one line, spin component           1
         0         1         2         3         4         5         6         7         8         9
 total charge-density along one line

 soft charge-density along one line, spin component           2
         0         1         2         3         4         5         6         7         8         9
 total charge-density along one line

------------------------ aborting loop because EDIFF is reached ----------------------------------------

  FORCE on cell =-STRESS in cart. coord.  units (eV):
  Direction    XX          YY          ZZ          XY          YZ          ZX
  Alpha Z    45.13428    45.13428    45.13428
  Ewald    -272.39552  -272.39552  -272.39552     0.00000    -0.00000    -0.00000
  Hartree    20.36380    20.36380    20.36380     0.00001    -0.00000    -0.00003
  E(xc)    -126.44740  -126.44740  -126.44740    -0.00000     0.00000     0.00001
  Local     -96.34413   -96.34413   -96.34413    -0.00004     0.00002     0.00012
  n-local   251.26131   251.26131   251.26132     0.00001    -0.00000    -0.00003
  augment   -41.01892   -41.01892   -41.01892     0.00000    -0.00000     0.00000
  Kinetic   225.71693   225.71695   225.71692    -0.00000     0.00000    -0.00003
  Fock        0.00000     0.00000     0.00000     0.00000     0.00000     0.00000
  Total       6.27036     6.27037     6.27034    -0.00003     0.00001     0.00004
  in kB      44.80887    44.80898    44.80875    -0.00020     0.00007     0.00028

 VOLUME and BASIS-vectors are now :
  energy-cutoff  :      700.00
  volume of cell :      224.20
      direct lattice vectors                 reciprocal lattice vectors
     6.075000000  0.000000000  0.000000000     0.164609053  0.000000000  0.000000000
     0.000000000  6.075000000  0.000000000     0.000000000  0.164609053  0.000000000
     0.000000000  0.000000000  6.075000000     0.000000000  0.000000000  0.164609053

  length of vectors
     6.075000000  6.075000000  6.075000000     0.164609053  0.164609053  0.164609053

 FORCES acting on ions
    electron-ion (+dipol)            ewald-force                    non-local-force                 convergence-correction
   -.500E-05 -.217E-04 0.788E-05   -.888E-14 -.533E-14 0.000E+00   0.309E-06 0.818E-05 -.238E-05   0.397E-05 0.895E-05 -.466E-05
   0.275E-05 0.982E-05 -.256E-05   -.506E-14 -.378E-14 -.177E-14   -.122E-05 -.944E-05 0.546E-05   -.147E-05 0.180E-05 -.219E-05
   -.126E-04 -.299E-04 0.942E-05   -.178E-14 -.178E-14 0.178E-14   0.297E-05 0.104E-04 -.140E-05   0.937E-05 0.151E-04 -.786E-05
   0.489E-05 0.326E-04 -.142E-04   0.184E-14 -.813E-17 -.745E-16   -.134E-05 -.120E-04 0.396E-05   -.304E-05 -.175E-04 0.103E-04
   0.273E-05 -.234E-04 0.969E-05   0.178E-14 0.000E+00 0.000E+00   -.545E-06 0.860E-05 -.250E-05   -.205E-05 0.102E-04 -.742E-05
   0.100E-05 0.163E-04 -.168E-04   -.197E-16 0.184E-14 -.185E-14   -.481E-06 -.124E-04 0.488E-05   -.442E-06 -.194E-05 0.121E-04
   0.401E-05 -.265E-04 0.633E-05   0.711E-14 0.355E-14 0.178E-14   -.454E-06 0.857E-05 -.248E-05   -.325E-05 0.133E-04 -.422E-05
   0.164E-06 0.275E-04 0.220E-05   0.528E-14 0.533E-14 0.408E-17   -.594E-06 -.908E-05 0.282E-05   0.677E-06 -.147E-04 -.419E-05
   -.203E-05 -.154E-04 0.196E-05   0.272E-15 -.176E-15 -.140E-15   -.136E-05 -.723E-05 0.835E-05   0.377E-05 0.152E-04 -.822E-05

 POSITION                                       TOTAL-FORCE (eV/Angst)
      0.00000      0.00000      0.00000        -0.000001     -0.000004      0.000001
      1.51875      1.51875      1.51875         0.000000      0.000003      0.000000
      0.00000      3.03750      3.03750        -0.000000     -0.000004     -0.000000
      1.51875      4.55625      4.55625         0.000000      0.000004     -0.000000
      3.03750      0.00000      3.03750         0.000000     -0.000004     -0.000000
      4.55625      1.51875      4.55625         0.000000      0.000003     -0.000000
      3.03750      3.03750      0.00000         0.000000     -0.000004     -0.000001
      4.55625      4.55625      1.51875         0.000000      0.000005      0.000001
    total drift:                                0.000000     -0.000007      0.000002

  FREE ENERGIE OF THE ION-ELECTRON SYSTEM (eV)
  free  energy   TOTEN  =       -32.30453739 eV

  energy  without entropy=      -32.30378742  energy(sigma->0) =      -32.30416240