 vasp.6.4.3 19Mar24 (build Oct 22 2024 11:23:12) complex

 executed on             LinuxIFC date 2025.06.04  03:50:43

 INCAR:
   SYSTEM = Si and Ge interface calculation
   ISTART = 0
   ICHARG = 2
   LWAVE = .FALSE.
   LREAL = AUTO
   ENCUT = 700
   ENAUG = 900
   ADDGRID = .TRUE.
   LMAXMIX = 6
   LASPH = .TRUE.
   LMIXTAU = .TRUE.
   NCORE = 16
   NELM = 100
   NBANDS = 202
   EDIFF = 1d-7
   AMIX = 0.6
   ISMEAR = 0
   SIGMA = 0.01
   NELECT = 336
   ISPIN = 2
   NUPDOWN = 1
   LVTOT = .FALSE.
   LVHAR = .TRUE.

 POTCAR:    PAW_PBE Si 05Jan2001
 POTCAR:    PAW_PBE Ge 05Jan2001
|           W    W    AA    RRRRR   N    N  II  N    N   GGGG   !!!           |
|           W    W   A  A   R    R  NN   N  II  NN   N  G    G  !!!           |
|           W    W  A    A  R    R  N N  N  II  N N  N  G       !!!           |
|           W WW W  AAAAAA  RRRRR   N  N N  II  N  N N  G  GGG   !            |
|           WW  WW  A    A  R   R   N   NN  II  N   NN  G    G                |
|           W    W  A    A  R    R  N    N  II  N    N   GGGG   !!!           |
|     You use a magnetic or noncollinear calculation, but did not specify     |
|     the initial magnetic moment with the MAGMOM tag. Note that a            |
|     default of 0.012 will be used for all atoms. This ferromagnetic         |
|     setup may break the symmetry of the crystal, in particular it may       |
|     rule out finding an antiferromagnetic solution. Thence, we              |
|     recommend setting the initial magnetic moment manually or verifying     |
|     carefully that this magnetic setup is desired.                          |

 POTCAR:    PAW_PBE Si 05Jan2001
   VRHFIN =Si: s2p2

   TITEL  = PAW_PBE Si 05Jan2001
   POMASS =   28.085; ZVAL   =    4.000    mass and valenz
   ENMAX  =  245.345; ENMIN  =  184.009 eV

 POTCAR:    PAW_PBE Ge 05Jan2001
   VRHFIN =Ge: s2p2

   TITEL  = PAW_PBE Ge 05Jan2001
   POMASS =   72.610; ZVAL   =    4.000    mass and valenz
   ENMAX  =  173.807; ENMIN  =  130.355 eV

 Optimization of the real space projectors (new method)

 maximal supplied QI-value         = 19.84
 optimisation between [QCUT,QGAM] = [ 13.49, 26.99] = [ 50.98,203.92] Ry
 Optimized for a Real-space Cutoff    1.07 Angstroem

   l    n(q)    QCUT    max X(q) W(low)/X(q) W(high)/X(q)  e(spline)
   0      9    13.493   159.560    0.22E-03    0.15E-03    0.72E-07
   0      9    13.493   115.863    0.21E-03    0.15E-03    0.71E-07
   1      8    13.493    88.339    0.15E-03    0.11E-03    0.13E-06
   1      8    13.493    48.592    0.15E-03    0.10E-03    0.13E-06
 Optimization of the real space projectors (new method)

 maximal supplied QI-value         = 16.25
 optimisation between [QCUT,QGAM] = [ 13.49, 26.98] = [ 50.95,203.80] Ry
 Optimized for a Real-space Cutoff    1.25 Angstroem

   l    n(q)    QCUT    max X(q) W(low)/X(q) W(high)/X(q)  e(spline)
   0     10    13.489    65.336    0.91E-04    0.11E-03    0.34E-06
   0     10    13.489    52.220    0.89E-04    0.11E-03    0.34E-06
   1     10    13.489    36.409    0.22E-03    0.27E-03    0.14E-06
   1     10    13.489    21.334    0.21E-03    0.27E-03    0.14E-06
   2      9    13.489     4.673    0.11E-03    0.12E-03    0.19E-06
  PAW_PBE Si 05Jan2001                  :
  PAW_PBE Ge 05Jan2001                  :

 POSCAR: Si+Ge
  positions in direct lattice

 exchange-correlation table for PE
   RHO(1)=    0.500       N(1)  =     2000
   RHO(2)=  100.500       N(2)  =     4000

 ion  position               nearest neighbor table
   1  0.018  0.667  0.000-  66 1.70  59 2.11  28 2.35  13 2.35  71 2.69  42 2.86
   2  0.518  0.667  0.162-  13 2.35  28 2.35  29 2.35  14 2.35  66 3.01
   3  0.018  0.667  0.323-  49 1.52  61 2.25  30 2.35  14 2.35  29 2.35  15 2.35
   4  0.018  0.333  0.000-  77 2.30  31 2.35  16 2.35  60 2.49  84 2.55  72 2.61  47 2.84  53 2.89
                            60 2.94
   5  0.518  0.333  0.162-  31 2.35  32 2.35  16 2.35  17 2.35  60 2.72
   6  0.018  0.333  0.323-  79 1.77  33 2.35  32 2.35  17 2.35  18 2.35  37 2.43  55 2.49
   7  0.018  0.000  0.000-  78 1.73  41 2.14  10 2.35  34 2.35  65 2.65  48 2.82
   8  0.518  0.000  0.162-  10 2.35  11 2.35  34 2.35  35 2.35  48 3.03  78 3.03
   9  0.018  0.000  0.323-  43 1.55  67 2.21  11 2.35  12 2.35  36 2.35  35 2.35
  10  0.268  0.917  0.081-  78 1.52   8 2.35   7 2.35  20 2.35  19 2.35  54 2.51
  11  0.768  0.917  0.243-   9 2.35   8 2.35  21 2.35  20 2.35
  12  0.268  0.917  0.404-  43 1.30  80 2.11   9 2.35  21 2.35  73 2.86  56 2.91
  13  0.268  0.583  0.081-  42 2.08   2 2.35   1 2.35  23 2.35  22 2.35  66 2.43  84 2.49
  14  0.768  0.583  0.243-   3 2.35   2 2.35  24 2.35  23 2.35  61 2.72
  15  0.268  0.583  0.404-  49 2.30   3 2.35  24 2.35  37 2.37  61 2.49  44 2.55  68 2.84  74 2.89
                            61 2.94
  16  0.268  0.250  0.081-  72 1.55  26 2.35  25 2.35   5 2.35   4 2.35  60 2.47
  17  0.768  0.250  0.243-  27 2.35  26 2.35   6 2.35   5 2.35  79 3.03
  18  0.268  0.250  0.404-  55 1.34  62 2.14  27 2.35   6 2.35  79 2.82  50 2.87
  19  0.518  0.833  0.000-  54 0.23  78 2.30  28 2.35  10 2.35  66 2.37  83 2.55
  20  0.018  0.833  0.162-  28 2.35  29 2.35  10 2.35  11 2.35
  21  0.518  0.833  0.323-  73 2.08  30 2.35  29 2.35  11 2.35  12 2.35
  22  0.518  0.500  0.000-  42 1.34  84 1.34  31 2.35  13 2.35  60 2.76  71 2.87
  23  0.018  0.500  0.162-  31 2.35  32 2.35  13 2.35  14 2.35
  24  0.518  0.500  0.323-  33 2.35  32 2.35  14 2.35  15 2.35  61 2.47  37 2.93
  25  0.518  0.167  0.000-  72 1.30  48 1.41  16 2.35  34 2.35  60 2.69  65 2.91
  26  0.018  0.167  0.162-  16 2.35  34 2.35  17 2.35  35 2.35
  27  0.518  0.167  0.323-  17 2.35  18 2.35  36 2.35  35 2.35  67 2.51  55 2.91
  28  0.768  0.750  0.081-  54 2.21  20 2.35  19 2.35   1 2.35   2 2.35  66 2.93
  29  0.268  0.750  0.243-  21 2.35  20 2.35   3 2.35   2 2.35  49 3.03
  30  0.768  0.750  0.404-  73 1.34  49 1.73  21 2.35   3 2.35  56 2.65  61 2.76
  31  0.768  0.417  0.081-  60 2.25   4 2.35  23 2.35  22 2.35   5 2.35  84 2.91
  32  0.268  0.417  0.243-   6 2.35  24 2.35  23 2.35   5 2.35  37 3.01
  33  0.768  0.417  0.404-  79 1.41  37 1.70   6 2.35  24 2.35  61 2.69  50 2.69
  34  0.768  0.083  0.081-  48 1.77  26 2.35   7 2.35  25 2.35   8 2.35
  35  0.268  0.083  0.243-   9 2.35  27 2.35  26 2.35   8 2.35
  36  0.768  0.083  0.404-  67 0.23  38 2.30   9 2.35  27 2.35  55 2.55  43 2.61
  37  0.059  0.456  0.404-  33 1.70  15 2.37  74 2.42   6 2.43  61 2.45  79 2.45  24 2.93  32 3.01

  38  0.559  0.081  0.523-  36 2.30  75 2.42  67 2.42  80 2.45  62 2.45
  39  0.059  0.706  0.643-  76 2.42  68 2.42  63 2.45  81 2.45
  40  0.559  0.331  0.762-  69 2.42  77 2.42  64 2.45  82 2.45
  41  0.059  0.956  0.881-   7 2.14  78 2.42  70 2.42  83 2.45  65 2.45
  42  0.559  0.581  0.000-  22 1.34  13 2.08  71 2.42  66 2.45  84 2.45   1 2.86
  43  0.059  0.956  0.404-  12 1.30   9 1.55  80 2.42  73 2.45  67 2.45  36 2.61
  44  0.559  0.581  0.523-  81 2.42  61 2.42  74 2.45  68 2.45  15 2.55
  45  0.059  0.206  0.643-  62 2.42  82 2.42  75 2.45  69 2.45
  46  0.559  0.831  0.762-  63 2.42  83 2.42  70 2.45  76 2.45
  47  0.059  0.456  0.881-  84 2.42  64 2.42  77 2.45  71 2.45   4 2.84
  48  0.559  0.081  1.000-  25 1.41  34 1.77  65 2.42  72 2.45  78 2.45   7 2.82   8 3.03
  49  0.059  0.706  0.404-   3 1.52  30 1.73  15 2.30  68 2.42  61 2.45  73 2.45  29 3.03
  50  0.559  0.331  0.523-  69 2.42  79 2.42  62 2.45  74 2.45  33 2.69  18 2.87
  51  0.059  0.956  0.643-  80 2.42  70 2.42  63 2.45  75 2.45
  52  0.559  0.581  0.762-  71 2.42  81 2.42  64 2.45  76 2.45
  53  0.059  0.206  0.881-  82 2.42  72 2.42  65 2.45  77 2.45   4 2.89
  54  0.559  0.831  0.000-  19 0.23  28 2.21  83 2.42  66 2.45  78 2.45  10 2.51
  55  0.059  0.206  0.404-  18 1.34  62 2.42  79 2.45  67 2.45   6 2.49  36 2.55  27 2.91
  56  0.559  0.831  0.523-  63 2.42  73 2.42  68 2.45  80 2.45  30 2.65  12 2.91
  57  0.059  0.456  0.643-  64 2.42  74 2.42  69 2.45  81 2.45
  58  0.559  0.081  0.762-  65 2.42  75 2.42  70 2.45  82 2.45
  59  0.059  0.706  0.881-   1 2.11  76 2.42  66 2.42  83 2.45  71 2.45
  60  0.559  0.331  1.000-  31 2.25  77 2.42  84 2.45  72 2.45  16 2.47   4 2.49  25 2.69   5 2.72
                            22 2.76   4 2.94
  61  0.809  0.581  0.404-   3 2.25  44 2.42  49 2.45  37 2.45  24 2.47  15 2.49  33 2.69  14 2.72
                            30 2.76  15 2.94
  62  0.309  0.206  0.523-  18 2.14  45 2.42  55 2.42  50 2.45  38 2.45
  63  0.809  0.831  0.643-  56 2.42  46 2.42  51 2.45  39 2.45
  64  0.309  0.456  0.762-  57 2.42  47 2.42  40 2.45  52 2.45
  65  0.809  0.081  0.881-  48 2.42  58 2.42  53 2.45  41 2.45   7 2.65  25 2.91
  66  0.309  0.706  0.000-   1 1.70  19 2.37  59 2.42  13 2.43  54 2.45  42 2.45  28 2.93   2 3.01

  67  0.809  0.081  0.404-  36 0.23   9 2.21  38 2.42  55 2.45  43 2.45  27 2.51
  68  0.309  0.706  0.523-  39 2.42  49 2.42  44 2.45  56 2.45  15 2.84
  69  0.809  0.331  0.643-  50 2.42  40 2.42  45 2.45  57 2.45
  70  0.309  0.956  0.762-  41 2.42  51 2.42  46 2.45  58 2.45
  71  0.809  0.581  0.881-  52 2.42  42 2.42  59 2.45  47 2.45   1 2.69  22 2.87
  72  0.309  0.206  1.000-  25 1.30  16 1.55  53 2.42  48 2.45  60 2.45   4 2.61
  73  0.809  0.831  0.404-  30 1.34  21 2.08  56 2.42  43 2.45  49 2.45  12 2.86
  74  0.309  0.456  0.523-  57 2.42  37 2.42  44 2.45  50 2.45  15 2.89
  75  0.809  0.081  0.643-  38 2.42  58 2.42  45 2.45  51 2.45
  76  0.309  0.706  0.762-  39 2.42  59 2.42  46 2.45  52 2.45
  77  0.809  0.331  0.881-   4 2.30  60 2.42  40 2.42  47 2.45  53 2.45
  78  0.309  0.956  1.000-  10 1.52   7 1.73  19 2.30  41 2.42  48 2.45  54 2.45   8 3.03
  79  0.809  0.331  0.404-  33 1.41   6 1.77  50 2.42  55 2.45  37 2.45  18 2.82  17 3.03
  80  0.309  0.956  0.523-  12 2.11  51 2.42  43 2.42  56 2.45  38 2.45
  81  0.809  0.581  0.643-  44 2.42  52 2.42  39 2.45  57 2.45
  82  0.309  0.206  0.762-  53 2.42  45 2.42  58 2.45  40 2.45
  83  0.809  0.831  0.881-  54 2.42  46 2.42  59 2.45  41 2.45  19 2.55
  84  0.309  0.456  1.000-  22 1.34  47 2.42  60 2.45  42 2.45  13 2.49   4 2.55  31 2.91

  LATTYP: Found a simple orthorhombic cell.
 ALAT       =     5.4310002330
 B/A-ratio  =     3.0000000876
 C/A-ratio  =     3.0915896937

  Lattice vectors:

 A1 = (   5.4310002330,   0.0000000000,   0.0000000000)
 A2 = (   0.0000000000,  16.2930011750,   0.0000000000)
 A3 = (   0.0000000000,   0.0000000000,  16.7904243470)

Analysis of symmetry for initial positions (statically):
 Subroutine PRICEL returns:
 Original cell was already a primitive cell.

 Routine SETGRP: Setting up the symmetry group for a
 simple orthorhombic supercell.

 Subroutine GETGRP returns: Found  1 space group operations
 (whereof  1 operations were pure point group operations)
 out of a pool of  8 trial point group operations.

The static configuration has the point symmetry C_1 .

Analysis of symmetry for dynamics (positions and initial velocities):
 Subroutine PRICEL returns:
 Original cell was already a primitive cell.

[...]

The dynamic configuration has the point symmetry C_1 .

Analysis of structural, dynamic, and magnetic symmetry:
 Subroutine PRICEL returns:
[...]
     0.000000000  0.000000000 16.790424347     0.000000000  0.000000000  0.059557756

  length of vectors
     5.431000233 16.293001175 16.790424347     0.184128145  0.061376047  0.059557756

 FORCES acting on ions
    electron-ion (+dipol)            ewald-force                    non-local-force                 convergence-correction
   0.498E+02 0.229E+02 0.363E+02   -.516E+02 -.217E+02 -.327E+02   -.204E+02 -.113E+02 0.123E+01   -.157E-05 0.476E-03 -.292E-04
   -.375E+01 -.833E+00 -.207E+02   0.356E+01 0.748E+00 0.199E+02   0.290E+00 0.431E+00 0.158E+01   0.245E-04 0.313E-03 -.127E-03
   -.584E+01 0.173E+02 0.708E+02   0.501E+01 -.217E+02 -.841E+02   -.443E+01 -.135E+02 -.314E+02   0.449E-06 0.630E-04 -.664E-04
   0.108E+01 0.141E+01 0.421E+02   -.141E+01 -.830E+00 -.406E+02   0.141E+01 -.487E-01 0.634E+00   -.197E-04 -.738E-04 -.707E-04
   -.756E+00 0.833E+00 -.214E+02   0.167E+01 0.709E-01 0.219E+02   -.658E+00 -.771E+00 0.101E+00   -.123E-04 0.141E-04 -.145E-03
   -.326E+02 -.984E+00 0.515E+02   0.349E+02 -.270E+00 -.543E+02   0.937E+01 0.129E+01 -.129E+02   0.422E-04 0.125E-03 -.145E-03
   0.457E+02 -.203E+02 0.349E+02   -.474E+02 0.223E+02 -.336E+02   -.172E+02 0.705E+01 0.217E+01   0.446E-04 -.381E-03 -.107E-03
   -.355E+01 0.132E+01 -.198E+02   0.344E+01 -.819E+00 0.200E+02   0.418E+00 -.279E+00 0.890E+00   -.157E-04 -.319E-03 -.375E-03
   -.129E+02 -.127E+02 0.705E+02   0.696E+01 0.216E+02 -.799E+02   -.694E+00 0.114E+02 -.278E+02   0.322E-03 -.629E-03 -.428E-03
   0.292E+02 0.185E+02 -.647E+02   -.289E+02 -.268E+02 0.776E+02   -.577E+01 -.136E+02 0.290E+02   0.284E-04 -.195E-03 -.354E-03
   0.571E+01 -.141E+01 0.165E+02   -.527E+01 0.128E+01 -.164E+02   -.663E+00 -.644E-01 -.873E+00   0.279E-04 -.241E-03 -.336E-03
   -.669E+02 0.354E+02 -.382E+02   0.106E+03 -.585E+02 0.370E+02   0.425E+02 -.234E+02 -.246E+01   -.958E-04 -.294E-03 -.394E-04
   0.309E+02 0.188E+01 -.313E+02   -.332E+02 -.826E+00 0.342E+02   -.219E+01 -.123E+01 0.220E+01   -.340E-04 0.344E-03 0.189E-04
   0.390E+01 -.571E+00 0.190E+02   -.446E+01 0.105E+00 -.194E+02   0.416E+00 0.405E+00 -.403E+00   0.357E-06 0.223E-03 -.399E-05
   -.250E+02 0.162E+01 -.498E+02   0.252E+02 -.187E+01 0.492E+02   0.181E+01 -.582E+00 -.163E+00   0.638E-05 0.198E-03 -.214E-04
   0.248E+02 -.227E+02 -.638E+02   -.288E+02 0.272E+02 0.728E+02   -.338E+01 0.134E+02 0.287E+02   -.701E-05 -.121E-03 -.136E-03
   0.575E+01 0.176E+01 0.174E+02   -.521E+01 -.138E+01 -.166E+02   -.598E+00 -.703E+00 -.155E+01   -.585E-05 0.672E-05 -.256E-03
   -.665E+02 -.405E+02 -.413E+02   0.962E+02 0.589E+02 0.380E+02   0.423E+02 0.275E+02 -.563E+00   -.272E-04 0.899E-04 -.253E-04
   0.300E+01 0.314E+00 0.635E+02   -.446E+04 0.766E+03 -.617E+02   0.131E+02 -.489E+01 -.179E+01   0.410E-04 0.737E-04 -.170E-05
   0.135E+01 -.801E-01 -.531E+01   -.189E+01 -.412E-01 0.472E+01   0.423E+00 0.276E+00 0.843E+00   -.178E-04 -.923E-05 -.361E-03
   0.252E+02 0.164E+01 0.172E+02   -.261E+02 0.443E+00 -.184E+02   -.300E+01 -.120E+01 -.250E+01   -.345E-04 -.119E-03 -.157E-03
   -.509E+02 0.275E+02 0.655E+02   0.744E+02 -.446E+02 -.654E+02   0.331E+02 -.217E+02 0.965E+00   0.417E-04 0.110E-03 -.431E-04
   0.363E+01 -.993E-01 -.671E+01   -.334E+01 0.686E+00 0.571E+01   -.168E+00 -.541E+00 0.126E+01   -.101E-04 0.190E-03 -.600E-05
   0.130E+02 0.498E+01 0.104E+02   -.118E+02 -.505E+01 -.966E+01   -.217E+01 0.152E-01 -.203E+01   0.110E-05 0.286E-03 -.298E-04
   -.548E+02 -.299E+02 0.628E+02   0.875E+02 0.298E+02 -.656E+02   0.383E+02 0.197E+02 0.278E+01   -.232E-04 -.251E-03 -.781E-04
   0.383E+01 0.133E+01 -.615E+01   -.345E+01 -.645E+00 0.579E+01   -.694E+00 -.571E+00 0.631E+00   0.246E-04 -.168E-03 -.261E-03
   0.134E+02 -.672E+01 0.107E+02   -.109E+02 0.462E+01 -.918E+01   -.991E+00 0.535E+00 -.697E+00   -.311E-03 0.227E-03 -.485E-03
   -.262E+02 0.136E+02 -.190E+02   0.239E+02 -.106E+02 0.168E+02   0.260E+01 -.258E+01 0.278E+01   -.704E-04 0.344E-03 -.217E-03
   -.623E+01 -.221E+01 0.954E+01   0.531E+01 0.125E+01 -.914E+01   0.122E+01 0.835E+00 -.945E+00   0.401E-06 0.599E-04 -.189E-03
   0.627E+02 0.439E+02 -.602E+02   -.692E+02 -.812E+02 0.609E+02   -.256E+02 -.381E+02 -.881E+00   -.382E-05 -.631E-04 -.269E-04
   -.240E+02 -.980E+01 -.168E+02   0.230E+02 0.966E+01 0.157E+02   0.310E+01 0.125E+01 0.399E+01   0.154E-04 0.170E-04 -.516E-04
   -.569E+01 0.728E+00 0.100E+02   0.539E+01 -.117E+01 -.929E+01   0.846E-01 0.215E+00 -.106E+01   0.134E-04 0.178E-03 -.883E-04
   0.648E+02 -.441E+02 -.633E+02   -.699E+02 0.666E+02 0.614E+02   -.263E+02 0.351E+02 0.119E+01   -.330E-04 0.315E-03 -.165E-04
   -.406E+02 -.345E+01 -.365E+02   0.420E+02 0.998E+00 0.385E+02   0.105E+02 0.192E+01 0.127E+02   0.166E-04 -.345E-03 -.226E-03
   -.378E+01 -.363E+00 0.794E+01   0.424E+01 -.756E-01 -.722E+01   -.190E+00 0.145E+00 -.981E+00   -.212E-04 -.241E-03 -.356E-03
   0.273E+02 -.166E+00 -.531E+02   -.448E+04 0.767E+03 0.530E+02   0.173E+02 -.497E+01 -.105E+01   0.541E-04 -.211E-03 -.636E-04
   -.470E+02 -.151E+02 -.542E+02   0.547E+02 0.192E+02 0.539E+02   0.148E+02 0.555E+01 0.124E+01   0.320E-04 0.326E-03 -.124E-04
   0.153E+02 0.149E+01 -.104E+03   -.134E+02 -.134E+01 0.101E+03   -.144E+01 -.181E+00 0.234E+01   -.297E-03 -.205E-03 0.732E-03
   0.106E+01 -.167E+00 -.330E+02   -.951E+00 0.946E-01 0.329E+02   -.461E+00 0.755E-01 0.194E+00   0.386E-05 0.984E-04 0.984E-04
   0.184E+01 0.209E+00 0.326E+02   -.130E+01 0.672E-03 -.325E+02   -.799E+00 -.748E-01 -.506E+00   0.394E-05 -.155E-04 0.901E-04
   -.116E+01 0.863E+01 0.107E+03   -.432E+00 -.960E+01 -.108E+03   0.859E+00 -.985E+00 -.298E+01   -.134E-05 -.217E-03 0.207E-03
   -.407E+02 -.513E+02 0.611E+02   0.506E+02 0.102E+03 -.619E+02   0.988E+01 0.345E+02 -.270E+01   0.336E-04 0.393E-03 -.327E-04
   0.202E+02 0.617E+01 -.872E+02   -.696E+02 0.143E+02 0.105E+03   -.262E+02 0.824E+01 0.177E+02   0.233E-03 -.584E-03 -.810E-04
   -.580E+01 -.592E+00 -.934E+02   0.647E+01 0.108E+01 0.935E+02   -.511E+00 -.379E+00 0.902E+00   -.631E-06 0.187E-03 0.251E-05
   0.108E+01 0.228E+00 -.327E+02   -.149E+01 -.129E+00 0.330E+02   -.954E-01 0.476E-01 -.308E+00   0.177E-04 -.845E-04 0.246E-03
   0.144E+01 -.132E+00 0.336E+02   -.110E+01 -.391E-02 -.335E+02   -.456E+00 0.746E-01 -.184E+00   0.817E-05 0.488E-04 0.262E-03
   0.256E+01 -.507E+01 0.883E+02   -.258E+01 0.524E+01 -.888E+02   -.557E+00 0.276E+00 -.206E+00   -.117E-04 0.683E-04 -.502E-04
   0.966E+01 0.513E+02 0.757E+02   -.791E+01 -.891E+02 -.808E+02   -.125E+01 -.285E+02 -.846E+01   -.746E-05 -.390E-03 -.924E-04
   -.521E+02 -.201E+02 -.902E+02   0.629E+02 0.274E+02 0.112E+03   0.157E+02 0.544E+01 0.207E+02   0.229E-04 -.239E-05 -.162E-04
   0.273E+01 0.192E+01 -.913E+02   -.297E+01 -.235E+01 0.926E+02   -.238E+00 -.806E-01 -.287E-02   -.174E-04 0.129E-03 0.178E-03
   0.976E+00 -.283E+00 -.328E+02   -.149E+01 0.440E-01 0.331E+02   -.133E+00 -.279E-01 -.823E-01   0.228E-04 -.168E-03 0.260E-03
   0.151E+01 -.566E+00 0.330E+02   -.114E+01 0.385E+00 -.330E+02   -.560E+00 0.154E+00 -.139E+00   -.140E-05 0.199E-03 0.365E-04
   0.355E+01 0.531E+01 0.882E+02   -.426E+01 -.505E+01 -.888E+02   -.156E+00 -.297E+00 -.256E+00   0.403E-05 -.184E-03 0.186E-04
   -.284E+02 -.391E+01 0.606E+02   0.448E+04 -.760E+03 -.588E+02   -.127E+02 0.425E+01 -.232E+01   0.241E-04 0.767E-04 -.110E-05
   0.279E+02 0.294E+02 -.524E+02   -.712E+02 -.587E+02 0.513E+02   -.296E+02 -.198E+02 0.124E+01   0.252E-03 0.298E-03 -.208E-04
   0.270E+01 -.327E+01 -.946E+02   -.324E+01 0.261E+01 0.960E+02   0.488E-01 0.549E+00 -.167E+00   -.210E-04 -.103E-03 0.108E-03
   0.110E+01 -.209E-03 -.324E+02   -.948E+00 -.954E-02 0.328E+02   -.315E+00 -.479E-01 -.141E+00   0.607E-07 0.155E-03 0.101E-03
   0.127E+01 0.449E+00 0.327E+02   -.126E+01 -.381E+00 -.329E+02   -.138E+00 -.112E+00 0.127E+00   -.826E-05 -.228E-03 0.193E-03
   -.267E+01 -.880E+01 0.107E+03   0.133E+01 0.943E+01 -.109E+03   0.113E+01 0.837E+00 -.341E+01   0.435E-05 0.347E-03 0.118E-03
   -.492E+01 0.521E+01 0.673E+02   0.560E+01 -.504E+01 -.670E+02   -.158E+00 -.663E+00 -.247E+01   0.218E-04 -.703E-04 -.562E-04
[...]
   -.141E+01 0.225E+01 0.913E+02   0.184E+01 -.235E+01 -.926E+02   0.191E+00 0.102E+00 -.136E+00   0.184E-04 0.274E-03 -.464E-04
   0.471E+02 0.538E+01 0.863E+02   -.969E+02 0.143E+02 -.105E+03   -.271E+02 0.733E+01 -.171E+02   -.362E-04 -.188E-03 -.683E-04
   -.147E+02 -.509E+02 -.618E+02   0.233E+02 0.102E+03 0.619E+02   0.623E+01 0.326E+02 0.266E+01   0.538E-04 -.114E-03 -.335E-04
   -.786E+00 0.511E+01 -.884E+02   0.544E+00 -.505E+01 0.888E+02   0.659E+00 -.392E+00 0.380E-01   -.310E-05 0.244E-03 0.738E-04
   -.144E+01 0.221E+00 -.334E+02   0.132E+01 -.389E-02 0.335E+02   0.222E+00 -.177E+00 -.205E-01   0.337E-05 -.179E-03 0.319E-03
   -.109E+01 0.306E-01 0.324E+02   0.147E+01 -.956E-02 -.328E+02   0.197E-01 -.919E-01 0.303E+00   -.261E-05 0.189E-03 0.138E-03
   0.830E+01 0.845E+00 0.100E+03   -.863E+01 -.134E+01 -.101E+03   -.168E+00 0.257E+00 -.193E+01   0.892E-05 -.619E-04 -.478E-05
   -.235E+02 -.221E+02 0.901E+02   0.356E+02 0.274E+02 -.112E+03   0.136E+02 0.508E+01 -.201E+02   -.253E-04 -.312E-03 -.649E-04
   0.361E+02 0.517E+02 -.763E+02   -.352E+02 -.891E+02 0.808E+02   -.473E+01 -.289E+02 0.936E+01   0.106E-04 0.153E-03 -.875E-05
   -.413E+01 -.823E+01 -.107E+03   0.613E+01 0.943E+01 0.109E+03   -.468E+00 0.708E+00 0.281E+01   -.503E-04 -.295E-03 0.179E-03
   -.154E+01 -.167E+00 -.327E+02   0.112E+01 0.623E-03 0.325E+02   0.605E+00 0.906E-01 0.423E+00   0.676E-07 0.172E-03 0.605E-04
   -.943E+00 0.514E-01 0.332E+02   0.930E+00 0.440E-01 -.331E+02   0.368E+00 -.135E+00 -.239E+00   -.145E-04 -.138E-03 0.132E-03
   -.126E+02 -.744E+00 0.950E+02   0.113E+02 0.108E+01 -.935E+02   0.167E+00 -.278E+00 -.940E-01   -.265E-04 0.108E-03 0.237E-03
   0.560E+02 0.304E+02 0.507E+02   -.986E+02 -.587E+02 -.513E+02   -.310E+02 -.190E+02 -.755E+00   -.530E-04 0.110E-04 -.486E-04
   -.297E+02 0.636E+01 -.436E+01   -.401E-11 -.647E-12 0.355E-13   0.302E+02 -.642E+01 0.467E+01   0.509E-03 0.849E-05 -.124E-02

 POSITION                                       TOTAL-FORCE (eV/Angst)
      0.09665     10.86200      0.00000       -22.158033    -10.048483      4.730390
      2.81215     10.86200      2.71550         0.099619      0.346374      0.764821
      0.09665     10.86200      5.43100        -5.262285    -17.930386    -44.743897
      0.09665      5.43100      0.00000         1.077303      0.536758      2.146872
      2.81215      5.43100      2.71550         0.253779      0.133064      0.579214
      0.09665      5.43100      5.43100        11.597050      0.035214    -15.746344
      0.09665      0.00000      0.00000       -18.933714      9.110106      3.513162
      2.81215      0.00000      2.71550         0.296583      0.225792      1.090723
      0.09665      0.00000      5.43100        -6.661641     20.297423    -37.271855
      1.45440     14.93525      1.35775        -5.424977    -21.928079     41.924871
      4.16991     14.93525      4.07325        -0.225133     -0.198711     -0.793207
      1.45441     14.93525      6.78875        81.355194    -46.559091     -3.666115
      1.45440      9.50425      1.35775        -4.536257     -0.174238      5.130791
      4.16991      9.50425      4.07325        -0.155744     -0.059333     -0.821428
      1.45441      9.50425      6.78875         2.029028     -0.831365     -0.756471
      1.45440      4.07325      1.35775        -7.320846     17.910642     37.645601
      4.16991      4.07325      4.07325        -0.067633     -0.318697     -0.739682
      1.45441      4.07325      6.78875        71.994321     45.882970     -3.818226
      2.81215     13.57750      0.00000     -4439.945902    761.247630      0.073040
      0.09665     13.57750      2.71550        -0.126137      0.155371      0.246845
      2.81216     13.57750      5.43100        -3.903101      0.885200     -3.741521
      2.81215      8.14650      0.00000        56.581503    -38.828411      1.059728
      0.09665      8.14650      2.71550         0.118582      0.046409      0.259166
      2.81216      8.14650      5.43100        -0.899272     -0.058656     -1.305125
      2.81215      2.71550      0.00000        71.034064     19.574825     -0.033926
      0.09665      2.71550      2.71550        -0.314886      0.115398      0.264020
      2.81216      2.71550      5.43100         1.519534     -1.564195      0.784847
      4.16991     12.21975      1.35775         0.364586      0.401547      0.509119
      1.45440     12.21975      4.07325         0.285080     -0.124758     -0.550394
      4.16991     12.21975      6.78875       -32.064720    -75.444675     -0.198373
      4.16991      6.78875      1.35775         2.097682      1.113556      2.830792
      1.45440      6.78875      4.07325        -0.221746     -0.228908     -0.345168
      4.16991      6.78875      6.78875       -31.360257     57.577700     -0.692287
      4.16991      1.35775      1.35775        11.932069     -0.533904     14.736682
      1.45440      1.35775      4.07325         0.268224     -0.292936     -0.260147
      4.16991      1.35775      6.78875     -4438.162094    761.754047     -1.095308
      0.31866      7.42951      6.78875        22.423302      9.729441      0.946413
      3.03416      1.31964      8.78909         0.451699     -0.037239     -0.813578
      0.31866     11.50276     10.78942        -0.357843      0.003727      0.112906
      3.03416      5.39289     12.78975        -0.269471      0.135679     -0.363874
      0.31866     15.57601     14.79009        -0.741075     -1.949362     -4.084253
      3.03416      9.46614      0.00000        19.780996     85.182729     -3.456413
      0.31866     15.57601      6.78875       -75.642593     28.680420     35.477087
      3.03416      9.46614      8.78909         0.162840      0.106613      0.971927
      0.31866      3.35626     10.78942        -0.507383      0.147035     -0.024770
      3.03416     13.53939     12.78975        -0.127725     -0.060354     -0.074101
      0.31866      7.42951     14.79009        -0.580030      0.442993     -0.690252
      3.03416      1.31964     16.79042         0.484933    -66.281238    -13.594878
      0.31866     11.50276      6.78875        26.474474     12.655609     42.379613
      3.03416      5.39289      8.78909        -0.481054     -0.511104      1.323262
      0.31866     15.57601     10.78942        -0.654297     -0.266788      0.156889
      3.03416      9.46614     12.78976        -0.202950     -0.026100     -0.154353
      0.31866      3.35626     14.79009        -0.874744     -0.038324     -0.918945
      3.03416     13.53939      0.00000      4439.485492   -760.078228     -0.473492
      0.31866      3.35626      6.78875       -72.893254    -49.047103      0.103637
      3.03416     13.53939      8.78909        -0.503210     -0.109872      1.253017
      0.31866      7.42951     10.78942        -0.170640     -0.056714      0.305604
      3.03416      1.31964     12.78976        -0.139321     -0.043198     -0.123769
      0.31866     11.50277     14.79009        -0.222047      1.468392     -5.273048
      3.03416      5.39289     16.79042         0.518705     -0.488197     -2.150604
[...]
      1.67641     15.57602     12.78976         0.647310      0.115385     -0.199950
      4.39191      9.46614     14.79009         0.613494     -0.002635     -1.406343
      1.67641      3.35626     16.79042       -76.891607     26.979382    -35.814589
      4.39191     13.53939      6.78875        14.799905     83.649225      2.748167
      1.67641      7.42951      8.78909         0.411204     -0.336582      0.482260
      4.39191      1.31964     10.78942         0.093385      0.040578      0.098065
      1.67641     11.50277     12.78975         0.395268     -0.069944     -0.090454
      4.39191      5.39289     14.79009        -0.504305     -0.240213     -2.249717
      1.67641     15.57601     16.79042        25.755811     10.288933    -41.854691
      4.39191      5.39289      6.78875        -3.903653    -66.319696     13.892479
      1.67641     15.57601      8.78909         1.532700      1.905372      4.832548
      4.39191      9.46614     10.78942         0.184685     -0.075265      0.230257
      1.67641      3.35626     12.78976         0.349425     -0.039064     -0.084692
      4.39191     13.53939     14.79009        -1.178286      0.056324      1.459387
      1.67641      7.42951     16.79042       -73.572917    -47.289799     -1.313207
    total drift:                                0.452845     -0.061519      0.304277

  FREE ENERGIE OF THE ION-ELECTRON SYSTEM (eV)
  free  energy   TOTEN  =      1569.18223037 eV

  energy  without entropy=     1569.18390139  energy(sigma->0) =     1569.18306588