 vasp.6.4.3 19Mar24 (build Oct 22 2024 11:23:12) complex

 executed on             LinuxIFC date 2025.04.30  03:26:56

 INCAR:
   SYSTEM = Si001 and Ge001 interface calculation
   ISTART = 0
   ICHARG = 2
   LWAVE = .FALSE.
   LREAL = AUTO
   ENCUT = 700
   ENAUG = 900
   ADDGRID = .TRUE.
   LMAXMIX = 6
   LASPH = .TRUE.
   LMIXTAU = .TRUE.
   NCORE = 16
   NELM = 100
   NBANDS = 106
   EDIFF = 1d-7
   AMIX = 0.6
   ISMEAR = 0
   SIGMA = 0.01
   NELECT = 176
   ISPIN = 2
   NUPDOWN = 1
   LVTOT = .FALSE.
   LVHAR = .TRUE.

 POTCAR:    PAW_PBE Si 05Jan2001
 POTCAR:    PAW_PBE Ge 05Jan2001
|           W    W    AA    RRRRR   N    N  II  N    N   GGGG   !!!           |
|           W    W   A  A   R    R  NN   N  II  NN   N  G    G  !!!           |
|           W    W  A    A  R    R  N N  N  II  N N  N  G       !!!           |
|           W WW W  AAAAAA  RRRRR   N  N N  II  N  N N  G  GGG   !            |
|           WW  WW  A    A  R   R   N   NN  II  N   NN  G    G                |
|           W    W  A    A  R    R  N    N  II  N    N   GGGG   !!!           |
|     You use a magnetic or noncollinear calculation, but did not specify     |
|     the initial magnetic moment with the MAGMOM tag. Note that a            |
|     default of 0.023 will be used for all atoms. This ferromagnetic         |
|     setup may break the symmetry of the crystal, in particular it may       |
|     rule out finding an antiferromagnetic solution. Thence, we              |
|     recommend setting the initial magnetic moment manually or verifying     |
|     carefully that this magnetic setup is desired.                          |

 POTCAR:    PAW_PBE Si 05Jan2001
   VRHFIN =Si: s2p2

   TITEL  = PAW_PBE Si 05Jan2001
   POMASS =   28.085; ZVAL   =    4.000    mass and valenz
   ENMAX  =  245.345; ENMIN  =  184.009 eV

 POTCAR:    PAW_PBE Ge 05Jan2001
   VRHFIN =Ge: s2p2

   TITEL  = PAW_PBE Ge 05Jan2001
   POMASS =   72.610; ZVAL   =    4.000    mass and valenz
   ENMAX  =  173.807; ENMIN  =  130.355 eV

 Optimization of the real space projectors (new method)

 maximal supplied QI-value         = 19.84
 optimisation between [QCUT,QGAM] = [ 13.49, 26.99] = [ 50.98,203.92] Ry
 Optimized for a Real-space Cutoff    1.07 Angstroem

   l    n(q)    QCUT    max X(q) W(low)/X(q) W(high)/X(q)  e(spline)
   0      9    13.493   159.560    0.22E-03    0.15E-03    0.72E-07
   0      9    13.493   115.863    0.21E-03    0.15E-03    0.71E-07
   1      8    13.493    88.339    0.15E-03    0.11E-03    0.13E-06
   1      8    13.493    48.592    0.15E-03    0.10E-03    0.13E-06
 Optimization of the real space projectors (new method)

 maximal supplied QI-value         = 16.25
 optimisation between [QCUT,QGAM] = [ 13.49, 26.98] = [ 50.95,203.80] Ry
 Optimized for a Real-space Cutoff    1.25 Angstroem

   l    n(q)    QCUT    max X(q) W(low)/X(q) W(high)/X(q)  e(spline)
   0     10    13.489    65.336    0.91E-04    0.11E-03    0.34E-06
   0     10    13.489    52.220    0.89E-04    0.11E-03    0.34E-06
   1     10    13.489    36.409    0.22E-03    0.27E-03    0.14E-06
   1     10    13.489    21.334    0.21E-03    0.27E-03    0.14E-06
   2      9    13.489     4.673    0.11E-03    0.12E-03    0.19E-06
  PAW_PBE Si 05Jan2001                  :
  PAW_PBE Ge 05Jan2001                  :

 POSCAR: fcc Si+fcc Ge
  positions in direct lattice

 exchange-correlation table for PE
   RHO(1)=    0.500       N(1)  =     2000
   RHO(2)=  100.500       N(2)  =     4000

 ion  position               nearest neighbor table
   1  0.250  0.000  0.044-  11 2.37  17 2.37  12 2.37  18 2.37  44 2.89
   2  0.750  0.000  0.133-  12 2.37  18 2.37  13 2.37  19 2.37
   3  0.250  0.000  0.222-  13 2.37  19 2.37  14 2.37  20 2.37
   4  0.750  0.000  0.311-  14 2.37  20 2.37  15 2.37  21 2.37
   5  0.250  0.000  0.400-  15 2.37  21 2.37  16 2.37  22 2.37
   6  0.750  0.500  0.044-  11 2.37  17 2.37  12 2.37  18 2.37  38 2.89
   7  0.250  0.500  0.133-  12 2.37  18 2.37  13 2.37  19 2.37
   8  0.750  0.500  0.222-  13 2.37  19 2.37  14 2.37  20 2.37
   9  0.250  0.500  0.311-  14 2.37  20 2.37  15 2.37  21 2.37
  10  0.750  0.500  0.400-  15 2.37  21 2.37  16 2.37  22 2.37
  11  0.000  0.250  0.000-   1 2.37   6 2.37  38 2.48  44 2.48
  12  0.500  0.250  0.089-   2 2.37   7 2.37   6 2.37   1 2.37
  13  0.000  0.250  0.178-   3 2.37   8 2.37   7 2.37   2 2.37
  14  0.500  0.250  0.266-   3 2.37   4 2.37   8 2.37   9 2.37
  15  0.000  0.250  0.355-   5 2.37  10 2.37   9 2.37   4 2.37
  16  0.500  0.250  0.444-   5 2.37  10 2.37  33 2.48  39 2.48  23 2.94
  17  0.500  0.750  0.000-   1 2.37   6 2.37  38 2.48  44 2.48
  18  0.000  0.750  0.089-   2 2.37   7 2.37   6 2.37   1 2.37
  19  0.500  0.750  0.178-   3 2.37   8 2.37   7 2.37   2 2.37
  20  0.000  0.750  0.266-   3 2.37   4 2.37   8 2.37   9 2.37
  21  0.500  0.750  0.355-   5 2.37  10 2.37   9 2.37   4 2.37
  22  0.000  0.750  0.444-   5 2.37  10 2.37  33 2.48  39 2.48  28 2.94
  23  0.546  0.296  0.539-  33 2.40  39 2.40  34 2.40  40 2.40  16 2.94
  24  0.046  0.296  0.630-  34 2.40  35 2.40  40 2.40  41 2.40
  25  0.546  0.296  0.722-  35 2.40  41 2.40  36 2.40  42 2.40
  26  0.046  0.296  0.814-  36 2.40  37 2.40  42 2.40  43 2.40
  27  0.546  0.296  0.906-  37 2.40  38 2.40  43 2.40  44 2.40
  28  0.046  0.796  0.539-  33 2.40  39 2.40  34 2.40  40 2.40  22 2.94
  29  0.546  0.796  0.630-  34 2.40  35 2.40  40 2.40  41 2.40
  30  0.046  0.796  0.722-  35 2.40  41 2.40  36 2.40  42 2.40
  31  0.546  0.796  0.814-  36 2.40  37 2.40  42 2.40  43 2.40
  32  0.046  0.796  0.906-  37 2.40  38 2.40  43 2.40  44 2.40
  33  0.296  0.546  0.493-  23 2.40  28 2.40  16 2.48  22 2.48
  34  0.796  0.546  0.584-  24 2.40  29 2.40  28 2.40  23 2.40
  35  0.296  0.546  0.676-  25 2.40  30 2.40  29 2.40  24 2.40
  36  0.796  0.546  0.768-  25 2.40  26 2.40  30 2.40  31 2.40
  37  0.296  0.546  0.860-  26 2.40  27 2.40  31 2.40  32 2.40
  38  0.796  0.546  0.951-  27 2.40  32 2.40  11 2.48  17 2.48   6 2.89
  39  0.796  0.046  0.493-  23 2.40  28 2.40  16 2.48  22 2.48
  40  0.296  0.046  0.584-  24 2.40  29 2.40  28 2.40  23 2.40
  41  0.796  0.046  0.676-  25 2.40  30 2.40  29 2.40  24 2.40
  42  0.296  0.046  0.768-  25 2.40  26 2.40  30 2.40  31 2.40
  43  0.796  0.046  0.860-  26 2.40  27 2.40  31 2.40  32 2.40
  44  0.296  0.046  0.951-  27 2.40  32 2.40  11 2.48  17 2.48   1 2.89

  LATTYP: Found a simple tetragonal cell.
 ALAT       =     5.4800000000
 C/A-ratio  =     5.6295620438

  Lattice vectors:

 A1 = (   5.4800000000,   0.0000000000,   0.0000000000)
 A2 = (   0.0000000000,   5.4800000000,   0.0000000000)
 A3 = (   0.0000000000,   0.0000000000,  30.8500000000)

Analysis of symmetry for initial positions (statically):
 Subroutine PRICEL returns following result:

[...]

   2 primitive cells build up your supercell.

 Routine SETGRP: Setting up the symmetry group for a
 simple tetragonal supercell.

 Subroutine GETGRP returns: Found  2 space group operations
 (whereof  1 operations were pure point group operations)
 out of a pool of 16 trial point group operations.

The static configuration has the point symmetry C_1 .
 The point group associated with its full space group is C_1h.

Analysis of symmetry for dynamics (positions and initial velocities):
 Subroutine PRICEL returns following result:

[...]

The dynamic configuration has the point symmetry C_1 .
 The point group associated with its full space group is C_1h.

Analysis of structural, dynamic, and magnetic symmetry:
 Subroutine PRICEL returns following result:

  LATTYP: Found a simple tetragonal cell.
 ALAT       =     3.8749451609
 C/A-ratio  =     7.9614029926

  Lattice vectors:

 A1 = (   2.7400000000,  -2.7400000000,   0.0000000000)
 A2 = (   2.7400000000,   2.7400000000,   0.0000000000)
 A3 = (   0.0000000000,   0.0000000000,  30.8500000000)

   2 primitive cells build up your supercell.

 Routine SETGRP: Setting up the symmetry group for a
 simple tetragonal supercell.

 Subroutine GETGRP returns: Found  2 space group operations
 (whereof  1 operations were pure point group operations)
 out of a pool of 16 trial point group operations.

The overall configuration has the point symmetry C_1 .
 The point group associated with its full space group is C_1h.

 Subroutine INISYM returns: Found  2 space group operations
 (whereof  1 operations are pure point group operations),
 and found     2 'primitive' translations

                                     Primitive cell

  volume of cell :     463.2189

  direct lattice vectors                    reciprocal lattice vectors
     2.740000000 -2.740000000  0.000000000     0.182481752 -0.182481752  0.000000000
     2.740000000  2.740000000  0.000000000     0.182481752  0.182481752  0.000000000
     0.000000000  0.000000000 30.850000000     0.000000000  0.000000000  0.032414911

  length of vectors
     3.874945161  3.874945161 30.850000000     0.258068168  0.258068168  0.032414911

  position of ions in fractional coordinates (direct lattice)
     0.250000000  0.250000000  0.044408428
     0.750000000  0.750000000  0.133225284
     0.250000000  0.250000000  0.222042139
     0.750000000  0.750000000  0.310858995
     0.250000000  0.250000000  0.399675851
     0.750000000  0.250000000  0.000000000
     0.250000000  0.750000000  0.088816856
     0.750000000  0.250000000  0.177633712
     0.250000000  0.750000000  0.266450567
     0.750000000  0.250000000  0.355267423
     0.250000000  0.750000000  0.444084279
     0.250000000  0.842592592  0.538573744
     0.750000000  0.342592592  0.630307942
     0.250000000  0.842592592  0.722042139
     0.750000000  0.342592592  0.813776337
     0.250000000  0.842592592  0.905510535
     0.750000000  0.842592592  0.492706645
     0.250000000  0.342592592  0.584440843
     0.750000000  0.842592592  0.676175041
     0.250000000  0.342592592  0.767909238
     0.750000000  0.842592592  0.859643436
     0.250000000  0.342592592  0.951377634

  ion indices of the primitive-cell ions
   primitive index   ion index
                 1           1
                 2           2
                 3           3
                 4           4
                 5           5
                 6          11
                 7          12
                 8          13
                 9          14
                10          15
                11          16
                12          28
                13          24
                14          30
                15          26
                16          32
                17          33
                18          40
                19          35
                20          42
                21          37
                22          44

 KPOINTS: Automatic KPOINTS generated

Automatic generation of k-mesh.
 Grid dimensions read from file:
 generate k-points for:    6    6    1

 Generating k-lattice:

  Cartesian coordinates                     Fractional coordinates (reciprocal lattice)
     0.030413625  0.000000000  0.000000000     0.166666667  0.000000000  0.000000000
     0.000000000  0.030413625  0.000000000     0.000000000  0.166666667  0.000000000
[...]
     17      -4.9483      1.00000
     18      -4.9408      1.00000
     19      -4.9402      1.00000
     20      -4.9198      1.00000
     21      -4.4716      1.00000
     22      -3.7478      1.00000
     23      -3.6485      1.00000
     24      -3.6170      1.00000
     25      -3.0651      1.00000
     26      -2.8574      1.00000
     27      -2.6755      1.00000
     28      -2.6417      1.00000
     29      -2.6330      1.00000
     30      -2.3182      1.00000
     31      -2.1304      1.00000
     32      -2.0842      1.00000
     33      -2.0651      1.00000
     34      -1.9805      1.00000
     35      -1.9274      1.00000
     36      -1.9149      1.00000
     37      -1.6776      1.00000
     38      -1.3925      1.00000
     39      -1.3032      1.00000
     40      -1.2594      1.00000
     41      -0.9108      1.00000
     42      -0.7570      1.00000
     43      -0.4648      1.00000
     44      -0.4594      1.00000
     45       0.3322      1.00000
     46       0.7745      1.00000
     47       0.8495      1.00000
     48       0.8963      1.00000
     49       0.9866      1.00000
     50       1.2671      1.00000
     51       1.3417      1.00000
     52       1.3715      1.00000
     53       1.6922      1.00000
     54       1.9960      1.00000
     55       2.1870      1.00000
     56       2.2469      1.00000
     57       2.2820      1.00000
     58       2.3934      1.00000
     59       2.4621      1.00000
     60       2.4729      1.00000
[...]
     92       5.8687      0.00000
     93       6.0647      0.00000
     94       6.1932      0.00000
     95       6.2466      0.00000
     96       6.2701      0.00000
     97       6.3068      0.00000
     98       6.3850      0.00000
     99       6.4894      0.00000
    100       6.6107      0.00000
    101       6.6378      0.00000
    102       6.6829      0.00000
    103       6.8422      0.00000
    104       6.9400      0.00000
    105       7.0242      0.00000
    106       7.0510      0.00000
 Fermi energy:         4.8569283818

 spin component 2

[...]

 k-point    13 :       0.5000    0.5000    0.0000
  band No.  band energies     occupation
      1      -6.7203      1.00000
      2      -6.3501      1.00000
      3      -6.1998      1.00000
      4      -6.1864      1.00000
      5      -6.1696      1.00000
      6      -6.1637      1.00000
      7      -6.1323      1.00000
      8      -6.0895      1.00000
      9      -6.0563      1.00000
     10      -6.0516      1.00000
     11      -5.9849      1.00000
     12      -5.1054      1.00000
     13      -5.0818      1.00000
     14      -5.0777      1.00000
     15      -5.0577      1.00000
     16      -5.0268      1.00000
     17      -4.9390      1.00000
     18      -4.9306      1.00000
     19      -4.9209      1.00000
     20      -4.9057      1.00000
     21      -4.4393      1.00000
     22      -3.7019      1.00000
     23      -3.6039      1.00000
     24      -3.5638      1.00000
     25      -3.0335      1.00000
     26      -2.8164      1.00000
     27      -2.6611      1.00000
     28      -2.6266      1.00000
     29      -2.6215      1.00000
     30      -2.3018      1.00000
     31      -2.1143      1.00000
     32      -2.0677      1.00000
     33      -2.0525      1.00000
     34      -1.9672      1.00000
     35      -1.9148      1.00000
     36      -1.9051      1.00000
     37      -1.6662      1.00000
     38      -1.3747      1.00000
     39      -1.2873      1.00000
     40      -1.2474      1.00000
     41      -0.8793      1.00000
     42      -0.7315      1.00000
     43      -0.4345      1.00000
     44      -0.4261      1.00000
     45       0.3632      1.00000
     46       0.8115      1.00000
     47       0.8742      1.00000
     48       0.9173      1.00000
     49       1.0138      1.00000
     50       1.2853      1.00000
     51       1.3584      1.00000
     52       1.3834      1.00000
     53       1.7187      1.00000
     54       2.0117      1.00000
     55       2.2048      1.00000
     56       2.2697      1.00000
     57       2.3010      1.00000
     58       2.4137      1.00000
     59       2.5120      1.00000
     60       2.5159      1.00000
[...]
     92       5.9250      0.00000
     93       6.1282      0.00000
     94       6.2098      0.00000
     95       6.2633      0.00000
     96       6.3235      0.00000
     97       6.3381      0.00000
     98       6.4220      0.00000
     99       6.5168      0.00000
    100       6.6389      0.00000
    101       6.6534      0.00000
    102       6.6989      0.00000
    103       6.8684      0.00000
    104       6.9584      0.00000
    105       7.0350      0.00000
    106       7.0733      0.00000

 soft charge-density along one line, spin component           1
         0         1         2         3         4         5         6         7         8         9
 total charge-density along one line

 soft charge-density along one line, spin component           2
         0         1         2         3         4         5         6         7         8         9
 total charge-density along one line

------------------------ aborting loop because EDIFF is reached ----------------------------------------

  FORCE on cell =-STRESS in cart. coord.  units (eV):
  Direction    XX          YY          ZZ          XY          YZ          ZX
  Alpha Z   234.88029   234.88029   234.88029
  Ewald   -1676.83439 -1676.83439 -1560.32376  -114.89405    -0.44957    -0.44957
  Hartree   114.80121   114.80121   121.53870   -27.81783    -0.21937    -0.21937
  E(xc)    -584.26663  -584.26663  -584.14556     0.02916    -0.02535    -0.02535
  Local    -555.96897  -555.96897  -667.20534   131.34709     0.66499     0.66499
  n-local  1301.55731  1296.50128  1301.54006    -4.83255     0.11915     0.06998
  augment  -102.48795  -102.48795  -102.45704    -0.46295    -0.01406    -0.01116
  Kinetic  1278.12488  1309.95633  1295.10071    14.30703    -0.26840    -0.34296
  Fock        0.00000     0.00000     0.00000     0.00000     0.00000     0.00000
  Total      23.19346    23.19346    38.92805    -2.32398    -0.25300    -0.25300
  in kB      40.11066    40.11066    67.32199    -4.01908    -0.43753    -0.43753

 VOLUME and BASIS-vectors are now :
  energy-cutoff  :      700.00
  volume of cell :      926.44
      direct lattice vectors                 reciprocal lattice vectors
     5.480000000  0.000000000  0.000000000     0.182481752  0.000000000  0.000000000
     0.000000000  5.480000000  0.000000000     0.000000000  0.182481752  0.000000000
     0.000000000  0.000000000 30.850000000     0.000000000  0.000000000  0.032414911

  length of vectors
     5.480000000  5.480000000 30.850000000     0.182481752  0.182481752  0.032414911

 FORCES acting on ions
    electron-ion (+dipol)            ewald-force                    non-local-force                 convergence-correction
   0.699E+00 0.699E+00 0.110E+02   -.798E+00 -.798E+00 -.101E+02   0.498E-01 0.498E-01 0.146E+00   -.114E-04 -.114E-04 0.112E-02
   -.295E-01 -.295E-01 0.909E+01   0.721E-02 0.721E-02 -.897E+01   0.867E-02 0.867E-02 -.121E+00   0.234E-05 0.234E-05 0.158E-02
   -.109E-01 -.109E-01 -.438E-01   0.183E-04 0.183E-04 0.926E-03   0.652E-02 0.652E-02 0.415E-01   -.409E-06 -.409E-06 0.909E-03
   -.294E-02 -.294E-02 -.897E+01   -.941E-02 -.941E-02 0.889E+01   0.707E-02 0.707E-02 0.107E+00   0.256E-05 0.256E-05 0.185E-04
   -.767E+00 -.767E+00 -.171E+02   0.633E+00 0.633E+00 0.168E+02   0.108E+00 0.108E+00 0.147E+00   -.103E-05 -.103E-05 0.396E-03
   0.699E+00 0.699E+00 0.110E+02   -.798E+00 -.798E+00 -.101E+02   0.498E-01 0.498E-01 0.146E+00   -.114E-04 -.114E-04 0.112E-02
   -.295E-01 -.295E-01 0.909E+01   0.721E-02 0.721E-02 -.897E+01   0.867E-02 0.867E-02 -.121E+00   0.234E-05 0.234E-05 0.158E-02
   -.109E-01 -.109E-01 -.438E-01   0.183E-04 0.183E-04 0.926E-03   0.652E-02 0.652E-02 0.415E-01   -.409E-06 -.409E-06 0.909E-03
   -.294E-02 -.294E-02 -.897E+01   -.941E-02 -.941E-02 0.889E+01   0.707E-02 0.707E-02 0.107E+00   0.256E-05 0.256E-05 0.185E-04
   -.767E+00 -.767E+00 -.171E+02   0.633E+00 0.633E+00 0.168E+02   0.108E+00 0.108E+00 0.147E+00   -.103E-05 -.103E-05 0.396E-03
   0.208E+01 0.208E+01 0.209E+02   -.302E+01 -.302E+01 -.195E+02   0.893E+00 0.893E+00 -.136E+01   -.136E-05 -.136E-05 0.504E-03
   0.118E+00 0.118E+00 0.135E+02   0.748E-01 0.748E-01 -.133E+02   -.201E+00 -.201E+00 0.549E-01   0.940E-05 0.940E-05 0.148E-02
   0.111E-01 0.111E-01 0.441E+01   -.787E-03 -.787E-03 -.444E+01   -.719E-02 -.719E-02 0.151E-01   -.211E-05 -.211E-05 0.137E-02
   -.233E-02 -.233E-02 -.454E+01   -.972E-03 -.972E-03 0.444E+01   0.529E-02 0.529E-02 0.884E-01   -.322E-06 -.322E-06 0.323E-03
   -.790E-01 -.790E-01 -.137E+02   0.903E-01 0.903E-01 0.134E+02   0.813E-02 0.813E-02 0.379E+00   -.378E-05 -.378E-05 0.934E-04
   0.441E+01 0.441E+01 -.144E+02   -.435E+01 -.435E+01 0.132E+02   -.163E+00 -.163E+00 0.271E+00   -.652E-05 -.652E-05 0.573E-03
   0.208E+01 0.208E+01 0.209E+02   -.302E+01 -.302E+01 -.195E+02   0.893E+00 0.893E+00 -.136E+01   -.136E-05 -.136E-05 0.504E-03
   0.118E+00 0.118E+00 0.135E+02   0.748E-01 0.748E-01 -.133E+02   -.201E+00 -.201E+00 0.549E-01   0.940E-05 0.940E-05 0.148E-02
   0.111E-01 0.111E-01 0.441E+01   -.787E-03 -.787E-03 -.444E+01   -.719E-02 -.719E-02 0.151E-01   -.211E-05 -.211E-05 0.137E-02
   -.233E-02 -.233E-02 -.454E+01   -.972E-03 -.972E-03 0.444E+01   0.529E-02 0.529E-02 0.884E-01   -.322E-06 -.322E-06 0.323E-03
   -.790E-01 -.790E-01 -.137E+02   0.903E-01 0.903E-01 0.134E+02   0.813E-02 0.813E-02 0.379E+00   -.378E-05 -.378E-05 0.934E-04
   0.441E+01 0.441E+01 -.144E+02   -.435E+01 -.435E+01 0.132E+02   -.163E+00 -.163E+00 0.271E+00   -.652E-05 -.652E-05 0.573E-03
   -.704E+00 -.704E+00 -.132E+02   0.730E+00 0.730E+00 0.139E+02   -.382E-01 -.382E-01 0.405E+00   0.234E-06 0.234E-06 -.673E-03
   0.221E-01 0.221E-01 -.333E+01   -.575E-02 -.575E-02 0.343E+01   -.996E-04 -.996E-04 -.901E-01   -.641E-07 -.641E-07 -.522E-03
   0.121E-01 0.121E-01 0.367E-01   -.136E-04 -.136E-04 0.642E-03   -.158E-01 -.158E-01 -.103E-01   0.183E-05 0.183E-05 -.571E-03
   0.175E-01 0.175E-01 0.355E+01   0.758E-02 0.758E-02 -.349E+01   -.266E-01 -.266E-01 -.603E-01   0.108E-05 0.108E-05 -.127E-02
   0.665E+00 0.665E+00 0.752E+01   -.597E+00 -.597E+00 -.763E+01   -.608E-01 -.608E-01 -.214E+00   -.118E-04 -.118E-04 -.107E-02
   -.704E+00 -.704E+00 -.132E+02   0.730E+00 0.730E+00 0.139E+02   -.382E-01 -.382E-01 0.405E+00   0.234E-06 0.234E-06 -.673E-03
   0.221E-01 0.221E-01 -.333E+01   -.575E-02 -.575E-02 0.343E+01   -.996E-04 -.996E-04 -.901E-01   -.641E-07 -.641E-07 -.522E-03
   0.121E-01 0.121E-01 0.367E-01   -.136E-04 -.136E-04 0.642E-03   -.158E-01 -.158E-01 -.103E-01   0.183E-05 0.183E-05 -.571E-03
   0.175E-01 0.175E-01 0.355E+01   0.758E-02 0.758E-02 -.349E+01   -.266E-01 -.266E-01 -.603E-01   0.108E-05 0.108E-05 -.127E-02
   0.665E+00 0.665E+00 0.752E+01   -.597E+00 -.597E+00 -.763E+01   -.608E-01 -.608E-01 -.214E+00   -.118E-04 -.118E-04 -.107E-02
   -.230E+01 -.230E+01 -.106E+02   0.297E+01 0.297E+01 0.980E+01   -.581E+00 -.581E+00 -.511E+00   0.130E-04 0.130E-04 -.267E-05
   -.472E-05 -.472E-05 -.509E+01   -.638E-01 -.638E-01 0.528E+01   0.671E-01 0.671E-01 0.185E+00   -.745E-06 -.745E-06 -.791E-03
   0.100E-01 0.100E-01 -.173E+01   0.584E-03 0.584E-03 0.175E+01   -.267E-01 -.267E-01 -.807E-02   -.872E-07 -.872E-07 -.396E-03
   0.505E-02 0.505E-02 0.178E+01   0.731E-03 0.731E-03 -.175E+01   -.150E-01 -.150E-01 -.529E-01   -.159E-05 -.159E-05 -.935E-03
   0.674E-01 0.674E-01 0.516E+01   -.781E-01 -.781E-01 -.521E+01   -.117E-03 -.117E-03 0.457E-01   -.219E-05 -.219E-05 -.142E-02
   -.437E+01 -.437E+01 0.166E+02   0.440E+01 0.440E+01 -.165E+02   0.722E-01 0.722E-01 -.170E+00   0.355E-04 0.355E-04 -.375E-03
   -.230E+01 -.230E+01 -.106E+02   0.297E+01 0.297E+01 0.980E+01   -.581E+00 -.581E+00 -.511E+00   0.130E-04 0.130E-04 -.267E-05
   -.472E-05 -.472E-05 -.509E+01   -.638E-01 -.638E-01 0.528E+01   0.671E-01 0.671E-01 0.185E+00   -.745E-06 -.745E-06 -.791E-03
   0.100E-01 0.100E-01 -.173E+01   0.584E-03 0.584E-03 0.175E+01   -.267E-01 -.267E-01 -.807E-02   -.872E-07 -.872E-07 -.396E-03
   0.505E-02 0.505E-02 0.178E+01   0.731E-03 0.731E-03 -.175E+01   -.150E-01 -.150E-01 -.529E-01   -.159E-05 -.159E-05 -.935E-03
   0.674E-01 0.674E-01 0.516E+01   -.781E-01 -.781E-01 -.521E+01   -.117E-03 -.117E-03 0.457E-01   -.219E-05 -.219E-05 -.142E-02
   -.437E+01 -.437E+01 0.166E+02   0.440E+01 0.440E+01 -.165E+02   0.722E-01 0.722E-01 -.170E+00   0.355E-04 0.355E-04 -.375E-03
   -.293E+00 -.293E+00 0.145E+01   0.213E-13 -.142E-13 0.757E-12   0.179E+00 0.179E+00 -.142E+01   0.451E-04 0.451E-04 0.699E-03

 POSITION                                       TOTAL-FORCE (eV/Angst)
      1.37000      0.00000      1.37000        -0.045837     -0.045837      1.037426
      4.11000      0.00000      4.11000        -0.011029     -0.011029      0.001437
      1.37000      0.00000      6.85000        -0.001803     -0.001803     -0.001161
      4.11000      0.00000      9.59000        -0.002696     -0.002696      0.023659
      1.37000      0.00000     12.33000        -0.023616     -0.023616     -0.153666
      4.11000      2.74000      1.37000        -0.045837     -0.045837      1.037426
      1.37000      2.74000      4.11000        -0.011029     -0.011029      0.001437
      4.11000      2.74000      6.85000        -0.001803     -0.001803     -0.001161
      1.37000      2.74000      9.59000        -0.002696     -0.002696      0.023659
      4.11000      2.74000     12.33000        -0.023616     -0.023616     -0.153666
      0.00000      1.37000      0.00000        -0.042943     -0.042943      0.047204
      2.74000      1.37000      2.74000        -0.005965     -0.005965      0.249229
      0.00000      1.37000      5.48000         0.005665      0.005665     -0.009789
      2.74000      1.37000      8.22000         0.004589      0.004589     -0.013534
      0.00000      1.37000     10.96000         0.022034      0.022034      0.003975
      2.74000      1.37000     13.70000        -0.097200     -0.097200     -0.904575
      2.74000      4.11000      0.00000        -0.042943     -0.042943      0.047204
      0.00000      4.11000      2.74000        -0.005965     -0.005965      0.249229
      2.74000      4.11000      5.48000         0.005665      0.005665     -0.009789
      0.00000      4.11000      8.22000         0.004589      0.004589     -0.013534
      2.74000      4.11000     10.96000         0.022034      0.022034      0.003975
      0.00000      4.11000     13.70000        -0.097200     -0.097200     -0.904575
      2.99370      1.62370     16.61500        -0.010290     -0.010290      1.079587
      0.25370      1.62370     19.44500         0.018884      0.018884      0.003969
      2.99370      1.62370     22.27500        -0.001035     -0.001035      0.025804
      0.25370      1.62370     25.10500         0.001098      0.001098     -0.000954
      2.99370      1.62370     27.93500         0.009254      0.009254     -0.329865
      0.25370      4.36370     16.61500        -0.010290     -0.010290      1.079587
      2.99370      4.36370     19.44500         0.018884      0.018884      0.003969
      0.25370      4.36370     22.27500        -0.001035     -0.001035      0.025804
      2.99370      4.36370     25.10500         0.001098      0.001098     -0.000954
      0.25370      4.36370     27.93500         0.009254      0.009254     -0.329865
      1.62370      2.99370     15.20000         0.095697      0.095697     -1.303856
      4.36370      2.99370     18.03000         0.005902      0.005902      0.373458
      1.62370      2.99370     20.86000        -0.013539     -0.013539      0.005764
      4.36370      2.99370     23.69000        -0.006661     -0.006661     -0.028886
      1.62370      2.99370     26.52000        -0.008260     -0.008260     -0.010942
      4.36370      2.99370     29.35000         0.107753      0.107753     -0.094283
      4.36370      0.25370     15.20000         0.095697      0.095697     -1.303856
      1.62370      0.25370     18.03000         0.005902      0.005902      0.373458
      4.36370      0.25370     20.86000        -0.013539     -0.013539      0.005764
      1.62370      0.25370     23.69000        -0.006661     -0.006661     -0.028886
      4.36370      0.25370     26.52000        -0.008260     -0.008260     -0.010942
      1.62370      0.25370     29.35000         0.107753      0.107753     -0.094283
    total drift:                               -0.114066     -0.114066      0.031696

  FREE ENERGIE OF THE ION-ELECTRON SYSTEM (eV)
  free  energy   TOTEN  =      -209.16670242 eV

  energy  without entropy=     -209.16581283  energy(sigma->0) =     -209.16625763