 vasp.6.4.3 19Mar24 (build Oct 22 2024 11:23:12) complex

 executed on             LinuxIFC date 2025.04.30  02:14:55

 INCAR:
   SYSTEM = Si001 and Ge001 interface calculation
   ISTART = 0
   ICHARG = 2
   LWAVE = .FALSE.
   LREAL = AUTO
   ENCUT = 700
   ENAUG = 900
   ADDGRID = .TRUE.
   LMAXMIX = 6
   LASPH = .TRUE.
   LMIXTAU = .TRUE.
   NCORE = 16
   NELM = 100
   NBANDS = 106
   EDIFF = 1d-7
   AMIX = 0.6
   ISMEAR = 0
   SIGMA = 0.01
   NELECT = 176
   ISPIN = 2
   NUPDOWN = 1
   LVTOT = .FALSE.
   LVHAR = .TRUE.

 POTCAR:    PAW_PBE Si 05Jan2001
 POTCAR:    PAW_PBE Ge 05Jan2001
|           W    W    AA    RRRRR   N    N  II  N    N   GGGG   !!!           |
|           W    W   A  A   R    R  NN   N  II  NN   N  G    G  !!!           |
|           W    W  A    A  R    R  N N  N  II  N N  N  G       !!!           |
|           W WW W  AAAAAA  RRRRR   N  N N  II  N  N N  G  GGG   !            |
|           WW  WW  A    A  R   R   N   NN  II  N   NN  G    G                |
|           W    W  A    A  R    R  N    N  II  N    N   GGGG   !!!           |
|     You use a magnetic or noncollinear calculation, but did not specify     |
|     the initial magnetic moment with the MAGMOM tag. Note that a            |
|     default of 0.023 will be used for all atoms. This ferromagnetic         |
|     setup may break the symmetry of the crystal, in particular it may       |
|     rule out finding an antiferromagnetic solution. Thence, we              |
|     recommend setting the initial magnetic moment manually or verifying     |
|     carefully that this magnetic setup is desired.                          |

 POTCAR:    PAW_PBE Si 05Jan2001
   VRHFIN =Si: s2p2

   TITEL  = PAW_PBE Si 05Jan2001
   POMASS =   28.085; ZVAL   =    4.000    mass and valenz
   ENMAX  =  245.345; ENMIN  =  184.009 eV

 POTCAR:    PAW_PBE Ge 05Jan2001
   VRHFIN =Ge: s2p2

   TITEL  = PAW_PBE Ge 05Jan2001
   POMASS =   72.610; ZVAL   =    4.000    mass and valenz
   ENMAX  =  173.807; ENMIN  =  130.355 eV

 Optimization of the real space projectors (new method)

 maximal supplied QI-value         = 19.84
 optimisation between [QCUT,QGAM] = [ 13.49, 26.99] = [ 50.98,203.92] Ry
 Optimized for a Real-space Cutoff    1.07 Angstroem

   l    n(q)    QCUT    max X(q) W(low)/X(q) W(high)/X(q)  e(spline)
   0      9    13.493   159.560    0.22E-03    0.15E-03    0.72E-07
   0      9    13.493   115.863    0.21E-03    0.15E-03    0.71E-07
   1      8    13.493    88.339    0.15E-03    0.11E-03    0.13E-06
   1      8    13.493    48.592    0.15E-03    0.10E-03    0.13E-06
 Optimization of the real space projectors (new method)

 maximal supplied QI-value         = 16.25
 optimisation between [QCUT,QGAM] = [ 13.49, 26.98] = [ 50.95,203.80] Ry
 Optimized for a Real-space Cutoff    1.25 Angstroem

   l    n(q)    QCUT    max X(q) W(low)/X(q) W(high)/X(q)  e(spline)
   0     10    13.489    65.336    0.91E-04    0.11E-03    0.34E-06
   0     10    13.489    52.220    0.89E-04    0.11E-03    0.34E-06
   1     10    13.489    36.409    0.22E-03    0.27E-03    0.14E-06
   1     10    13.489    21.334    0.21E-03    0.27E-03    0.14E-06
   2      9    13.489     4.673    0.11E-03    0.12E-03    0.19E-06
  PAW_PBE Si 05Jan2001                  :
  PAW_PBE Ge 05Jan2001                  :

 POSCAR: fcc Si+fcc Ge
  positions in direct lattice

 exchange-correlation table for PE
   RHO(1)=    0.500       N(1)  =     2000
   RHO(2)=  100.500       N(2)  =     4000

 ion  position               nearest neighbor table
   1  0.250  0.000  0.045-  12 2.37  18 2.37  17 2.37  11 2.37  34 2.81
   2  0.750  0.000  0.134-  13 2.37  19 2.37  18 2.37  12 2.37
   3  0.250  0.000  0.223-  14 2.37  20 2.37  19 2.37  13 2.37
   4  0.750  0.000  0.313-  15 2.37  21 2.37  20 2.37  14 2.37
   5  0.250  0.000  0.402-  16 2.37  22 2.37  21 2.37  15 2.37
   6  0.750  0.500  0.045-  12 2.37  18 2.37  17 2.37  11 2.37  28 2.81
   7  0.250  0.500  0.134-  13 2.37  19 2.37  18 2.37  12 2.37
   8  0.750  0.500  0.223-  14 2.37  20 2.37  19 2.37  13 2.37
   9  0.250  0.500  0.313-  15 2.37  21 2.37  20 2.37  14 2.37
  10  0.750  0.500  0.402-  16 2.37  22 2.37  21 2.37  15 2.37
  11  0.000  0.250  0.000-   1 2.37   6 2.37  34 2.41  28 2.46  44 2.85
  12  0.500  0.250  0.089-   1 2.37   6 2.37   2 2.37   7 2.37
  13  0.000  0.250  0.179-   2 2.37   7 2.37   3 2.37   8 2.37
  14  0.500  0.250  0.268-   3 2.37   8 2.37   4 2.37   9 2.37
  15  0.000  0.250  0.358-   4 2.37   9 2.37   5 2.37  10 2.37
  16  0.500  0.250  0.447-   5 2.37  10 2.37  29 2.41  23 2.46
  17  0.500  0.750  0.000-   1 2.37   6 2.37  28 2.41  34 2.46  39 2.85
  18  0.000  0.750  0.089-   1 2.37   6 2.37   2 2.37   7 2.37
  19  0.500  0.750  0.179-   2 2.37   7 2.37   3 2.37   8 2.37
  20  0.000  0.750  0.268-   3 2.37   8 2.37   4 2.37   9 2.37
  21  0.500  0.750  0.358-   4 2.37   9 2.37   5 2.37  10 2.37
  22  0.000  0.750  0.447-   5 2.37  10 2.37  23 2.41  29 2.46
  23  0.185  0.444  0.493-  35 2.40  40 2.40  22 2.41  16 2.46
  24  0.685  0.444  0.585-  35 2.40  40 2.40  36 2.40  41 2.40
  25  0.185  0.444  0.677-  36 2.40  37 2.40  41 2.40  42 2.40
  26  0.685  0.444  0.770-  38 2.40  43 2.40  42 2.40  37 2.40
  27  0.185  0.444  0.862-  38 2.40  39 2.40  43 2.40  44 2.40
  28  0.685  0.444  0.954-  39 2.40  44 2.40  17 2.41  11 2.46   6 2.81
  29  0.685  0.944  0.493-  35 2.40  40 2.40  16 2.41  22 2.46
  30  0.185  0.944  0.585-  35 2.40  40 2.40  36 2.40  41 2.40
  31  0.685  0.944  0.677-  36 2.40  37 2.40  41 2.40  42 2.40
  32  0.185  0.944  0.770-  38 2.40  43 2.40  42 2.40  37 2.40
  33  0.685  0.944  0.862-  38 2.40  39 2.40  43 2.40  44 2.40
  34  0.185  0.944  0.954-  39 2.40  44 2.40  11 2.41  17 2.46   1 2.81
  35  0.435  0.694  0.539-  24 2.40  30 2.40  29 2.40  23 2.40
  36  0.935  0.694  0.631-  24 2.40  25 2.40  30 2.40  31 2.40
  37  0.435  0.694  0.723-  25 2.40  26 2.40  31 2.40  32 2.40
  38  0.935  0.694  0.816-  26 2.40  32 2.40  27 2.40  33 2.40
  39  0.435  0.694  0.908-  27 2.40  28 2.40  33 2.40  34 2.40  17 2.85
  40  0.935  0.194  0.539-  24 2.40  30 2.40  29 2.40  23 2.40
  41  0.435  0.194  0.631-  24 2.40  25 2.40  30 2.40  31 2.40
  42  0.935  0.194  0.723-  25 2.40  26 2.40  31 2.40  32 2.40
  43  0.435  0.194  0.816-  26 2.40  32 2.40  27 2.40  33 2.40
  44  0.935  0.194  0.908-  27 2.40  28 2.40  33 2.40  34 2.40  11 2.85

  LATTYP: Found a simple tetragonal cell.
 ALAT       =     5.4800000000
 C/A-ratio  =     5.5930656934

  Lattice vectors:

 A1 = (   5.4800000000,   0.0000000000,   0.0000000000)
 A2 = (   0.0000000000,   5.4800000000,   0.0000000000)
 A3 = (   0.0000000000,   0.0000000000,  30.6500000000)

Analysis of symmetry for initial positions (statically):
 Subroutine PRICEL returns following result:

[...]

   2 primitive cells build up your supercell.

 Routine SETGRP: Setting up the symmetry group for a
 simple tetragonal supercell.

 Subroutine GETGRP returns: Found  1 space group operations
 (whereof  1 operations were pure point group operations)
 out of a pool of 16 trial point group operations.

The static configuration has the point symmetry C_1 .

Analysis of symmetry for dynamics (positions and initial velocities):
 Subroutine PRICEL returns following result:

[...]

The dynamic configuration has the point symmetry C_1 .

Analysis of structural, dynamic, and magnetic symmetry:
 Subroutine PRICEL returns following result:

  LATTYP: Found a simple tetragonal cell.
 ALAT       =     3.8749451609
 C/A-ratio  =     7.9097893589

  Lattice vectors:

 A1 = (   2.7400000000,  -2.7400000000,   0.0000000000)
 A2 = (   2.7400000000,   2.7400000000,   0.0000000000)
 A3 = (   0.0000000000,   0.0000000000,  30.6500000000)

   2 primitive cells build up your supercell.

 Routine SETGRP: Setting up the symmetry group for a
 simple tetragonal supercell.

 Subroutine GETGRP returns: Found  1 space group operations
 (whereof  1 operations were pure point group operations)
 out of a pool of 16 trial point group operations.

The overall configuration has the point symmetry C_1 .

 Subroutine INISYM returns: Found  1 space group operations
 (whereof  1 operations are pure point group operations),
 and found     2 'primitive' translations

                                     Primitive cell

  volume of cell :     460.2159

  direct lattice vectors                    reciprocal lattice vectors
     2.740000000 -2.740000000  0.000000000     0.182481752 -0.182481752  0.000000000
     2.740000000  2.740000000  0.000000000     0.182481752  0.182481752  0.000000000
     0.000000000  0.000000000 30.650000000     0.000000000  0.000000000  0.032626427

  length of vectors
     3.874945161  3.874945161 30.650000000     0.258068168  0.258068168  0.032626427

  position of ions in fractional coordinates (direct lattice)
     0.250000000  0.250000000  0.044698206
     0.750000000  0.750000000  0.134094617
     0.250000000  0.250000000  0.223491028
     0.750000000  0.750000000  0.312887439
     0.250000000  0.250000000  0.402283850
     0.750000000  0.250000000  0.000000000
     0.250000000  0.750000000  0.089396411
     0.750000000  0.250000000  0.178792822
     0.250000000  0.750000000  0.268189233
     0.750000000  0.250000000  0.357585644
     0.250000000  0.750000000  0.446982055
     0.740740741  0.629629629  0.492659054
     0.240740741  0.129629629  0.584991843
     0.740740741  0.629629629  0.677324633
     0.240740741  0.129629629  0.769657423
     0.740740741  0.629629629  0.861990212
     0.240740741  0.129629629  0.954323002
     0.740740741  0.129629629  0.538825449
     0.240740741  0.629629629  0.631158238
     0.740740741  0.129629629  0.723491028
     0.240740741  0.629629629  0.815823817
     0.740740741  0.129629629  0.908156607

  ion indices of the primitive-cell ions
   primitive index   ion index
                 1           1
                 2           2
                 3           3
                 4           4
                 5           5
                 6          11
                 7          12
                 8          13
                 9          14
                10          15
                11          16
                12          29
                13          30
                14          31
                15          32
                16          33
                17          34
                18          35
                19          41
                20          37
                21          43
                22          39

 KPOINTS: Automatic KPOINTS generated

Automatic generation of k-mesh.
 Grid dimensions read from file:
 generate k-points for:    6    6    1

 Generating k-lattice:

  Cartesian coordinates                     Fractional coordinates (reciprocal lattice)
     0.030413625  0.000000000  0.000000000     0.166666667  0.000000000  0.000000000
     0.000000000  0.030413625  0.000000000     0.000000000  0.166666667  0.000000000
     0.000000000  0.000000000  0.032626427     0.000000000  0.000000000  1.000000000

  Length of vectors
     0.030413625  0.030413625  0.032626427

  Shift w.r.t. Gamma in fractional coordinates (k-lattice)
     0.000000000  0.000000000  0.000000000

[...]
     17      -4.9172      1.00000
     18      -4.9074      1.00000
     19      -4.8690      1.00000
     20      -4.8324      1.00000
     21      -4.7538      1.00000
     22      -4.2737      1.00000
     23      -4.0568      1.00000
     24      -2.7392      1.00000
     25      -2.6418      1.00000
     26      -2.6400      1.00000
     27      -2.6251      1.00000
     28      -2.3785      1.00000
     29      -2.2344      1.00000
     30      -2.1640      1.00000
     31      -2.1317      1.00000
     32      -2.0600      1.00000
     33      -1.9739      1.00000
     34      -1.9470      1.00000
     35      -1.9100      1.00000
     36      -1.6874      1.00000
     37      -1.6301      1.00000
     38      -1.5244      1.00000
     39      -1.3772      1.00000
     40      -1.1472      1.00000
     41      -1.0980      1.00000
     42      -1.0813      1.00000
     43      -1.0297      1.00000
     44       0.2069      1.00000
     45       0.7160      1.00000
     46       0.7806      1.00000
     47       0.8738      1.00000
     48       1.0981      1.00000
     49       1.1137      1.00000
     50       1.1548      1.00000
     51       1.2874      1.00000
     52       1.4371      1.00000
     53       1.8561      1.00000
     54       1.9945      1.00000
     55       2.0931      1.00000
     56       2.1204      1.00000
     57       2.3368      1.00000
     58       2.3851      1.00000
     59       2.3996      1.00000
     60       2.5934      1.00000
[...]
     92       5.9801      0.00000
     93       6.1228      0.00000
     94       6.2018      0.00000
     95       6.2438      0.00000
     96       6.3404      0.00000
     97       6.5120      0.00000
     98       6.5175      0.00000
     99       6.5651      0.00000
    100       6.6704      0.00000
    101       6.8928      0.00000
    102       7.0428      0.00000
    103       7.1077      0.00000
    104       7.1174      0.00000
    105       7.1433      0.00000
    106       7.1564      0.00000
 Fermi energy:         4.8782793769

 spin component 2

[...]

 k-point    20 :       0.5000    0.5000    0.0000
  band No.  band energies     occupation
      1      -6.9646      1.00000
      2      -6.1976      1.00000
      3      -6.1264      1.00000
      4      -6.1116      1.00000
      5      -6.1033      1.00000
      6      -6.0937      1.00000
      7      -6.0144      1.00000
      8      -5.9954      1.00000
      9      -5.9877      1.00000
     10      -5.9588      1.00000
     11      -5.4533      1.00000
     12      -5.4033      1.00000
     13      -5.0802      1.00000
     14      -5.0478      1.00000
     15      -5.0312      1.00000
     16      -4.9959      1.00000
     17      -4.9139      1.00000
     18      -4.8950      1.00000
     19      -4.8563      1.00000
     20      -4.8138      1.00000
     21      -4.6820      1.00000
     22      -4.2179      1.00000
     23      -3.9646      1.00000
     24      -2.7329      1.00000
     25      -2.6321      1.00000
     26      -2.6240      1.00000
     27      -2.6154      1.00000
     28      -2.3548      1.00000
     29      -2.2060      1.00000
     30      -2.1482      1.00000
     31      -2.1162      1.00000
     32      -2.0446      1.00000
     33      -1.9430      1.00000
     34      -1.9371      1.00000
     35      -1.8960      1.00000
     36      -1.6725      1.00000
     37      -1.6134      1.00000
     38      -1.4981      1.00000
     39      -1.3491      1.00000
     40      -1.1383      1.00000
     41      -1.0860      1.00000
     42      -1.0648      1.00000
     43      -1.0101      1.00000
     44       0.2634      1.00000
     45       0.7597      1.00000
     46       0.8345      1.00000
     47       0.9140      1.00000
     48       1.1035      1.00000
     49       1.1202      1.00000
     50       1.1631      1.00000
     51       1.3081      1.00000
     52       1.4548      1.00000
     53       1.9377      1.00000
     54       2.0080      1.00000
     55       2.1132      1.00000
     56       2.1377      1.00000
     57       2.3507      1.00000
     58       2.3990      1.00000
     59       2.4139      1.00000
     60       2.6088      1.00000
[...]
     92       6.0050      0.00000
     93       6.1377      0.00000
     94       6.2691      0.00000
     95       6.3109      0.00000
     96       6.4151      0.00000
     97       6.5346      0.00000
     98       6.5467      0.00000
     99       6.5764      0.00000
    100       6.6804      0.00000
    101       6.9269      0.00000
    102       7.0484      0.00000
    103       7.1172      0.00000
    104       7.1228      0.00000
    105       7.1499      0.00000
    106       7.1806      0.00000

 soft charge-density along one line, spin component           1
         0         1         2         3         4         5         6         7         8         9
 total charge-density along one line

 soft charge-density along one line, spin component           2
         0         1         2         3         4         5         6         7         8         9
 total charge-density along one line

------------------------ aborting loop because EDIFF is reached ----------------------------------------

  FORCE on cell =-STRESS in cart. coord.  units (eV):
  Direction    XX          YY          ZZ          XY          YZ          ZX
  Alpha Z   236.41296   236.41296   236.41296
  Ewald   -1682.19651 -1678.77038 -1566.21968  -125.51728    20.06757    23.77076
  Hartree   113.43003   113.60198   123.59710   -32.56448     7.67355     9.20790
  E(xc)    -585.42411  -585.50000  -585.33071     0.30397     0.10408     0.08765
  Local    -551.79899  -555.16977  -669.18814   152.98753   -26.54074   -32.30293
  n-local  1301.31757  1302.15322  1304.46529    -7.72415    -1.00784    -0.91251
  augment  -102.39601  -102.41058  -102.32709     0.18482     0.00420    -0.10142
  Kinetic  1299.98292  1299.10035  1296.39540     7.26287     4.39548     6.91696
  Fock        0.00000     0.00000     0.00000     0.00000     0.00000     0.00000
  Total      29.32785    29.41777    37.80512    -5.06673     4.69629     6.66641
  in kB      51.05041    51.20693    65.80663    -8.81955     8.17475    11.60409

 VOLUME and BASIS-vectors are now :
  energy-cutoff  :      700.00
  volume of cell :      920.43
      direct lattice vectors                 reciprocal lattice vectors
     5.480000000  0.000000000  0.000000000     0.182481752  0.000000000  0.000000000
     0.000000000  5.480000000  0.000000000     0.000000000  0.182481752  0.000000000
     0.000000000  0.000000000 30.650000000     0.000000000  0.000000000  0.032626427

  length of vectors
     5.480000000  5.480000000 30.650000000     0.182481752  0.182481752  0.032626427

 FORCES acting on ions
    electron-ion (+dipol)            ewald-force                    non-local-force                 convergence-correction
   -.152E+01 -.894E+00 0.497E+01   0.149E+01 0.130E+01 -.492E+01   0.907E-01 -.284E+00 0.791E+00   -.773E-05 -.989E-05 -.701E-03
   0.140E-01 0.123E+00 0.662E+01   -.139E-01 -.121E-01 -.651E+01   0.171E-01 -.822E-01 -.183E+00   0.410E-05 -.607E-05 -.271E-03
   0.371E-01 0.597E-01 -.146E+00   0.279E-04 0.327E-04 0.102E-02   -.300E-01 -.483E-01 0.137E+00   0.150E-05 0.248E-06 0.882E-04
   0.183E+00 0.188E+00 -.655E+01   0.126E-01 0.102E-01 0.643E+01   -.169E+00 -.170E+00 0.134E+00   0.232E-05 0.250E-05 0.209E-03
   0.173E+01 0.157E+01 -.125E+02   -.790E+00 -.626E+00 0.123E+02   -.783E+00 -.776E+00 0.182E+00   0.219E-04 0.189E-04 0.116E-03
   -.152E+01 -.894E+00 0.497E+01   0.149E+01 0.130E+01 -.492E+01   0.907E-01 -.284E+00 0.791E+00   -.781E-05 0.233E-05 -.702E-03
   0.140E-01 0.123E+00 0.662E+01   -.139E-01 -.121E-01 -.651E+01   0.171E-01 -.822E-01 -.183E+00   -.104E-05 0.436E-06 -.271E-03
   0.371E-01 0.597E-01 -.146E+00   0.279E-04 0.327E-04 0.102E-02   -.300E-01 -.483E-01 0.137E+00   0.285E-05 0.642E-06 0.874E-04
   0.183E+00 0.188E+00 -.655E+01   0.126E-01 0.102E-01 0.643E+01   -.169E+00 -.170E+00 0.134E+00   0.300E-05 0.193E-05 0.209E-03
   0.173E+01 0.157E+01 -.125E+02   -.790E+00 -.626E+00 0.123E+02   -.783E+00 -.776E+00 0.182E+00   0.215E-04 0.189E-04 0.116E-03
   -.442E+01 -.630E+01 0.115E+02   0.533E+01 0.691E+01 -.956E+01   -.539E+00 -.202E+00 -.634E+00   -.176E-04 -.230E-04 -.469E-03
   -.203E+00 -.251E+00 0.100E+02   -.125E+00 -.141E+00 -.965E+01   0.382E+00 0.373E+00 -.643E-01   -.312E-05 0.630E-05 -.505E-03
   -.109E-01 -.278E-01 0.315E+01   0.132E-02 0.153E-02 -.321E+01   0.141E-01 0.129E-01 0.537E-01   -.519E-06 0.397E-05 -.642E-04
   -.292E-01 -.333E-01 -.332E+01   0.103E-02 0.128E-02 0.321E+01   0.966E-03 0.148E-02 0.124E+00   -.679E-06 0.437E-06 0.178E-03
   -.332E-01 -.959E-02 -.966E+01   -.101E+00 -.120E+00 0.957E+01   -.205E-01 -.304E-01 0.878E-01   -.163E-06 0.143E-05 0.181E-03
   -.409E+01 -.624E+01 -.172E+02   0.321E+01 0.512E+01 0.164E+02   0.714E-01 0.742E+00 0.771E+00   -.210E-04 -.243E-04 0.544E-04
   -.442E+01 -.630E+01 0.115E+02   0.533E+01 0.691E+01 -.956E+01   -.539E+00 -.202E+00 -.634E+00   -.143E-04 -.278E-04 -.471E-03
   -.203E+00 -.251E+00 0.100E+02   -.125E+00 -.141E+00 -.965E+01   0.382E+00 0.373E+00 -.643E-01   -.411E-05 0.116E-05 -.505E-03
   -.109E-01 -.278E-01 0.315E+01   0.132E-02 0.153E-02 -.321E+01   0.141E-01 0.129E-01 0.537E-01   -.561E-06 -.132E-06 -.650E-04
   -.292E-01 -.333E-01 -.332E+01   0.103E-02 0.128E-02 0.321E+01   0.966E-03 0.148E-02 0.124E+00   -.121E-05 -.140E-05 0.177E-03
   -.332E-01 -.959E-02 -.966E+01   -.101E+00 -.120E+00 0.957E+01   -.205E-01 -.304E-01 0.878E-01   0.370E-06 0.643E-06 0.181E-03
   -.409E+01 -.624E+01 -.172E+02   0.321E+01 0.512E+01 0.164E+02   0.714E-01 0.742E+00 0.771E+00   -.216E-04 -.245E-04 0.545E-04
   0.385E+01 0.575E+01 -.136E+02   -.314E+01 -.506E+01 0.130E+02   0.545E-01 -.356E+00 -.302E+00   0.360E-05 0.714E-05 0.257E-04
   0.348E-01 0.195E-01 -.915E+01   0.855E-01 0.103E+00 0.912E+01   0.164E-01 0.367E-01 0.504E-01   -.146E-05 -.218E-05 0.944E-04
   0.194E-01 0.243E-01 -.299E+01   -.764E-03 -.950E-03 0.302E+01   -.440E-03 0.392E-02 -.656E-02   0.990E-07 -.296E-06 0.199E-03
   0.708E-03 0.178E-01 0.309E+01   -.999E-03 -.115E-02 -.302E+01   -.173E-01 -.150E-01 -.683E-01   0.667E-06 0.627E-08 0.226E-03
   0.151E-01 0.665E-01 0.876E+01   0.108E+00 0.122E+00 -.904E+01   -.195E+00 -.185E+00 -.174E+00   0.167E-05 -.869E-06 0.186E-04
   0.482E+01 0.655E+01 0.210E+02   -.542E+01 -.699E+01 -.204E+02   0.195E+00 -.443E-01 -.560E+00   0.174E-04 0.380E-04 -.877E-04
   0.385E+01 0.575E+01 -.136E+02   -.314E+01 -.506E+01 0.130E+02   0.545E-01 -.356E+00 -.302E+00   0.323E-05 0.676E-05 0.259E-04
   0.348E-01 0.195E-01 -.915E+01   0.855E-01 0.103E+00 0.912E+01   0.164E-01 0.367E-01 0.504E-01   -.114E-05 -.223E-05 0.943E-04
   0.194E-01 0.243E-01 -.299E+01   -.764E-03 -.950E-03 0.302E+01   -.440E-03 0.392E-02 -.656E-02   0.216E-06 -.388E-06 0.199E-03
   0.708E-03 0.178E-01 0.309E+01   -.999E-03 -.115E-02 -.302E+01   -.173E-01 -.150E-01 -.683E-01   0.555E-06 -.100E-05 0.226E-03
   0.151E-01 0.665E-01 0.876E+01   0.108E+00 0.122E+00 -.904E+01   -.195E+00 -.185E+00 -.174E+00   0.722E-06 -.486E-05 0.192E-04
   0.482E+01 0.655E+01 0.210E+02   -.542E+01 -.699E+01 -.204E+02   0.195E+00 -.443E-01 -.560E+00   0.244E-04 0.264E-04 -.885E-04
   -.139E+01 -.125E+01 -.123E+02   0.733E+00 0.579E+00 0.123E+02   0.548E+00 0.549E+00 -.199E-01   -.100E-04 -.814E-05 0.892E-04
   -.132E+00 -.140E+00 -.606E+01   -.997E-02 -.809E-02 0.604E+01   0.121E+00 0.116E+00 0.106E-01   -.882E-06 -.625E-06 0.176E-03
   -.239E-01 -.427E-01 0.511E-01   -.207E-04 -.243E-04 -.710E-03   0.237E-01 0.455E-01 -.490E-01   -.119E-05 0.850E-07 0.266E-03
   -.127E-01 -.855E-01 0.599E+01   0.113E-01 0.983E-02 -.597E+01   -.101E-01 0.503E-01 0.193E-01   -.932E-06 0.135E-05 0.155E-03
   0.144E+01 0.981E+00 0.191E+02   -.138E+01 -.121E+01 -.192E+02   -.561E-01 0.191E+00 -.913E+00   0.116E-04 0.505E-05 0.265E-04
   -.139E+01 -.125E+01 -.123E+02   0.733E+00 0.579E+00 0.123E+02   0.548E+00 0.549E+00 -.199E-01   -.103E-04 -.879E-05 0.894E-04
   -.132E+00 -.140E+00 -.606E+01   -.997E-02 -.809E-02 0.604E+01   0.121E+00 0.116E+00 0.106E-01   -.111E-05 -.567E-06 0.175E-03
   -.239E-01 -.427E-01 0.511E-01   -.207E-04 -.243E-04 -.710E-03   0.237E-01 0.455E-01 -.490E-01   -.258E-06 -.414E-06 0.266E-03
   -.127E-01 -.855E-01 0.599E+01   0.113E-01 0.983E-02 -.597E+01   -.101E-01 0.503E-01 0.193E-01   -.127E-05 0.112E-05 0.155E-03
   0.144E+01 0.981E+00 0.191E+02   -.138E+01 -.121E+01 -.192E+02   -.561E-01 0.191E+00 -.913E+00   0.905E-05 0.579E-05 0.215E-04
   0.532E+00 0.157E+00 0.135E+01   -.127E-13 0.577E-14 -.959E-12   -.573E+00 -.142E+00 -.123E+01   0.745E-06 0.400E-05 -.295E-05

 POSITION                                       TOTAL-FORCE (eV/Angst)
      1.37000      0.00000      1.37000         0.061492      0.122555      0.837946
      4.11000      0.00000      4.11000         0.018063      0.028550     -0.081488
      1.37000      0.00000      6.85000         0.008068      0.011060     -0.010006
      4.11000      0.00000      9.59000         0.027775      0.027906      0.007530
      1.37000      0.00000     12.33000         0.157640      0.165320     -0.035406
      4.11000      2.74000      1.37000         0.061492      0.122555      0.837946
      1.37000      2.74000      4.11000         0.018063      0.028550     -0.081488
      4.11000      2.74000      6.85000         0.008068      0.011060     -0.010006
      1.37000      2.74000      9.59000         0.027775      0.027906      0.007530
      4.11000      2.74000     12.33000         0.157640      0.165320     -0.035406
      0.00000      1.37000      0.00000         0.375042      0.413637      1.260502
      2.74000      1.37000      2.74000         0.053890     -0.018946      0.317541
      0.00000      1.37000      5.48000         0.005418     -0.013719     -0.005933
      2.74000      1.37000      8.22000        -0.026230     -0.030900      0.005085
      0.00000      1.37000     10.96000        -0.153304     -0.160723     -0.011435
      2.74000      1.37000     13.70000        -0.807886     -0.374614     -0.009758
      2.74000      4.11000      0.00000         0.375042      0.413637      1.260502
      0.00000      4.11000      2.74000         0.053890     -0.018946      0.317541
      2.74000      4.11000      5.48000         0.005418     -0.013719     -0.005933
      0.00000      4.11000      8.22000        -0.026230     -0.030900      0.005085
      2.74000      4.11000     10.96000        -0.153304     -0.160723     -0.011435
      0.00000      4.11000     13.70000        -0.807886     -0.374614     -0.009758
      1.01481      2.43556     15.10000         0.756233      0.334171     -0.925471
      3.75481      2.43556     17.93000         0.137647      0.158675      0.010775
      1.01481      2.43556     20.76000         0.019093      0.026965      0.016093
      3.75481      2.43556     23.59000        -0.016706      0.001370     -0.001999
      1.01481      2.43556     26.42000        -0.071118      0.003014     -0.456372
      3.75481      2.43556     29.25000        -0.402343     -0.481368      0.071698
      3.75481      5.17556     15.10000         0.756233      0.334171     -0.925471
      1.01481      5.17556     17.93000         0.137647      0.158675      0.010775
      3.75481      5.17556     20.76000         0.019093      0.026965      0.016093
      1.01481      5.17556     23.59000        -0.016706      0.001370     -0.001999
      3.75481      5.17556     26.42000        -0.071118      0.003014     -0.456372
      1.01481      5.17556     29.25000        -0.402343     -0.481368      0.071698
      2.38481      3.80556     16.51500        -0.111387     -0.122413      0.052120
      5.12481      3.80556     19.34500        -0.020444     -0.032225     -0.015032
      2.38481      3.80556     22.17500         0.000784      0.002448     -0.001302
      5.12481      3.80556     25.00500        -0.010622     -0.025683      0.040320
      2.38481      3.80556     27.83500        -0.001103     -0.035081     -1.065409
      5.12481      1.06556     16.51500        -0.111387     -0.122413      0.052120
      2.38481      1.06556     19.34500        -0.020444     -0.032225     -0.015032
      5.12481      1.06556     22.17500         0.000784      0.002448     -0.001302
      2.38481      1.06556     25.00500        -0.010622     -0.025683      0.040320
      5.12481      1.06556     27.83500        -0.001103     -0.035081     -1.065409
    total drift:                               -0.041018      0.014315      0.126529

  FREE ENERGIE OF THE ION-ELECTRON SYSTEM (eV)
  free  energy   TOTEN  =      -209.65186174 eV

  energy  without entropy=     -209.65131267  energy(sigma->0) =     -209.65158721