 vasp.6.4.3 19Mar24 (build Oct 22 2024 11:23:12) complex

 executed on             LinuxIFC date 2025.06.08  22:58:17

 INCAR:
   SYSTEM = Si and Ge interface calculation
   ISTART = 0
   ICHARG = 2
   LWAVE = .FALSE.
   LREAL = AUTO
   ENCUT = 700
   ENAUG = 900
   ADDGRID = .TRUE.
   LMAXMIX = 6
   LASPH = .TRUE.
   LMIXTAU = .TRUE.
   NCORE = 16
   NELM = 100
   NBANDS = 404
   EDIFF = 1d-7
   AMIX = 0.6
   ISMEAR = 0
   SIGMA = 0.01
   NELECT = 672
   ISPIN = 2
   NUPDOWN = 1
   LVTOT = .FALSE.
   LVHAR = .TRUE.

 POTCAR:    PAW_PBE Ge 05Jan2001
 POTCAR:    PAW_PBE Sn 08Apr2002
|           W    W    AA    RRRRR   N    N  II  N    N   GGGG   !!!           |
|           W    W   A  A   R    R  NN   N  II  NN   N  G    G  !!!           |
|           W    W  A    A  R    R  N N  N  II  N N  N  G       !!!           |
|           W WW W  AAAAAA  RRRRR   N  N N  II  N  N N  G  GGG   !            |
|           WW  WW  A    A  R   R   N   NN  II  N   NN  G    G                |
|           W    W  A    A  R    R  N    N  II  N    N   GGGG   !!!           |
|     You use a magnetic or noncollinear calculation, but did not specify     |
|     the initial magnetic moment with the MAGMOM tag. Note that a            |
|     default of 5.952e-3 will be used for all atoms. This ferromagnetic      |
|     setup may break the symmetry of the crystal, in particular it may       |
|     rule out finding an antiferromagnetic solution. Thence, we              |
|     recommend setting the initial magnetic moment manually or verifying     |
|     carefully that this magnetic setup is desired.                          |

 POTCAR:    PAW_PBE Ge 05Jan2001
   VRHFIN =Ge: s2p2

   TITEL  = PAW_PBE Ge 05Jan2001
   POMASS =   72.610; ZVAL   =    4.000    mass and valenz
   ENMAX  =  173.807; ENMIN  =  130.355 eV

 POTCAR:    PAW_PBE Sn 08Apr2002
   VRHFIN =Sn: s2p2

   TITEL  = PAW_PBE Sn 08Apr2002
   POMASS =  118.710; ZVAL   =    4.000    mass and valenz
   ENMAX  =  103.236; ENMIN  =   77.427 eV

 Optimization of the real space projectors (new method)

 maximal supplied QI-value         = 16.25
 optimisation between [QCUT,QGAM] = [ 13.49, 26.98] = [ 50.95,203.80] Ry
 Optimized for a Real-space Cutoff    1.25 Angstroem

   l    n(q)    QCUT    max X(q) W(low)/X(q) W(high)/X(q)  e(spline)
   0     10    13.489    65.336    0.91E-04    0.11E-03    0.34E-06
   0     10    13.489    52.220    0.89E-04    0.11E-03    0.34E-06
   1     10    13.489    36.409    0.22E-03    0.27E-03    0.14E-06
   1     10    13.489    21.334    0.21E-03    0.27E-03    0.14E-06
   2      9    13.489     4.673    0.11E-03    0.12E-03    0.19E-06
 Optimization of the real space projectors (new method)

 maximal supplied QI-value         = 12.47
 optimisation between [QCUT,QGAM] = [ 12.47, 27.06] = [ 43.56,205.12] Ry
 Optimized for a Real-space Cutoff    1.58 Angstroem

   l    n(q)    QCUT    max X(q) W(low)/X(q) W(high)/X(q)  e(spline)
   0     13    12.472    14.688    0.45E-04    0.45E-04    0.25E-05
   0     13    12.472     7.308    0.94E-04    0.11E-03    0.61E-05
   1     12    12.472    45.102    0.34E-03    0.14E-03    0.21E-05
   1     12    12.472    30.691    0.31E-03    0.13E-03    0.20E-05
   2     12    12.472     7.156    0.86E-04    0.11E-03    0.17E-05
 WARNING: PSMAXN for non-local potential too small
          PSMAXN should be >   13.5545592237991       NTYP=           2
  PAW_PBE Ge 05Jan2001                  :
  PAW_PBE Sn 08Apr2002                  :

 POSCAR: Ge+Sn
  positions in direct lattice

 exchange-correlation table for PE
   RHO(1)=    0.500       N(1)  =     2000
   RHO(2)=  100.500       N(2)  =     4000

 ion  position               nearest neighbor table
   1  0.986  0.493  0.000- 144 0.28  70 2.45  43 2.45  85 2.45 123 2.57 153 2.91  99 3.02
   2  0.652  0.326  0.207-  44 2.45  71 2.45  22 2.45  86 2.45 114 3.28
   3  0.319  0.160  0.414- 136 0.86  72 2.45  45 2.45  23 2.45  87 2.45 109 3.03 160 3.14
   4  0.986  0.993  0.000- 108 0.28  46 2.45  88 2.45  67 2.45 159 2.57 117 2.91 135 3.02
   5  0.652  0.826  0.207-  47 2.45  19 2.45  89 2.45  68 2.45 150 3.28
   6  0.319  0.660  0.414- 100 0.86  48 2.45  69 2.45  20 2.45  90 2.45 145 3.03 124 3.14
   7  0.486  0.493  0.000- 165 0.28  64 2.45  37 2.45  91 2.45 102 2.57 141 2.91 120 3.02
   8  0.152  0.326  0.207-  65 2.45  38 2.45  16 2.45  92 2.45 126 3.28
   9  0.819  0.160  0.414- 157 0.86  66 2.45  39 2.45  17 2.45  93 2.45 130 3.03 148 3.14
  10  0.486  0.993  0.000- 129 0.28  40 2.45  61 2.45  94 2.45 138 2.57 105 2.91 156 3.02
  11  0.152  0.826  0.207-  41 2.45  13 2.45  95 2.45  62 2.45 162 3.28
  12  0.819  0.660  0.414- 121 0.86  42 2.45  63 2.45  14 2.45  96 2.45 166 3.03 112 3.14
  13  0.152  0.826  0.052- 162 0.86  25 2.45  73 2.45  11 2.45  52 2.45  99 2.97 138 3.26
  14  0.819  0.660  0.259-  26 2.45  74 2.45  12 2.45  53 2.45 121 3.28
  15  0.486  0.493  0.466- 154 0.28  27 2.45  75 2.45  54 2.45 127 2.65 145 2.77 112 3.08
  16  0.152  0.326  0.052- 126 0.86  76 2.45   8 2.45  28 2.45  49 2.45 135 2.97 102 3.26
  17  0.819  0.160  0.259-  29 2.45  50 2.45  77 2.45   9 2.45 157 3.28
  18  0.486  0.993  0.466- 118 0.28  30 2.45  51 2.45  78 2.45 163 2.65 109 2.77 148 3.08
  19  0.652  0.826  0.052- 150 0.86  31 2.45  79 2.45   5 2.45  58 2.45 120 2.97 159 3.26
  20  0.319  0.660  0.259-  32 2.45  80 2.45   6 2.45  59 2.45 100 3.28
  21  0.986  0.493  0.466- 133 0.28  33 2.45  81 2.45  60 2.45 106 2.65 166 2.77 124 3.08
  22  0.652  0.326  0.052- 114 0.86  82 2.45   2 2.45  55 2.45  34 2.45 156 2.97 123 3.26
  23  0.319  0.160  0.259-  56 2.45   3 2.45  35 2.45  83 2.45 136 3.28
  24  0.986  0.993  0.466-  97 0.28  36 2.45  57 2.45  84 2.45 142 2.65 130 2.77 160 3.08
  25  0.236  0.743  0.000- 138 1.86 111 2.25 162 2.40  13 2.45  61 2.45  85 2.45
  26  0.902  0.576  0.207-  14 2.45  62 2.45  86 2.45  43 2.45
  27  0.569  0.410  0.414- 127 2.05 103 2.40  15 2.45  87 2.45  44 2.45  63 2.45 154 2.53
  28  0.236  0.243  0.000- 102 1.86 147 2.25 126 2.40  64 2.45  88 2.45  16 2.45
  29  0.902  0.076  0.207-  89 2.45  17 2.45  65 2.45  46 2.45
  30  0.569  0.910  0.414- 163 2.05 139 2.40  18 2.45  90 2.45  66 2.45  47 2.45 118 2.53
  31  0.736  0.743  0.000- 159 1.86 132 2.25 150 2.40  19 2.45  91 2.45  67 2.45
  32  0.402  0.576  0.207-  20 2.45  92 2.45  68 2.45  37 2.45
  33  0.069  0.410  0.414- 106 2.05 115 2.40  21 2.45  93 2.45  38 2.45  69 2.45 133 2.53
  34  0.736  0.243  0.000- 123 1.86 168 2.25 114 2.40  94 2.45  22 2.45  70 2.45
  35  0.402  0.076  0.207-  95 2.45  23 2.45  40 2.45  71 2.45
  36  0.069  0.910  0.414- 142 2.05 151 2.40  24 2.45  96 2.45  41 2.45  72 2.45  97 2.53
  37  0.402  0.576  0.052- 120 2.38 165 2.40  49 2.45   7 2.45  79 2.45  32 2.45 111 2.53
  38  0.069  0.410  0.259-   8 2.45  50 2.45  33 2.45  80 2.45
  39  0.736  0.243  0.466- 148 1.42 157 2.25 103 2.40   9 2.45  81 2.45  51 2.45
  40  0.402  0.076  0.052- 156 2.38 129 2.40  10 2.45  52 2.45  82 2.45  35 2.45 147 2.53
  41  0.069  0.910  0.259-  53 2.45  11 2.45  83 2.45  36 2.45
  42  0.736  0.743  0.466- 112 1.42 121 2.25 139 2.40  12 2.45  84 2.45  54 2.45
  43  0.902  0.576  0.052-  99 2.38 144 2.40   1 2.45  55 2.45  73 2.45  26 2.45 132 2.53
  44  0.569  0.410  0.259-   2 2.45  74 2.45  27 2.45  56 2.45
  45  0.236  0.243  0.466- 160 1.42 136 2.25 115 2.40   3 2.45  75 2.45  57 2.45
  46  0.902  0.076  0.052- 135 2.38 108 2.40   4 2.45  76 2.45  58 2.45  29 2.45 168 2.53
  47  0.569  0.910  0.259-   5 2.45  77 2.45  30 2.45  59 2.45
  48  0.236  0.743  0.466- 124 1.42 100 2.25 151 2.40   6 2.45  78 2.45  60 2.45
  49  0.236  0.493  0.000- 153 1.59 126 2.04  37 2.45  85 2.45  16 2.45 111 2.58
  50  0.902  0.326  0.207-  86 2.45  38 2.45  17 2.45  70 2.45
  51  0.569  0.160  0.414- 118 2.20 148 2.26  18 2.45  87 2.45  39 2.45  71 2.45 103 2.71
  52  0.236  0.993  0.000- 117 1.59 162 2.04  88 2.45  40 2.45  13 2.45 147 2.58
  53  0.902  0.826  0.207-  89 2.45  41 2.45  67 2.45  14 2.45
  54  0.569  0.660  0.414- 154 2.20 112 2.26  90 2.45  42 2.45  15 2.45  68 2.45 139 2.71
  55  0.736  0.493  0.000- 141 1.59 114 2.04  91 2.45  22 2.45  43 2.45 132 2.58
  56  0.402  0.326  0.207-  92 2.45  23 2.45  64 2.45  44 2.45
  57  0.069  0.160  0.414-  97 2.20 160 2.26  93 2.45  24 2.45  65 2.45  45 2.45 115 2.71
  58  0.736  0.993  0.000- 105 1.59 150 2.04  94 2.45  46 2.45  19 2.45 168 2.58
  59  0.402  0.826  0.207-  95 2.45  61 2.45  47 2.45  20 2.45
  60  0.069  0.660  0.414- 133 2.20 124 2.26  96 2.45  62 2.45  21 2.45  48 2.45 151 2.71
[...]
  85  0.152  0.576  0.052- 153 2.10 144 2.27  49 2.45  80 2.45   1 2.45  25 2.45 111 2.64
  86  0.819  0.410  0.259-  50 2.45  26 2.45  81 2.45   2 2.45
  87  0.486  0.243  0.466- 127 1.81 136 2.12  27 2.45  51 2.45   3 2.45 103 2.51
  88  0.152  0.076  0.052- 117 2.10 108 2.27  52 2.45  28 2.45  83 2.45   4 2.45 147 2.64
  89  0.819  0.910  0.259-  29 2.45  53 2.45  84 2.45   5 2.45
  90  0.486  0.743  0.466- 163 1.81 100 2.12  54 2.45  30 2.45   6 2.45 139 2.51
  91  0.652  0.576  0.052- 141 2.10 165 2.27  55 2.45  31 2.45  74 2.45   7 2.45 132 2.64
  92  0.319  0.410  0.259-  56 2.45  75 2.45  32 2.45   8 2.45
  93  0.986  0.243  0.466- 106 1.81 157 2.12  57 2.45  33 2.45   9 2.45 115 2.51
  94  0.652  0.076  0.052- 105 2.10 129 2.27  58 2.45  34 2.45  77 2.45  10 2.45 168 2.64
  95  0.319  0.910  0.259-  35 2.45  59 2.45  78 2.45  11 2.45
  96  0.986  0.743  0.466- 142 1.81 121 2.12  60 2.45  36 2.45  12 2.45 151 2.51
  97  0.000  0.012  0.466-  24 0.28  57 2.20  36 2.53  84 2.64 130 2.83 142 2.83 160 2.83
  98  0.000  0.346  0.703- 106 2.81 131 2.83 143 2.83 161 2.83
  99  0.000  0.679  0.941-  73 1.48  43 2.38 107 2.81 144 2.83 132 2.83 162 2.83  13 2.97   1 3.02

 100  0.333  0.679  0.466-   6 0.86  90 2.12  48 2.25  69 2.58 163 2.83 145 2.83 124 2.83  20 3.28

[...]

 103  0.667  0.346  0.466-  63 2.04  81 2.27  27 2.40  39 2.40  87 2.51  51 2.71 166 2.83 127 2.83
                           148 2.83
 104  0.667  0.679  0.703- 112 2.81 167 2.83 128 2.83 149 2.83
 105  0.667  0.012  0.941-  58 1.59  94 2.10 113 2.81 168 2.83 129 2.83 150 2.83  10 2.91
 106  0.000  0.346  0.525-  93 1.81  33 2.05  21 2.65  98 2.81 157 2.83 133 2.83 115 2.83
 107  0.000  0.679  0.763-  99 2.81 158 2.83 116 2.83 134 2.83
 108  0.000  0.012  1.000-   4 0.28  88 2.27  46 2.40  67 2.71 117 2.83 159 2.83 135 2.83
 109  0.333  0.012  0.525-  72 1.71  78 2.34  18 2.77 101 2.81 118 2.83 136 2.83 151 2.83   3 3.03

[...]

 151  0.167  0.846  0.466-  72 2.04  78 2.27  36 2.40  48 2.40  96 2.51  60 2.71 124 2.83 109 2.83
                           142 2.83
 152  0.167  0.179  0.703- 160 2.81 125 2.83 110 2.83 143 2.83
 153  0.167  0.512  0.941-  49 1.59  85 2.10 161 2.81 126 2.83 111 2.83 144 2.83   1 2.91
 154  0.500  0.512  0.466-  15 0.28  54 2.20  27 2.53  75 2.64 145 2.83 127 2.83 112 2.83
 155  0.500  0.846  0.703- 163 2.81 146 2.83 113 2.83 128 2.83
 156  0.500  0.179  0.941-  82 1.48  40 2.38 164 2.81 129 2.83 114 2.83 147 2.83  22 2.97  10 3.02

[...]

 163  0.500  0.846  0.525-  90 1.81  30 2.05  18 2.65 155 2.81 100 2.83 118 2.83 139 2.83
 164  0.500  0.179  0.763- 156 2.81 101 2.83 119 2.83 140 2.83
[...]
     0.000000000  0.000000000 15.779418945     0.000000000  0.000000000  0.063373690

  length of vectors
    16.002676010 16.002676565 15.779418945     0.072156715  0.072156712  0.063373690

 FORCES acting on ions
    electron-ion (+dipol)            ewald-force                    non-local-force                 convergence-correction
   -.120E+01 0.241E+01 0.801E+02   -.748E+03 -.283E+04 -.780E+02   0.183E+01 0.452E+01 -.244E+01   -.629E-04 -.122E-04 0.650E-04
   0.198E+00 0.773E+00 -.660E+01   -.173E+00 -.680E+00 0.630E+01   -.785E-02 0.425E-01 -.856E+00   0.475E-05 0.124E-03 0.951E-05
   0.268E+00 0.278E+00 -.183E+02   -.246E+02 -.917E+02 -.255E+03   -.152E+01 -.447E+01 -.117E+02   0.566E-04 0.136E-03 0.328E-04
   -.120E+01 0.241E+01 0.801E+02   -.748E+03 -.283E+04 -.780E+02   0.183E+01 0.452E+01 -.244E+01   -.419E-04 -.529E-04 -.194E-04
   0.198E+00 0.773E+00 -.660E+01   -.173E+00 -.680E+00 0.630E+01   -.785E-02 0.425E-01 -.856E+00   -.475E-04 -.134E-03 0.761E-04
   0.268E+00 0.279E+00 -.183E+02   -.246E+02 -.917E+02 -.255E+03   -.152E+01 -.447E+01 -.117E+02   0.282E-04 -.111E-03 0.158E-05
   -.120E+01 0.241E+01 0.801E+02   -.748E+03 -.283E+04 -.780E+02   0.183E+01 0.452E+01 -.244E+01   -.216E-04 -.182E-04 0.507E-04
   0.198E+00 0.773E+00 -.660E+01   -.173E+00 -.680E+00 0.630E+01   -.785E-02 0.425E-01 -.856E+00   -.228E-04 0.184E-03 0.125E-03
   0.268E+00 0.278E+00 -.183E+02   -.246E+02 -.917E+02 -.255E+03   -.152E+01 -.447E+01 -.117E+02   -.618E-04 0.112E-03 -.434E-04
   -.120E+01 0.241E+01 0.801E+02   -.748E+03 -.283E+04 -.780E+02   0.183E+01 0.452E+01 -.244E+01   -.192E-04 -.146E-05 -.271E-05
   0.198E+00 0.773E+00 -.660E+01   -.173E+00 -.680E+00 0.630E+01   -.785E-02 0.425E-01 -.856E+00   0.292E-04 -.160E-03 -.202E-04
   0.268E+00 0.279E+00 -.183E+02   -.246E+02 -.917E+02 -.255E+03   -.152E+01 -.447E+01 -.117E+02   -.561E-04 -.167E-03 0.594E-04
   -.367E-01 -.769E+00 0.181E+02   -.237E+02 -.912E+02 0.256E+03   -.159E+01 -.468E+01 0.118E+02   0.153E-04 -.254E-03 -.859E-04
   0.265E+00 0.791E+00 0.660E+01   -.189E+00 -.689E+00 -.630E+01   -.358E-01 0.658E-02 0.859E+00   0.124E-04 -.160E-03 0.226E-05
   0.222E+01 0.239E+01 -.803E+02   -.750E+03 -.284E+04 0.782E+02   0.588E+00 0.373E+01 0.256E+01   -.206E-04 -.270E-04 0.788E-05
   -.366E-01 -.769E+00 0.181E+02   -.237E+02 -.912E+02 0.256E+03   -.159E+01 -.468E+01 0.118E+02   -.130E-03 0.225E-03 0.367E-04
   0.265E+00 0.791E+00 0.660E+01   -.189E+00 -.689E+00 -.630E+01   -.358E-01 0.658E-02 0.859E+00   -.650E-04 0.128E-03 -.191E-03
   0.222E+01 0.239E+01 -.803E+02   -.750E+03 -.284E+04 0.782E+02   0.588E+00 0.373E+01 0.256E+01   -.980E-04 -.468E-04 0.274E-04
   -.367E-01 -.769E+00 0.181E+02   -.237E+02 -.912E+02 0.256E+03   -.159E+01 -.468E+01 0.118E+02   -.646E-04 -.113E-03 0.297E-05
   0.265E+00 0.791E+00 0.660E+01   -.189E+00 -.689E+00 -.630E+01   -.358E-01 0.658E-02 0.859E+00   -.858E-05 -.111E-03 -.610E-04
   0.222E+01 0.239E+01 -.803E+02   -.750E+03 -.284E+04 0.782E+02   0.588E+00 0.373E+01 0.256E+01   -.343E-04 -.322E-05 0.191E-04
   -.367E-01 -.769E+00 0.181E+02   -.237E+02 -.912E+02 0.256E+03   -.159E+01 -.468E+01 0.118E+02   0.701E-04 0.135E-03 -.239E-04
   0.265E+00 0.791E+00 0.660E+01   -.189E+00 -.689E+00 -.630E+01   -.358E-01 0.658E-02 0.859E+00   0.557E-04 0.124E-03 0.381E-04
   0.222E+01 0.239E+01 -.803E+02   -.750E+03 -.284E+04 0.782E+02   0.588E+00 0.373E+01 0.256E+01   0.262E-04 -.395E-04 0.633E-04
   0.160E+02 0.253E+02 0.683E+02   -.250E+02 -.358E+02 -.619E+02   -.482E+01 -.964E+01 0.622E+01   -.148E-03 -.213E-03 -.247E-04
   0.100E+00 0.355E+00 -.407E+01   -.375E+00 -.297E+00 0.373E+01   0.153E+00 -.873E-02 0.773E+00   0.141E-03 -.135E-03 -.964E-04
   -.689E+01 -.105E+02 0.987E+00   0.570E+01 0.150E+02 -.862E+01   0.248E+01 0.225E+01 -.753E+01   -.175E-03 0.125E-03 0.703E-04
   0.160E+02 0.253E+02 0.683E+02   -.250E+02 -.358E+02 -.619E+02   -.482E+01 -.964E+01 0.622E+01   0.180E-03 0.235E-03 -.467E-04
   0.100E+00 0.355E+00 -.407E+01   -.375E+00 -.297E+00 0.373E+01   0.153E+00 -.873E-02 0.773E+00   -.576E-04 0.647E-04 0.250E-04
   -.689E+01 -.105E+02 0.987E+00   0.570E+01 0.150E+02 -.862E+01   0.248E+01 0.225E+01 -.753E+01   -.126E-03 -.837E-04 0.642E-05
   0.160E+02 0.253E+02 0.683E+02   -.250E+02 -.358E+02 -.619E+02   -.482E+01 -.964E+01 0.622E+01   -.137E-04 -.187E-03 -.308E-04
   0.100E+00 0.355E+00 -.407E+01   -.375E+00 -.297E+00 0.373E+01   0.153E+00 -.873E-02 0.773E+00   0.101E-03 -.109E-03 0.272E-04
   -.689E+01 -.105E+02 0.987E+00   0.570E+01 0.150E+02 -.862E+01   0.248E+01 0.225E+01 -.753E+01   -.311E-04 0.129E-03 0.196E-04
   0.160E+02 0.253E+02 0.683E+02   -.250E+02 -.358E+02 -.619E+02   -.482E+01 -.964E+01 0.622E+01   0.119E-03 0.280E-03 -.142E-04
   0.100E+00 0.355E+00 -.407E+01   -.375E+00 -.297E+00 0.373E+01   0.153E+00 -.873E-02 0.773E+00   0.306E-04 0.441E-04 0.148E-03
   -.689E+01 -.105E+02 0.987E+00   0.570E+01 0.150E+02 -.862E+01   0.248E+01 0.225E+01 -.753E+01   0.115E-03 -.126E-03 -.131E-05
   0.120E+02 0.103E+02 0.858E+01   -.114E+02 -.131E+02 -.543E+01   -.408E+01 -.562E+00 0.410E+01   0.548E-04 -.607E-04 0.167E-04
   0.362E+00 -.168E+00 0.419E+01   -.113E+00 0.137E+00 -.413E+01   -.162E+00 -.849E-02 -.588E+00   -.118E-03 0.166E-03 -.232E-04
   -.422E+01 -.171E+02 -.666E+02   0.344E+02 0.604E+02 0.218E+02   0.925E+01 0.189E+02 -.199E+02   -.195E-03 0.249E-03 0.932E-04
   0.120E+02 0.103E+02 0.858E+01   -.114E+02 -.131E+02 -.543E+01   -.408E+01 -.562E+00 0.410E+01   -.240E-03 0.226E-03 0.112E-03
   0.362E+00 -.167E+00 0.419E+01   -.113E+00 0.137E+00 -.413E+01   -.162E+00 -.849E-02 -.588E+00   0.555E-04 -.830E-04 0.325E-04
   -.422E+01 -.171E+02 -.666E+02   0.344E+02 0.604E+02 0.218E+02   0.925E+01 0.189E+02 -.199E+02   -.951E-04 -.227E-03 0.908E-04
   0.120E+02 0.103E+02 0.858E+01   -.114E+02 -.131E+02 -.543E+01   -.408E+01 -.562E+00 0.410E+01   0.224E-03 -.126E-03 -.326E-04
   0.362E+00 -.168E+00 0.419E+01   -.113E+00 0.137E+00 -.413E+01   -.162E+00 -.849E-02 -.588E+00   -.996E-04 0.102E-03 0.840E-04
   -.422E+01 -.171E+02 -.666E+02   0.344E+02 0.604E+02 0.218E+02   0.925E+01 0.189E+02 -.199E+02   0.420E-04 0.270E-03 0.743E-04
   0.120E+02 0.103E+02 0.858E+01   -.114E+02 -.131E+02 -.543E+01   -.408E+01 -.562E+00 0.410E+01   -.399E-03 0.265E-03 0.747E-04
   0.362E+00 -.167E+00 0.419E+01   -.113E+00 0.137E+00 -.413E+01   -.162E+00 -.849E-02 -.588E+00   -.880E-04 -.295E-04 0.899E-04
   -.422E+01 -.171E+02 -.666E+02   0.344E+02 0.604E+02 0.218E+02   0.925E+01 0.189E+02 -.199E+02   -.556E-04 -.943E-05 0.897E-04
   -.237E+02 -.117E+02 0.658E+02   0.558E+02 0.923E+01 -.436E+02   0.183E+02 0.347E+01 0.138E+02   -.796E-04 0.147E-03 -.436E-04
   -.938E-01 -.933E+00 -.430E+01   0.202E+00 0.631E+00 0.407E+01   -.831E-01 0.271E+00 0.722E+00   -.351E-04 0.288E-03 -.153E-03
   0.145E+02 -.108E+02 -.472E+01   -.167E+02 0.121E+02 -.188E+00   -.264E+01 0.530E+01 -.574E+01   -.120E-03 0.153E-04 0.401E-05
   -.237E+02 -.117E+02 0.658E+02   0.558E+02 0.923E+01 -.436E+02   0.183E+02 0.347E+01 0.138E+02   0.537E-04 -.138E-03 -.540E-04
   -.938E-01 -.933E+00 -.430E+01   0.202E+00 0.631E+00 0.407E+01   -.831E-01 0.271E+00 0.722E+00   0.334E-04 -.170E-03 0.821E-04
   0.145E+02 -.108E+02 -.472E+01   -.167E+02 0.121E+02 -.188E+00   -.264E+01 0.530E+01 -.574E+01   0.141E-04 -.281E-03 0.868E-04
   -.237E+02 -.117E+02 0.658E+02   0.558E+02 0.923E+01 -.436E+02   0.183E+02 0.347E+01 0.138E+02   0.114E-03 -.341E-04 -.263E-04
   -.939E-01 -.933E+00 -.430E+01   0.202E+00 0.631E+00 0.407E+01   -.831E-01 0.271E+00 0.722E+00   0.478E-04 0.228E-03 0.589E-04
   0.145E+02 -.108E+02 -.472E+01   -.167E+02 0.121E+02 -.188E+00   -.264E+01 0.530E+01 -.574E+01   0.943E-04 0.256E-03 0.142E-04
   -.237E+02 -.117E+02 0.658E+02   0.558E+02 0.923E+01 -.436E+02   0.183E+02 0.347E+01 0.138E+02   -.409E-04 0.806E-04 -.498E-04
   -.938E-01 -.933E+00 -.430E+01   0.202E+00 0.631E+00 0.407E+01   -.831E-01 0.271E+00 0.722E+00   -.205E-04 -.711E-04 0.104E-03
   0.145E+02 -.108E+02 -.472E+01   -.167E+02 0.121E+02 -.188E+00   -.264E+01 0.530E+01 -.574E+01   -.489E-05 -.162E-03 0.402E-05
[...]
   0.191E+00 -.487E+00 -.267E+02   -.145E+00 0.229E+00 0.263E+02   -.287E-01 0.257E+00 0.867E+00   -.179E-04 -.699E-04 -.884E-04
   -.209E+02 0.152E+02 0.148E+03   0.425E+02 -.391E+02 -.177E+03   0.227E+02 -.252E+02 -.315E+02   -.596E-04 0.304E-03 -.105E-03
   0.197E+01 -.157E+01 -.945E+02   0.197E+02 0.840E+02 0.345E+03   0.324E+00 0.769E+01 0.311E+02   -.283E-04 0.198E-03 0.195E-03
   -.556E+00 -.503E-01 -.269E+02   0.343E+00 0.134E+00 0.263E+02   0.256E+00 -.426E-01 0.100E+01   0.422E-04 -.234E-04 -.102E-04
   0.370E+01 -.191E+02 0.149E+03   -.116E+01 0.269E+02 -.155E+03   0.313E+01 0.140E+02 -.176E+02   -.130E-03 -.337E-03 -.162E-03
   0.535E+01 0.202E+02 -.151E+03   -.264E+02 -.530E+02 0.188E+03   -.171E+02 -.290E+02 0.353E+02   0.710E-04 0.227E-03 0.808E-04
   0.617E+00 -.106E+00 0.268E+02   -.362E+00 0.427E-01 -.264E+02   -.333E+00 0.122E+00 -.783E+00   -.643E-04 0.944E-05 0.687E-05
   -.767E+00 0.334E+01 0.944E+02   0.231E+02 0.781E+02 -.345E+03   0.215E+01 0.435E+01 -.309E+02   0.344E-05 -.268E-03 -.170E-04
   0.149E+02 -.861E+01 -.154E+03   -.199E+02 0.164E+02 0.163E+03   -.992E+01 0.120E+02 0.222E+02   -.371E-04 -.321E-04 0.839E-04
   -.323E+00 0.531E+00 0.271E+02   0.314E+00 -.304E+00 -.264E+02   0.121E+00 -.320E+00 -.100E+01   0.462E-05 0.104E-03 -.920E-04
   -.337E+01 -.182E+02 0.825E+02   0.747E+03 0.283E+04 -.796E+02   0.191E+01 0.928E+01 -.674E+01   -.224E-04 -.244E-04 0.419E-04
   -.219E+02 -.134E+02 -.147E+03   0.356E+02 0.171E+02 0.157E+03   0.227E+02 0.630E+01 0.210E+02   0.169E-04 -.492E-04 0.146E-04
   -.243E+00 -.405E+00 0.268E+02   0.485E-01 0.259E+00 -.262E+02   0.159E+00 0.149E+00 -.102E+01   -.311E-04 -.130E-03 -.112E-03
   0.456E+01 0.161E+02 0.784E+02   -.564E+01 -.182E+02 -.805E+02   -.242E+01 -.719E+01 -.853E+00   -.449E-04 0.247E-03 -.339E-04
   -.225E+02 -.105E+03 -.989E+00   -.300E-11 0.451E-11 0.497E-12   0.219E+02 0.106E+03 0.621E+00   -.460E-04 0.267E-03 0.207E-02

 POSITION                                       TOTAL-FORCE (eV/Angst)
     11.83119      6.83074      0.00000      -747.550063  -2827.022882     -0.374089
      7.83052      4.52095      3.26653         0.021093      0.132525     -1.153964
      3.82985      2.21116      6.53307       -25.873682    -95.911011   -285.474707
      7.83052     13.76010      0.00000      -747.550063  -2827.022882     -0.374089
      3.82985     11.45031      3.26653         0.021093      0.132525     -1.153964
     -0.17082      9.14052      6.53307       -25.873682    -95.911011   -285.474707
      3.82985      6.83074      0.00000      -747.550063  -2827.022882     -0.374089
     -0.17082      4.52095      3.26653         0.021093      0.132525     -1.153964
     11.83118      2.21116      6.53307       -25.873682    -95.911011   -285.474707
     -0.17082     13.76010      0.00000      -747.550063  -2827.022882     -0.374089
     -4.17149     11.45031      3.26653         0.021093      0.132525     -1.153964
      7.83051      9.14052      6.53307       -25.873682    -95.911011   -285.474707
     -4.17149     11.45031      0.81663       -25.357751    -96.662678    285.454926
      7.83052      9.14052      4.08317         0.043550      0.105245      1.161608
      3.82985      6.83074      7.34970      -747.592739  -2829.073306      0.444619
     -0.17082      4.52095      0.81663       -25.357751    -96.662678    285.454926
     11.83119      2.21116      4.08317         0.043550      0.105245      1.161608
     -0.17082     13.76010      7.34970      -747.592739  -2829.073306      0.444619
      3.82985     11.45031      0.81663       -25.357751    -96.662678    285.454926
     -0.17082      9.14052      4.08317         0.043550      0.105245      1.161608
     11.83119      6.83074      7.34970      -747.592739  -2829.073306      0.444619
      7.83052      4.52095      0.81663       -25.357751    -96.662678    285.454926
      3.82985      2.21116      4.08317         0.043550      0.105245      1.161608
      7.83052     13.76010      7.34970      -747.592739  -2829.073306      0.444619
     -2.17116     10.29542      0.00000       -13.822613    -20.079417     12.588768
      9.83085      7.98563      3.26653        -0.117811      0.046405      0.443882
      5.83018      5.67584      6.53307         1.298923      6.734929    -15.164925
      1.82951      3.36606      0.00000       -13.822613    -20.079417     12.588768
     13.83152      1.05627      3.26653        -0.117811      0.046405      0.443882
      1.82951     12.60521      6.53307         1.298923      6.734929    -15.164925
      5.83018     10.29542      0.00000       -13.822613    -20.079417     12.588768
      1.82951      7.98563      3.26653        -0.117811      0.046405      0.443882
     -2.17116      5.67584      6.53307         1.298923      6.734929    -15.164925
      9.83085      3.36606      0.00000       -13.822613    -20.079417     12.588768
      5.83018      1.05627      3.26653        -0.117811      0.046405      0.443882
     -6.17183     12.60521      6.53307         1.298923      6.734929    -15.164925
      1.82951      7.98563      0.81663        -3.461691     -3.356453      7.253974
     -2.17116      5.67584      4.08317         0.090436     -0.042246     -0.519595
      9.83085      3.36606      7.34970        39.480145     62.157906    -64.619693
      5.83018      1.05627      0.81663        -3.461691     -3.356453      7.253974
     -6.17183     12.60521      4.08317         0.090436     -0.042246     -0.519595
      5.83018     10.29542      7.34970        39.480145     62.157906    -64.619693
      9.83085      7.98563      0.81663        -3.461691     -3.356453      7.253974
      5.83018      5.67584      4.08317         0.090436     -0.042246     -0.519595
      1.82951      3.36605      7.34970        39.480145     62.157906    -64.619693
     13.83152      1.05627      0.81663        -3.461691     -3.356453      7.253974
      1.82951     12.60521      4.08317         0.090436     -0.042246     -0.519595
     -2.17116     10.29542      7.34970        39.480145     62.157906    -64.619693
     -0.17082      6.83074      0.00000        50.445103      0.997400     36.063987
     11.83119      4.52095      3.26653         0.028359     -0.034200      0.490700
      7.83052      2.21116      6.53307        -4.844090      6.553486    -10.647881
     -4.17149     13.76010      0.00000        50.445103      0.997400     36.063987
      7.83052     11.45031      3.26653         0.028359     -0.034200      0.490700
      3.82985      9.14052      6.53307        -4.844090      6.553486    -10.647881
      7.83052      6.83074      0.00000        50.445103      0.997400     36.063987
      3.82985      4.52095      3.26653         0.028359     -0.034200      0.490700
     -0.17082      2.21116      6.53307        -4.844090      6.553486    -10.647881
      3.82985     13.76010      0.00000        50.445103      0.997400     36.063987
     -0.17082     11.45031      3.26653         0.028359     -0.034200      0.490700
     -4.17149      9.14052      6.53307        -4.844090      6.553486    -10.647881
[...]
      3.90138      7.10134      7.34970       746.682256   2821.387995      4.177145
      1.23427     11.72091     11.09624         0.021375     -0.004415      0.460871
      6.56849      2.48176     14.84278        44.231332    -49.076135    -59.619832
     11.90272      2.48176      7.34970        22.045130     90.159394    281.501986
      9.23560      7.10134     11.09624         0.046874      0.038180      0.402341
      6.56849     11.72092     14.84278         5.680252     21.801827    -23.120489
      1.23427      2.48176      8.28634       -38.205881    -61.803124     72.769677
     -1.43285      7.10134     12.03288        -0.074540      0.055681     -0.399930
     -4.09996     11.72091     15.77942        24.505039     85.748470   -281.376855
      1.23427     11.72091      8.28634       -14.929516     19.766209     30.570753
      6.56849      2.48176     12.03288         0.115547     -0.096304     -0.372021
      3.90138      7.10134     15.77942       745.496889   2822.940356     -3.838767
      9.23561      7.10134      8.28634        36.453871     10.014887     30.987058
      6.56849     11.72091     12.03288        -0.031796     -0.001555     -0.450882
     11.90272      2.48176     15.77942        -3.493122     -9.233822     -2.872626
    total drift:                               -0.611431      0.544183     -0.365860

  FREE ENERGIE OF THE ION-ELECTRON SYSTEM (eV)
  free  energy   TOTEN  =      6497.27416070 eV

  energy  without entropy=     6497.27753118  energy(sigma->0) =     6497.27584594