 vasp.6.4.3 19Mar24 (build Oct 22 2024 11:23:12) complex

 executed on             LinuxIFC date 2025.06.09  05:40:21

 INCAR:
   SYSTEM = Si and Ge interface calculation
   ISTART = 0
   ICHARG = 2
   LWAVE = .FALSE.
   LREAL = AUTO
   ENCUT = 700
   ENAUG = 900
   ADDGRID = .TRUE.
   LMAXMIX = 6
   LASPH = .TRUE.
   LMIXTAU = .TRUE.
   NCORE = 16
   NELM = 100
   NBANDS = 432
   EDIFF = 1d-7
   AMIX = 0.6
   ISMEAR = 0
   SIGMA = 0.01
   NELECT = 720
   ISPIN = 2
   NUPDOWN = 1
   LVTOT = .FALSE.
   LVHAR = .TRUE.

 POTCAR:    PAW_PBE Ge 05Jan2001
 POTCAR:    PAW_PBE Sn 08Apr2002
|           W    W    AA    RRRRR   N    N  II  N    N   GGGG   !!!           |
|           W    W   A  A   R    R  NN   N  II  NN   N  G    G  !!!           |
|           W    W  A    A  R    R  N N  N  II  N N  N  G       !!!           |
|           W WW W  AAAAAA  RRRRR   N  N N  II  N  N N  G  GGG   !            |
|           WW  WW  A    A  R   R   N   NN  II  N   NN  G    G                |
|           W    W  A    A  R    R  N    N  II  N    N   GGGG   !!!           |
|     You use a magnetic or noncollinear calculation, but did not specify     |
|     the initial magnetic moment with the MAGMOM tag. Note that a            |
|     default of 5.556e-3 will be used for all atoms. This ferromagnetic      |
|     setup may break the symmetry of the crystal, in particular it may       |
|     rule out finding an antiferromagnetic solution. Thence, we              |
|     recommend setting the initial magnetic moment manually or verifying     |
|     carefully that this magnetic setup is desired.                          |

 POTCAR:    PAW_PBE Ge 05Jan2001
   VRHFIN =Ge: s2p2

   TITEL  = PAW_PBE Ge 05Jan2001
   POMASS =   72.610; ZVAL   =    4.000    mass and valenz
   ENMAX  =  173.807; ENMIN  =  130.355 eV

 POTCAR:    PAW_PBE Sn 08Apr2002
   VRHFIN =Sn: s2p2

   TITEL  = PAW_PBE Sn 08Apr2002
   POMASS =  118.710; ZVAL   =    4.000    mass and valenz
   ENMAX  =  103.236; ENMIN  =   77.427 eV

 Optimization of the real space projectors (new method)

 maximal supplied QI-value         = 16.25
 optimisation between [QCUT,QGAM] = [ 13.49, 26.98] = [ 50.95,203.80] Ry
 Optimized for a Real-space Cutoff    1.25 Angstroem

   l    n(q)    QCUT    max X(q) W(low)/X(q) W(high)/X(q)  e(spline)
   0     10    13.489    65.336    0.91E-04    0.11E-03    0.34E-06
   0     10    13.489    52.220    0.89E-04    0.11E-03    0.34E-06
   1     10    13.489    36.409    0.22E-03    0.27E-03    0.14E-06
   1     10    13.489    21.334    0.21E-03    0.27E-03    0.14E-06
   2      9    13.489     4.673    0.11E-03    0.12E-03    0.19E-06
 Optimization of the real space projectors (new method)

 maximal supplied QI-value         = 12.47
 optimisation between [QCUT,QGAM] = [ 12.47, 27.06] = [ 43.56,205.12] Ry
 Optimized for a Real-space Cutoff    1.58 Angstroem

   l    n(q)    QCUT    max X(q) W(low)/X(q) W(high)/X(q)  e(spline)
   0     13    12.472    14.688    0.45E-04    0.45E-04    0.25E-05
   0     13    12.472     7.308    0.94E-04    0.11E-03    0.61E-05
   1     12    12.472    45.102    0.34E-03    0.14E-03    0.21E-05
   1     12    12.472    30.691    0.31E-03    0.13E-03    0.20E-05
   2     12    12.472     7.156    0.86E-04    0.11E-03    0.17E-05
 WARNING: PSMAXN for non-local potential too small
          PSMAXN should be >   13.5545592237991       NTYP=           2
  PAW_PBE Ge 05Jan2001                  :
  PAW_PBE Sn 08Apr2002                  :

 POSCAR: Ge+Sn
  positions in direct lattice

 exchange-correlation table for PE
   RHO(1)=    0.500       N(1)  =     2000
   RHO(2)=  100.500       N(2)  =     4000

 ion  position               nearest neighbor table
   1  0.979  0.500  0.000- 122 2.45 115 2.45  97 2.45
   2  0.729  0.500  0.114-  98 2.45 123 2.45 116 2.45  97 2.45
   3  0.479  0.500  0.227-  99 2.45 124 2.45 117 2.45  98 2.45
   4  0.229  0.500  0.341- 125 2.45 100 2.45 118 2.45  99 2.45
   5  0.979  0.500  0.455- 126 2.45 119 2.45 101 2.45 100 2.45
   6  0.729  0.500  0.568- 102 2.45 120 2.45 101 2.45
   7  0.313  0.667  0.000- 156 2.33 128 2.45  73 2.45 121 2.45
   8  0.063  0.667  0.114- 129 2.45 122 2.45  74 2.45  73 2.45
   9  0.813  0.667  0.227- 130 2.45 123 2.45  75 2.45  74 2.45
  10  0.563  0.667  0.341- 131 2.45  75 2.45 124 2.45  76 2.45
  11  0.313  0.667  0.455- 132 2.45  77 2.45 125 2.45  76 2.45
  12  0.063  0.667  0.568-  78 2.45 126 2.45  77 2.45 145 3.12
  13  0.646  0.833  0.000- 180 2.38  79 2.45 110 2.45 127 2.45 153 3.07
  14  0.396  0.833  0.114-  80 2.45 128 2.45 111 2.45  79 2.45
  15  0.146  0.833  0.227-  81 2.45 129 2.45 112 2.45  80 2.45
  16  0.896  0.833  0.341-  82 2.45  81 2.45 113 2.45 130 2.45
  17  0.646  0.833  0.455-  83 2.45 114 2.45 131 2.45  82 2.45
  18  0.396  0.833  0.568-  84 2.45 132 2.45  83 2.45 163 3.15
  19  0.979  0.000  0.000- 109 2.45 134 2.45 103 2.45 171 3.27
  20  0.729  1.000  0.114- 104 2.45 135 2.45 110 2.45 103 2.45
  21  0.479  1.000  0.227- 136 2.45 105 2.45 111 2.45 104 2.45
  22  0.229  1.000  0.341- 105 2.45 137 2.45 112 2.45 106 2.45
  23  0.979  1.000  0.455- 138 2.45 113 2.45 106 2.45 107 2.45
  24  0.729  1.000  0.568- 108 2.45 114 2.45 107 2.45 154 3.07
  25  0.313  0.167  0.000- 140 2.45 133 2.45  85 2.45
  26  0.063  0.167  0.114- 141 2.45  86 2.45 134 2.45  85 2.45
  27  0.813  0.167  0.227- 135 2.45 142 2.45  87 2.45  86 2.45
  28  0.563  0.167  0.341- 136 2.45  87 2.45  88 2.45 143 2.45
  29  0.313  0.167  0.455- 144 2.45  89 2.45 137 2.45  88 2.45
  30  0.063  0.167  0.568-  90 2.45 138 2.45  89 2.45 151 2.54 178 2.92
  31  0.646  0.333  0.000- 116 2.45 139 2.45  91 2.45
  32  0.396  0.333  0.114-  92 2.45 117 2.45 140 2.45  91 2.45
  33  0.146  0.333  0.227- 118 2.45  93 2.45 141 2.45  92 2.45
  34  0.896  0.333  0.341- 142 2.45  94 2.45 119 2.45  93 2.45
  35  0.646  0.333  0.455- 120 2.45  95 2.45 143 2.45  94 2.45
  36  0.396  0.333  0.568- 144 2.45  96 2.45  95 2.45 169 2.58
  37  0.146  0.833  0.000- 109 2.45  73 2.45  80 2.45
  38  0.896  0.833  0.114- 110 2.45  74 2.45  81 2.45 109 2.45
  39  0.646  0.833  0.227- 111 2.45  75 2.45  82 2.45 110 2.45
  40  0.396  0.833  0.341- 112 2.45  83 2.45  76 2.45 111 2.45
  41  0.146  0.833  0.455-  84 2.45 113 2.45  77 2.45 112 2.45
  42  0.896  0.833  0.568-  78 2.45 114 2.45 113 2.45 145 2.58
  43  0.146  0.333  0.000- 159 2.38  92 2.45 115 2.45  85 2.45 168 3.07
  44  0.896  0.333  0.114-  93 2.45 116 2.45  86 2.45 115 2.45
  45  0.646  0.333  0.227- 117 2.45  94 2.45  87 2.45 116 2.45
  46  0.396  0.333  0.341-  95 2.45  88 2.45 118 2.45 117 2.45
  47  0.146  0.333  0.455-  96 2.45  89 2.45 119 2.45 118 2.45
  48  0.896  0.333  0.568-  90 2.45 120 2.45 119 2.45 148 3.15
  49  0.479  0.500  0.000-  98 2.45  91 2.45 121 2.45 147 3.27
  50  0.229  0.500  0.114-  99 2.45  92 2.45 122 2.45 121 2.45
  51  0.979  0.500  0.227- 123 2.45  93 2.45 100 2.45 122 2.45
  52  0.729  0.500  0.341-  94 2.45 101 2.45 124 2.45 123 2.45
  53  0.479  0.500  0.455- 102 2.45 125 2.45  95 2.45 124 2.45
  54  0.229  0.500  0.568-  96 2.45 126 2.45 125 2.45 175 3.07
  55  0.813  0.667  0.000- 127 2.45  97 2.45  74 2.45
  56  0.563  0.667  0.114- 128 2.45  98 2.45  75 2.45 127 2.45
  57  0.313  0.667  0.227-  99 2.45 129 2.45  76 2.45 128 2.45
  58  0.063  0.667  0.341-  77 2.45 130 2.45 100 2.45 129 2.45
  59  0.813  0.667  0.455- 131 2.45  78 2.45 101 2.45 130 2.45
  60  0.563  0.667  0.568- 102 2.45 132 2.45 131 2.45 166 2.54 157 2.92
[...]
 166  0.483  0.609  0.681-  60 2.54 102 2.63 157 2.74 158 2.81 132 3.03
 167  0.283  0.442  0.763- 175 2.74 158 2.74 159 2.81
 168  0.083  0.275  0.846- 176 2.74 159 2.74 178 2.81  43 3.07  85 3.14
 169  0.483  0.275  0.681-  36 2.58 144 2.67 160 2.74 161 2.81  72 3.12
 170  0.283  0.109  0.763- 178 2.74 161 2.74 162 2.81
 171  0.083  0.942  0.846- 179 2.74 162 2.74 172 2.81  19 3.27 109 3.34
 172  0.133  0.859  0.722- 164 2.74 145 2.74 171 2.81  84 3.04
 173  0.933  0.692  0.805- 165 2.74 146 2.74 145 2.81
 174  0.733  0.525  0.887-  97 2.30 147 2.74 146 2.81
 175  0.133  0.525  0.722- 167 2.74 148 2.74 165 2.81 126 2.90  54 3.07
 176  0.933  0.359  0.805- 168 2.74 149 2.74 148 2.81
 177  0.733  0.192  0.887-  67 2.33 139 2.34 150 2.74 149 2.81
 178  0.133  0.192  0.722- 170 2.74 151 2.74 168 2.81  30 2.92
 179  0.933  0.025  0.805- 171 2.74 152 2.74 151 2.81
 180  0.733  0.859  0.887-  13 2.38 153 2.74 152 2.81

  LATTYP: Found a simple orthorhombic cell.
 ALAT       =    13.8587245940
 B/A-ratio  =     1.2701840073
 C/A-ratio  =     1.4142135048

  Lattice vectors:

 A1 = ( -13.8587245940,   0.0000000000,   0.0000000000)
 A2 = (   0.0000000000,   0.0000000000,  17.6031303410)
 A3 = (   0.0000000000,  19.5991954800,   0.0000000000)

Analysis of symmetry for initial positions (statically):
 Subroutine PRICEL returns following result:

  LATTYP: Found a base centered orthorhombic cell.
 ALAT       =    13.8587262570
 B/A-ratio  =     1.4142133351
 C/A-ratio  =     1.2701838549

[...]

   2 primitive cells build up your supercell.

 Routine SETGRP: Setting up the symmetry group for a
 simple orthorhombic supercell.

 Subroutine GETGRP returns: Found  1 space group operations
 (whereof  1 operations were pure point group operations)
 out of a pool of  8 trial point group operations.

The static configuration has the point symmetry C_1 .

Analysis of symmetry for dynamics (positions and initial velocities):
 Subroutine PRICEL returns following result:

[...]

The dynamic configuration has the point symmetry C_1 .

Analysis of structural, dynamic, and magnetic symmetry:
 Subroutine PRICEL returns following result:

  LATTYP: Found a base centered orthorhombic cell.
 ALAT       =    13.8587262570
 B/A-ratio  =     1.4142133351
 C/A-ratio  =     1.2701838549

  Lattice vectors:

 A1 = (   6.9293631285,  -9.7995994843,   0.0000000000)
 A2 = (   6.9293631285,   9.7995959957,   0.0000000000)
 A3 = (   0.0000000000,   0.0000000000,  17.6031303410)

   2 primitive cells build up your supercell.

 Routine SETGRP: Setting up the symmetry group for a
 simple orthorhombic supercell.

 Subroutine GETGRP returns: Found  1 space group operations
 (whereof  1 operations were pure point group operations)
 out of a pool of  8 trial point group operations.

The overall configuration has the point symmetry C_1 .

 Subroutine INISYM returns: Found  1 space group operations
 (whereof  1 operations are pure point group operations),
 and found     2 'primitive' translations

                                     Primitive cell

  volume of cell :    2390.6801

  direct lattice vectors                    reciprocal lattice vectors
     6.929363129 -9.799599484  0.000000000     0.072156691 -0.051022502  0.000000000
     6.929363129  9.799595996  0.000000000     0.072156716  0.051022502  0.000000000
     0.000000000  0.000000000 17.603130341     0.000000000  0.000000000  0.056808078

  length of vectors
    12.002009141 12.002006293 17.603130341     0.088373547  0.088373568  0.056808078

  position of ions in fractional coordinates (direct lattice)
     0.479378200  0.479378489  0.000000015
     0.229378186  0.229378325  0.113635220
     0.979378199  0.979378132  0.227270424
[...]
     0.000000000  0.000000000 17.603130341     0.000000000  0.000000000  0.056808078

  length of vectors
    13.858724594 19.599195480 17.603130341     0.072156712  0.051022502  0.056808078

 FORCES acting on ions
    electron-ion (+dipol)            ewald-force                    non-local-force                 convergence-correction
   -.120E+02 -.587E+01 0.967E+02   0.128E+02 0.588E+01 -.972E+02   -.216E+00 0.418E+00 -.208E+00   -.210E-04 -.132E-04 -.588E-04
   0.173E+00 0.120E+01 0.552E+02   -.320E+00 -.128E+01 -.551E+02   0.140E+00 0.152E-01 -.166E-01   0.264E-04 0.693E-05 -.876E-04
   0.779E-01 -.104E+00 0.189E+02   -.635E-01 0.111E+00 -.189E+02   -.803E-01 -.475E-01 0.138E-01   0.105E-04 -.294E-05 -.159E-04
   -.170E+00 -.377E-01 -.189E+02   0.269E+00 0.818E-01 0.188E+02   -.166E+00 -.865E-01 0.818E-01   -.812E-05 -.401E-05 0.299E-04
   0.201E+01 -.454E+00 -.557E+02   -.201E+01 0.598E+00 0.559E+02   -.249E+00 -.168E+00 -.278E+00   0.146E-05 -.189E-04 0.637E-04
   -.126E+02 -.886E+01 -.973E+02   0.134E+02 0.876E+01 0.979E+02   -.168E+00 0.320E+00 0.101E+00   0.622E-05 -.193E-04 0.551E-04
   -.301E+02 -.285E+01 0.762E+02   0.311E+02 0.181E+01 -.751E+02   0.124E+01 -.519E-01 0.192E+01   0.604E-05 0.735E-04 -.714E-04
   0.260E+01 0.256E+00 0.574E+02   -.282E+01 -.504E+00 -.572E+02   0.119E+00 0.127E+00 -.282E+00   -.135E-04 0.394E-04 -.661E-04
   -.108E+00 -.856E-01 0.187E+02   0.245E+00 0.138E+00 -.188E+02   -.192E+00 -.896E-01 0.938E-01   -.199E-05 0.428E-04 -.506E-04
   -.105E+00 -.149E+00 -.182E+02   0.194E+00 0.197E+00 0.184E+02   -.166E+00 -.844E-01 -.579E-01   -.502E-05 0.480E-04 0.240E-04
   0.214E+01 0.103E+00 -.597E+02   -.229E+01 -.232E+00 0.596E+02   0.126E+00 0.491E-01 0.546E-01   0.157E-04 0.479E-04 0.559E-04
   -.172E+02 -.141E+01 -.907E+02   0.175E+02 0.195E+01 0.910E+02   -.253E+00 0.124E+00 0.292E+00   0.300E-04 0.227E-04 0.611E-04
   -.175E+01 -.724E+01 0.678E+02   0.148E+01 0.711E+01 -.666E+02   -.605E+00 0.543E-01 0.164E+01   0.305E-05 0.551E-04 -.483E-04
   0.111E+01 0.373E+00 0.593E+02   -.960E+00 -.237E+00 -.594E+02   -.137E+00 -.315E-01 0.164E+00   0.911E-06 0.836E-04 -.565E-04
   0.154E-01 -.879E-01 0.188E+02   0.286E-01 0.101E+00 -.188E+02   -.657E-01 -.688E-01 0.616E-01   0.744E-05 0.763E-04 -.268E-04
   0.142E+00 -.166E+00 -.186E+02   -.144E+00 0.192E+00 0.186E+02   -.665E-01 -.493E-01 0.931E-01   0.413E-05 0.675E-04 -.108E-04
   0.267E+00 0.132E+01 -.591E+02   0.425E-01 -.122E+01 0.595E+02   -.287E+00 -.143E+00 -.291E+00   -.340E-04 0.544E-04 0.316E-04
   -.879E+01 -.149E+01 -.900E+02   0.898E+01 0.200E+01 0.902E+02   0.261E+00 0.217E+00 0.589E+00   0.103E-04 0.665E-04 0.474E-04
   -.629E+01 -.125E+02 0.872E+02   0.615E+01 0.122E+02 -.873E+02   0.294E+00 0.300E+00 -.535E+00   0.244E-04 0.581E-04 -.624E-04
   0.113E+01 0.271E+00 0.581E+02   -.796E+00 -.289E+00 -.586E+02   -.376E+00 -.974E-01 0.439E+00   0.307E-06 0.260E-04 -.726E-04
   0.281E-02 0.166E-01 0.190E+02   0.848E-01 0.415E-01 -.191E+02   -.124E+00 -.973E-01 0.829E-01   -.395E-05 0.105E-04 -.488E-04
   -.110E+00 -.789E-02 -.189E+02   0.172E+00 0.715E-01 0.191E+02   -.839E-01 -.764E-01 -.188E+00   0.325E-05 0.118E-04 0.582E-05
   0.111E+01 0.189E+01 -.582E+02   -.131E+01 -.200E+01 0.580E+02   0.679E-01 0.183E+00 0.118E+00   0.122E-04 0.391E-04 0.346E-04
   -.196E+02 -.917E+01 -.853E+02   0.197E+02 0.887E+01 0.856E+02   0.851E-01 0.385E+00 0.305E+00   -.193E-04 0.453E-04 0.488E-04
   -.140E+02 -.121E+02 0.920E+02   0.146E+02 0.128E+02 -.929E+02   -.142E+00 -.228E+00 0.463E-01   -.237E-04 -.836E-04 -.807E-04
   0.197E+01 0.959E+00 0.594E+02   -.189E+01 -.987E+00 -.596E+02   -.150E+00 -.357E-01 0.134E+00   0.152E-04 -.644E-04 -.953E-04
   -.409E+00 -.581E-01 0.186E+02   0.371E+00 0.142E-01 -.185E+02   -.407E-01 -.382E-02 -.622E-01   0.110E-04 -.583E-04 -.336E-04
   -.103E+00 0.567E-01 -.186E+02   0.196E+00 -.427E-01 0.187E+02   -.915E-01 -.424E-01 -.805E-01   0.317E-05 -.604E-04 0.194E-04
   0.127E+01 0.130E+01 -.586E+02   -.122E+01 -.123E+01 0.591E+02   -.298E+00 -.241E+00 -.466E+00   -.209E-05 -.561E-04 0.636E-04
   -.175E+02 -.177E+02 -.715E+02   0.179E+02 0.183E+02 0.699E+02   0.127E+01 0.109E+01 -.290E+00   0.926E-05 -.276E-04 0.580E-04
   -.102E+02 -.841E+01 0.922E+02   0.102E+02 0.872E+01 -.928E+02   0.719E-03 -.427E-01 -.727E-01   0.201E-04 -.609E-04 -.790E-04
   -.300E+00 0.156E+01 0.585E+02   0.494E+00 -.127E+01 -.591E+02   -.326E+00 -.311E+00 0.536E+00   -.109E-04 -.843E-04 -.751E-04
   0.230E+00 0.181E+00 0.182E+02   -.173E-01 0.514E-01 -.183E+02   -.181E+00 -.164E+00 0.111E+00   -.178E-04 -.692E-04 -.396E-04
   0.153E+00 0.135E+00 -.188E+02   -.387E-01 -.380E-01 0.188E+02   -.116E+00 -.102E+00 0.155E-01   0.108E-05 -.576E-04 0.274E-04
   -.513E+00 0.321E+00 -.570E+02   0.488E+00 -.254E+00 0.571E+02   -.410E-01 -.134E+00 -.972E-01   0.197E-04 -.559E-04 0.652E-04
   0.119E+01 -.186E+02 -.841E+02   -.155E+01 0.188E+02 0.839E+02   -.953E-01 0.281E+00 -.212E+00   0.426E-05 -.608E-04 0.784E-04
   -.102E+02 -.841E+01 0.922E+02   0.102E+02 0.872E+01 -.928E+02   0.719E-03 -.427E-01 -.727E-01   0.171E-04 0.795E-04 -.637E-04
   -.300E+00 0.156E+01 0.585E+02   0.494E+00 -.127E+01 -.591E+02   -.326E+00 -.311E+00 0.536E+00   -.638E-05 0.599E-04 -.574E-04
   0.230E+00 0.181E+00 0.182E+02   -.173E-01 0.514E-01 -.183E+02   -.181E+00 -.164E+00 0.111E+00   -.834E-05 0.611E-04 -.379E-04
   0.153E+00 0.135E+00 -.188E+02   -.387E-01 -.381E-01 0.188E+02   -.116E+00 -.102E+00 0.155E-01   -.917E-06 0.636E-04 0.227E-04
   -.513E+00 0.321E+00 -.570E+02   0.488E+00 -.254E+00 0.571E+02   -.410E-01 -.134E+00 -.972E-01   0.279E-04 0.602E-04 0.421E-04
   0.119E+01 -.186E+02 -.841E+02   -.155E+01 0.188E+02 0.839E+02   -.953E-01 0.281E+00 -.212E+00   0.201E-04 0.701E-04 0.595E-04
   -.175E+01 -.724E+01 0.678E+02   0.148E+01 0.711E+01 -.666E+02   -.605E+00 0.543E-01 0.164E+01   -.109E-04 -.842E-04 -.797E-04
   0.111E+01 0.373E+00 0.593E+02   -.960E+00 -.237E+00 -.594E+02   -.137E+00 -.315E-01 0.164E+00   0.186E-04 -.553E-04 -.783E-04
   0.154E-01 -.878E-01 0.188E+02   0.286E-01 0.101E+00 -.188E+02   -.657E-01 -.688E-01 0.616E-01   0.128E-04 -.545E-04 -.226E-04
   0.142E+00 -.166E+00 -.186E+02   -.144E+00 0.192E+00 0.186E+02   -.665E-01 -.493E-01 0.931E-01   -.247E-05 -.583E-04 0.171E-04
   0.267E+00 0.132E+01 -.591E+02   0.425E-01 -.122E+01 0.595E+02   -.287E+00 -.143E+00 -.291E+00   -.165E-04 -.618E-04 0.638E-04
   -.879E+01 -.149E+01 -.900E+02   0.898E+01 0.200E+01 0.902E+02   0.261E+00 0.217E+00 0.589E+00   0.156E-04 -.518E-04 0.557E-04
   -.629E+01 -.125E+02 0.872E+02   0.615E+01 0.122E+02 -.873E+02   0.294E+00 0.300E+00 -.535E+00   0.399E-04 -.383E-06 -.811E-04
   0.113E+01 0.271E+00 0.581E+02   -.796E+00 -.289E+00 -.586E+02   -.376E+00 -.974E-01 0.439E+00   -.346E-04 -.162E-04 -.518E-04
   0.280E-02 0.166E-01 0.190E+02   0.848E-01 0.415E-01 -.191E+02   -.124E+00 -.973E-01 0.829E-01   -.530E-05 -.121E-04 -.414E-04
   -.110E+00 -.787E-02 -.189E+02   0.172E+00 0.715E-01 0.191E+02   -.839E-01 -.764E-01 -.188E+00   0.691E-05 -.984E-05 0.208E-04
   0.111E+01 0.189E+01 -.582E+02   -.131E+01 -.200E+01 0.580E+02   0.679E-01 0.183E+00 0.118E+00   0.372E-05 0.976E-05 0.608E-04
   -.196E+02 -.917E+01 -.853E+02   0.197E+02 0.887E+01 0.856E+02   0.851E-01 0.385E+00 0.305E+00   0.208E-05 0.107E-06 0.642E-04
   -.140E+02 -.121E+02 0.920E+02   0.146E+02 0.128E+02 -.929E+02   -.142E+00 -.228E+00 0.463E-01   -.649E-05 0.254E-04 -.533E-04
   0.197E+01 0.958E+00 0.594E+02   -.189E+01 -.987E+00 -.596E+02   -.150E+00 -.357E-01 0.134E+00   0.231E-04 0.551E-04 -.698E-04
   -.409E+00 -.582E-01 0.186E+02   0.371E+00 0.142E-01 -.185E+02   -.407E-01 -.382E-02 -.622E-01   0.829E-06 0.571E-04 -.102E-04
   -.103E+00 0.566E-01 -.186E+02   0.196E+00 -.427E-01 0.187E+02   -.915E-01 -.424E-01 -.805E-01   0.952E-05 0.395E-04 0.120E-04
   0.127E+01 0.130E+01 -.586E+02   -.122E+01 -.123E+01 0.591E+02   -.298E+00 -.241E+00 -.466E+00   -.159E-04 0.201E-04 0.317E-04
   -.175E+02 -.177E+02 -.715E+02   0.179E+02 0.183E+02 0.699E+02   0.127E+01 0.109E+01 -.290E+00   -.771E-05 0.427E-04 0.543E-04
[...]
   -.642E+01 0.123E+02 -.684E+01   0.730E+01 -.124E+02 0.580E+01   -.728E+00 -.854E+00 0.596E+00   0.240E-05 -.512E-04 0.762E-05
   0.980E+01 0.157E+02 0.398E+02   -.945E+01 -.156E+02 -.395E+02   -.438E+00 -.139E+01 -.960E-01   0.159E-04 -.791E-04 0.243E-04
   -.200E+01 -.582E+01 -.695E+02   0.253E+01 0.632E+01 0.704E+02   0.997E-01 -.634E+00 -.593E-01   -.104E-04 -.550E-04 0.317E-04
   -.566E+01 0.123E+02 0.220E+01   0.624E+01 -.126E+02 -.288E+01   -.333E+00 -.712E+00 0.490E-01   -.134E-04 -.401E-04 0.582E-04
   -.249E+01 0.866E+01 0.342E+02   0.173E+01 -.930E+01 -.343E+02   0.732E+00 -.629E-01 0.973E+00   0.297E-04 0.725E-04 0.210E-04
   0.125E+01 -.956E+01 -.298E+02   -.127E+01 0.996E+01 0.300E+02   0.798E+00 -.620E-01 -.145E+01   0.117E-04 0.746E-04 0.369E-04
   0.427E+01 -.130E+02 -.180E+01   -.486E+01 0.135E+02 0.230E+01   -.732E-01 0.258E+00 0.392E+00   -.678E-05 0.398E-04 0.238E-04
   0.340E+01 0.795E+01 0.664E+02   -.403E+01 -.763E+01 -.669E+02   -.120E+01 -.639E+00 -.288E+01   0.501E-05 -.209E-05 -.523E-06
   -.424E+01 -.120E+02 -.421E+02   0.432E+01 0.125E+02 0.430E+02   0.442E+00 0.806E-01 -.102E+01   0.317E-05 -.144E-04 0.101E-04
   0.697E+01 -.112E+02 0.246E+01   -.763E+01 0.119E+02 -.246E+01   0.194E+00 -.462E-01 0.128E+01   0.120E-04 -.482E-04 0.219E-04
   -.140E+02 -.200E+01 0.855E+02   0.143E+02 0.256E+01 -.867E+02   0.686E+00 0.133E+00 -.507E+01   0.188E-04 -.600E-04 0.280E-05
   -.102E+02 -.156E+02 -.315E+02   0.107E+02 0.169E+02 0.323E+02   -.104E+00 -.520E+00 -.163E+01   0.110E-04 -.517E-04 0.387E-04
   0.505E+01 -.130E+02 0.702E+01   -.536E+01 0.137E+02 -.666E+01   -.372E-01 -.158E+00 0.547E+00   0.258E-04 0.239E-04 0.410E-04
   -.273E+02 -.837E+01 0.628E+02   0.281E+02 0.886E+01 -.630E+02   0.175E+01 0.518E+00 -.167E+01   -.735E-05 0.506E-04 0.146E-04
   0.215E+01 0.668E+01 0.323E+01   -.675E-13 0.101E-12 0.362E-12   -.234E+01 -.681E+01 -.327E+01   -.167E-04 0.145E-04 -.505E-03

 POSITION                                       TOTAL-FORCE (eV/Angst)
     13.57294      9.79960      0.00000         0.578736      0.429729     -0.716173
     10.10825      9.79960      2.00034        -0.006472     -0.066122      0.134536
      6.64357      9.79960      4.00067        -0.064794     -0.040036     -0.005638
      3.17889      9.79959      6.00101        -0.066294     -0.041764      0.069142
     13.57293      9.79959      8.00134        -0.252129     -0.024540     -0.071344
     10.10825      9.79959     10.00167         0.569377      0.225573      0.741206
      4.33379     13.06613      0.00000         2.268382     -1.087464      3.078957
      0.86910     13.06613      2.00034        -0.100468     -0.120393     -0.122577
     11.26315     13.06613      4.00067        -0.053462     -0.036816     -0.004286
      7.79846     13.06613      6.00100        -0.075496     -0.035860      0.066100
      4.33378     13.06613      8.00134        -0.019317     -0.079749     -0.067127
      0.86910     13.06612     10.00167         0.033724      0.667673      0.621606
      8.95336     16.33266      0.00000        -0.870235     -0.076986      2.869978
      5.48868     16.33266      2.00034         0.017738      0.105326     -0.006928
      2.02400     16.33266      4.00067        -0.020623     -0.055309      0.056578
     12.41804     16.33266      6.00100        -0.066684     -0.022177      0.101417
      8.95336     16.33266      8.00134         0.023462     -0.044388      0.100908
      5.48867     16.33266     10.00167         0.455299      0.718839      0.797895
     13.57294      0.00000      0.00000         0.148560      0.039034     -0.621278
     10.10825     19.59919      2.00034        -0.044269     -0.114536     -0.043737
      6.64357     19.59919      4.00067        -0.035157     -0.038413     -0.020569
      3.17889     19.59919      6.00100        -0.020201     -0.012174     -0.030277
     13.57293     19.59919      8.00134        -0.128981      0.080842     -0.025692
     10.10825     19.59919     10.00167         0.206881      0.084935      0.565415
      4.33379      3.26653      0.00000         0.424129      0.411510     -0.885548
      0.86910      3.26653      2.00034        -0.069603     -0.063943     -0.082219
     11.26315      3.26653      4.00067        -0.077671     -0.047058     -0.013359
      7.79846      3.26653      6.00100         0.002250     -0.027753     -0.003708
      4.33378      3.26653      8.00134        -0.242821     -0.163911      0.093397
      0.86910      3.26653     10.00167         1.669077      1.637538     -1.795922
      8.95336      6.53307      0.00000         0.053014      0.266638     -0.622622
      5.48868      6.53306      2.00034        -0.131025     -0.027343     -0.009977
      2.02400      6.53306      4.00067         0.032131      0.069361     -0.051654
     12.41804      6.53306      6.00100        -0.000885     -0.004269     -0.031182
      8.95336      6.53306      8.00134        -0.065311     -0.065183     -0.000720
      5.48867      6.53306     10.00167        -0.453506      0.500750     -0.446540
      2.02400     16.33266      0.00000         0.053014      0.266638     -0.622622
     12.41804     16.33266      2.00033        -0.131025     -0.027343     -0.009977
      8.95336     16.33266      4.00067         0.032131      0.069361     -0.051654
      5.48868     16.33266      6.00101        -0.000885     -0.004269     -0.031182
      2.02400     16.33266      8.00134        -0.065311     -0.065183     -0.000720
     12.41804     16.33266     10.00167        -0.453506      0.500750     -0.446540
      2.02400      6.53306      0.00000        -0.870235     -0.076986      2.869978
     12.41804      6.53306      2.00034         0.017738      0.105326     -0.006928
      8.95336      6.53306      4.00067        -0.020623     -0.055309      0.056578
      5.48868      6.53306      6.00101        -0.066684     -0.022177      0.101417
      2.02400      6.53306      8.00134         0.023462     -0.044388      0.100908
     12.41804      6.53306     10.00167         0.455299      0.718839      0.797895
      6.64357      9.79960      0.00000         0.148560      0.039034     -0.621278
      3.17889      9.79960      2.00034        -0.044269     -0.114536     -0.043737
     13.57293      9.79960      4.00067        -0.035157     -0.038413     -0.020569
     10.10825      9.79959      6.00101        -0.020201     -0.012174     -0.030277
      6.64357      9.79959      8.00134        -0.128981      0.080842     -0.025692
      3.17889      9.79959     10.00167         0.206881      0.084935      0.565415
     11.26315     13.06613      0.00000         0.424129      0.411510     -0.885548
      7.79847     13.06613      2.00034        -0.069603     -0.063943     -0.082219
      4.33378     13.06613      4.00067        -0.077671     -0.047058     -0.013359
      0.86910     13.06613      6.00101         0.002250     -0.027753     -0.003708
     11.26314     13.06613      8.00134        -0.242821     -0.163911      0.093397
      7.79846     13.06612     10.00167         1.669077      1.637538     -1.795922
[...]
      6.69246     11.93261     11.98862        -2.361109     -1.066356      1.618212
      3.92071      8.66608     13.43965         0.146783     -0.915920     -0.452502
      1.14896      5.39954     14.89068        -0.088123     -1.307479      0.138644
      6.69246      5.39954     11.98862         0.633326     -0.129014      0.772575
      3.92071      2.13301     13.43965         0.246554     -0.968059     -0.627863
      1.14896     18.46567     14.89068        -0.029286     -0.701442      0.863047
      1.84190     16.83241     12.71413         0.775887      0.337492     -1.223061
     12.92888     13.56588     14.16516        -0.658742      0.718853      0.889717
     10.15714     10.29934     15.61619        -1.832987     -0.312999     -3.328700
      1.84190     10.29934     12.71413         0.523301      0.596552     -0.112782
     12.92888      7.03281     14.16516        -0.465953      0.584230      1.290829
     10.15714      3.76628     15.61619         0.929511      0.697246     -6.282779
      1.84190      3.76628     12.71413         0.330965      0.747914     -0.860691
     12.92888      0.49975     14.16516        -0.346929      0.553648      0.902954
     10.15714     16.83241     15.61619         2.494878      1.005662     -1.889557
    total drift:                               -0.185789     -0.124498     -0.044488

  FREE ENERGIE OF THE ION-ELECTRON SYSTEM (eV)
  free  energy   TOTEN  =      -733.31613821 eV

  energy  without entropy=     -733.31290427  energy(sigma->0) =     -733.31452124