 vasp.6.4.3 19Mar24 (build Oct 22 2024 11:23:12) complex

 executed on             LinuxIFC date 2025.06.11  05:41:27

 INCAR:
   SYSTEM = Si and Ge interface calculation
   ISTART = 0
   ICHARG = 2
   LWAVE = .FALSE.
   LREAL = AUTO
   ENCUT = 700
   ENAUG = 900
   ADDGRID = .TRUE.
   LMAXMIX = 6
   LASPH = .TRUE.
   LMIXTAU = .TRUE.
   NCORE = 16
   NELM = 100
   NBANDS = 634
   EDIFF = 1d-7
   AMIX = 0.6
   ISMEAR = 0
   SIGMA = 0.01
   NELECT = 1056
   ISPIN = 2
   NUPDOWN = 1
   LVTOT = .FALSE.
   LVHAR = .TRUE.

 POTCAR:    PAW_PBE Sn 08Apr2002
 POTCAR:    PAW_PBE Si 05Jan2001
|           W    W    AA    RRRRR   N    N  II  N    N   GGGG   !!!           |
|           W    W   A  A   R    R  NN   N  II  NN   N  G    G  !!!           |
|           W    W  A    A  R    R  N N  N  II  N N  N  G       !!!           |
|           W WW W  AAAAAA  RRRRR   N  N N  II  N  N N  G  GGG   !            |
|           WW  WW  A    A  R   R   N   NN  II  N   NN  G    G                |
|           W    W  A    A  R    R  N    N  II  N    N   GGGG   !!!           |
|     You use a magnetic or noncollinear calculation, but did not specify     |
|     the initial magnetic moment with the MAGMOM tag. Note that a            |
|     default of 3.788e-3 will be used for all atoms. This ferromagnetic      |
|     setup may break the symmetry of the crystal, in particular it may       |
|     rule out finding an antiferromagnetic solution. Thence, we              |
|     recommend setting the initial magnetic moment manually or verifying     |
|     carefully that this magnetic setup is desired.                          |

 POTCAR:    PAW_PBE Sn 08Apr2002
   VRHFIN =Sn: s2p2

   TITEL  = PAW_PBE Sn 08Apr2002
   POMASS =  118.710; ZVAL   =    4.000    mass and valenz
   ENMAX  =  103.236; ENMIN  =   77.427 eV

 POTCAR:    PAW_PBE Si 05Jan2001
   VRHFIN =Si: s2p2

   TITEL  = PAW_PBE Si 05Jan2001
   POMASS =   28.085; ZVAL   =    4.000    mass and valenz
   ENMAX  =  245.345; ENMIN  =  184.009 eV

 Optimization of the real space projectors (new method)

 maximal supplied QI-value         = 12.47
 optimisation between [QCUT,QGAM] = [ 12.47, 27.06] = [ 43.56,205.12] Ry
 Optimized for a Real-space Cutoff    1.58 Angstroem

   l    n(q)    QCUT    max X(q) W(low)/X(q) W(high)/X(q)  e(spline)
   0     13    12.472    14.688    0.45E-04    0.45E-04    0.25E-05
   0     13    12.472     7.308    0.94E-04    0.11E-03    0.61E-05
   1     12    12.472    45.102    0.34E-03    0.14E-03    0.21E-05
   1     12    12.472    30.691    0.31E-03    0.13E-03    0.20E-05
   2     12    12.472     7.156    0.86E-04    0.11E-03    0.17E-05
 WARNING: PSMAXN for non-local potential too small
          PSMAXN should be >   13.5545592237991       NTYP=           1
 Optimization of the real space projectors (new method)

 maximal supplied QI-value         = 19.84
 optimisation between [QCUT,QGAM] = [ 13.49, 26.99] = [ 50.98,203.92] Ry
 Optimized for a Real-space Cutoff    1.07 Angstroem

   l    n(q)    QCUT    max X(q) W(low)/X(q) W(high)/X(q)  e(spline)
   0      9    13.493   159.560    0.22E-03    0.15E-03    0.72E-07
   0      9    13.493   115.863    0.21E-03    0.15E-03    0.71E-07
   1      8    13.493    88.339    0.15E-03    0.11E-03    0.13E-06
   1      8    13.493    48.592    0.15E-03    0.10E-03    0.13E-06
  PAW_PBE Sn 08Apr2002                  :
  PAW_PBE Si 05Jan2001                  :

 POSCAR: Sn+Si
  positions in direct lattice

 exchange-correlation table for PE
   RHO(1)=    0.500       N(1)  =     2000
   RHO(2)=  100.500       N(2)  =     4000

 ion  position               nearest neighbor table
   1  0.245  0.417  0.109- 103 2.44  58 2.81 168 2.81 220 2.81  14 2.81  52 3.32 207 3.33
   2  0.400  0.516  0.000-  67 1.88  40 2.09 219 2.34 135 2.34  10 3.24
   3  0.919  0.613  0.544- 148 2.34 259 2.34  30 2.44  84 2.68  89 3.16  60 3.25  32 3.30  33 3.43

   4  0.995  0.333  0.000- 234 1.37 123 2.24 153 2.66  34 2.81 165 2.81 152 3.09 192 3.11 195 3.20
                           103 3.43
   5  0.828  0.333  0.218- 249 2.81  35 2.81 104 2.81 165 2.81
   6  0.662  0.333  0.436- 208 2.09 223 2.81 237 2.81  27 2.81 104 2.81  15 2.81 136 2.98
   7  0.578  0.750  0.109- 186 2.46  64 2.81  74 2.81  19 2.81  20 2.81  43 3.25 258 3.27 144 3.32

   8  0.912  0.417  0.544-  68 0.61 262 1.88  60 2.81 105 2.81 178 2.86
   9  0.662  0.000  0.436- 127 2.38 118 2.81  12 2.81 107 2.81  95 2.81  59 3.28 169 3.29  65 3.30

[...]

  11  0.162  0.667  0.218-  41 2.81  22 2.81  61 2.81 112 2.81  82 2.81
  12  0.745  0.917  0.544- 142 1.48 256 2.27  59 2.58   9 2.81  51 2.81 212 3.04 169 3.10 184 3.19
                            65 3.42
  13  0.328  0.833  0.218- 214 0.00  82 2.81  92 2.81  38 2.81  37 2.81
  14  0.162  0.333  0.218- 205 2.81 243 2.81  34 2.81   1 2.81 103 3.30
  15  0.578  0.417  0.544- 247 1.83  86 2.24 136 2.29 137 2.80 190 2.81   6 2.81 166 2.93 124 3.21
                           208 3.24
  16  0.328  0.000  0.000- 240 1.46 129 2.30  37 2.81  79 2.81 239 3.07 210 3.12 198 3.15
  17  0.162  0.000  0.218-  38 2.81  28 2.81  42 2.81  79 2.81
  18  0.995  0.000  0.436- 109 1.62  39 2.81 180 2.81  42 2.81  90 2.81
  19  0.662  0.667  0.000- 186 0.61 225 1.88  49 2.81   7 2.81 144 2.86  50 3.21
  20  0.495  0.667  0.218-  92 2.81  40 2.81 231 2.81   7 2.81
  21  0.328  0.667  0.436- 202 2.03  57 2.81  41 2.81  93 2.81  92 2.81
  22  0.078  0.583  0.109- 162 2.05  11 2.81  85 2.81  58 2.81 211 2.81 204 3.05
  23  0.495  0.333  0.218- 108 2.81 255 2.81 237 2.81 223 2.81  94 2.81  29 3.56
  24  0.323  0.132  0.636-  99 2.24 125 2.34 115 2.34  69 2.34 197 2.34  54 3.18
  25  0.662  0.000  0.000- 183 1.39 141 2.21  43 2.68  46 2.81 213 2.81 170 3.07 189 3.16  97 3.18
                           252 3.38
  26  0.495  0.000  0.218-  98 2.81  37 2.81 118 2.81 213 2.81
  27  0.745  0.250  0.544- 250 1.36 208 1.88 139 1.94   6 2.81  63 2.81 221 3.29 140 3.35
  28  0.078  0.917  0.109- 156 2.03  17 2.81  91 2.81  55 2.81  56 2.81  44 3.06
  29  0.554  0.286  0.000-  31 2.30 222 2.34 138 2.34  70 2.58  94 3.06 255 3.28  23 3.56
  30  0.995  0.667  0.436-   3 2.44  89 2.81  32 2.81  61 2.81 112 2.81  84 2.81  53 3.23  78 3.32
                           148 3.33
  31  0.662  0.333  0.000- 222 1.89  29 2.30  71 2.34 179 2.78  94 2.81 249 2.81 147 2.84 261 3.13
                           150 3.16
  32  0.912  0.583  0.327- 177 2.81  30 2.81 211 2.81  60 2.81   3 3.30
  33  0.745  0.583  0.544- 217 1.37 259 2.24 136 2.66 145 2.81  60 2.81 146 3.09 175 3.11 178 3.20
                             3 3.43
  34  0.078  0.250  0.109-  14 2.81  83 2.81   4 2.81  62 2.81 103 3.25 153 3.27 195 3.32
  35  0.912  0.250  0.327-  62 2.81   5 2.81 105 2.81  63 2.81
  36  0.328  0.000  0.436- 130 2.46  48 2.81  38 2.81  99 2.81  98 2.81  69 3.25 199 3.27 241 3.32

[...]

  51  0.828  0.833  0.436- 142 2.05  84 2.81 101 2.81  12 2.81 180 2.81  53 3.04 184 3.05
  52  0.361  0.324  0.000- 138 2.34 207 2.34 255 2.38   1 3.32
  53  0.957  0.805  0.544-  84 1.39 229 2.34 184 2.34  51 3.04  39 3.21  30 3.23
  54  0.412  0.250  0.544- 124 1.39 235 2.21  69 2.68 154 2.81  81 2.81 125 3.07 166 3.16  24 3.18
                           193 3.38
  55  0.162  0.833  0.000- 132 1.89  44 2.30 174 2.34 242 2.78  82 2.81  28 2.81 198 2.84 156 3.13
                           240 3.16
  56  0.995  0.833  0.218- 100 2.81  61 2.81 112 2.81 180 2.81  28 2.81  44 3.56
  57  0.412  0.583  0.544- 163 1.89  86 2.34 134 2.78  21 2.81 190 2.81 244 2.84 202 3.13 133 3.16

[...]

  61  0.078  0.750  0.327- 112 0.00  56 2.81  66 2.81  11 2.81  30 2.81  47 3.54
  62  0.995  0.167  0.218-  35 2.81 106 2.81  42 2.81  34 2.81
  63  0.828  0.167  0.436- 139 2.03  90 2.81  27 2.81  35 2.81 107 2.81  59 3.06
  64  0.495  0.833  0.000- 171 1.37  97 2.24 258 2.66   7 2.81  37 2.81 257 3.09 129 3.11 144 3.20
                            43 3.43
  65  0.573  0.882  0.544- 172 2.34 256 2.34  75 2.41 102 2.57  48 3.21   9 3.30 118 3.32  12 3.42

[...]

  77  0.662  0.500  0.218- 104 2.81  94 2.81 231 2.81  49 2.81
  78  0.111  0.574  0.544-  89 0.66 148 2.34 232 2.34 196 2.38  30 3.32
  79  0.245  0.083  0.109-  83 2.81 264 2.81  16 2.81  17 2.81 126 3.28 240 3.32
  80  0.828  0.833  0.000- 159 0.66 111 1.84 100 2.81  46 2.81 201 2.91  43 3.16
  81  0.495  0.167  0.436-  69 2.44  95 2.81  98 2.81 223 2.81 237 2.81  54 2.81 124 3.23 127 3.32
                           238 3.33
  82  0.245  0.750  0.109- 174 1.62  55 2.81  13 2.81 214 2.81  10 2.81  11 2.81
  83  0.162  0.167  0.000- 126 1.88  79 2.81  34 2.81 195 2.86
  84  0.912  0.750  0.544-  53 1.39 184 2.21   3 2.68  51 2.81  30 2.81 224 3.07 229 3.16 259 3.18
                           142 3.38
  85  0.995  0.667  0.000- 162 1.48 120 2.27  44 2.58  22 2.81 100 2.81 230 3.04 201 3.10 204 3.19
                            50 3.42
  86  0.496  0.497  0.544- 190 1.62  15 2.24 163 2.34 247 2.34  57 2.34
  87  0.828  0.000  0.218- 246 0.00  46 2.81 180 2.81 107 2.81 106 2.81
  88  0.828  0.167  0.000- 114 1.83  71 2.24 153 2.29 182 2.80 106 2.81 249 2.81 189 2.93 183 3.21
                           228 3.24
  89  0.078  0.583  0.544-  78 0.66 148 1.84  30 2.81 196 2.81 232 2.91   3 3.16
  90  0.912  0.083  0.544- 253 1.89  59 2.30 109 2.34 188 2.78  63 2.81  18 2.81 181 2.84 139 3.13
                           187 3.16
  91  0.995  0.000  0.000- 117 1.36 228 1.88 156 1.94  28 2.81 106 2.81 227 3.29 158 3.35
  92  0.412  0.750  0.327-  20 2.81  13 2.81 214 2.81  75 2.81  21 2.81
  93  0.245  0.750  0.544- 160 1.36  47 1.88 202 1.94  66 2.81  21 2.81 131 3.29 203 3.35
  94  0.578  0.417  0.109- 261 2.03  67 2.81  77 2.81  31 2.81  23 2.81  29 3.06
  95  0.578  0.083  0.544- 127 0.66 238 1.84  81 2.81   9 2.81 169 2.91  69 3.16
  96  0.245  0.417  0.544- 193 1.48 151 2.27 196 2.81 154 2.81 122 3.04 232 3.10 235 3.19
  97  0.573  0.882  0.909-  64 2.24 257 2.34 170 2.34  43 2.34 171 2.34  25 3.18
  98  0.412  0.083  0.327-  26 2.81 264 2.81  81 2.81  36 2.81  69 3.30
  99  0.245  0.083  0.544- 115 1.37  24 2.24 199 2.66  36 2.81  72 2.81 197 3.09 226 3.11 241 3.20
                            69 3.43
 100  0.912  0.750  0.109- 159 2.38  80 2.81  56 2.81 177 2.81  85 2.81  44 3.28 201 3.29  50 3.30

[...]

 214  0.328  0.833  0.218-  13 0.00  82 2.81  92 2.81  38 2.81  37 2.81
 215  0.457  0.805  0.727- 244 2.34 173 2.34 257 2.34 172 2.34
 216  0.342  0.728  0.909-  10 1.83 245 2.34 174 2.34 173 2.34 258 2.34
 217  0.727  0.651  0.544-  33 1.37 145 2.08 175 2.34 259 2.34
 218  0.611  0.574  0.727- 247 2.34 176 2.34 260 2.34 175 2.34
 219  0.496  0.497  0.909-  67 1.36 248 2.34   2 2.34 176 2.34 261 2.34
 220  0.328  0.500  0.218- 168 0.00   1 2.81 108 2.81  41 2.81  40 2.81
 221  0.765  0.343  0.727- 263 2.34 179 2.34 250 2.34 178 2.34  27 3.29
 222  0.650  0.266  0.909-  31 1.89 179 2.34 251 2.34  71 2.34  29 2.34
 223  0.578  0.250  0.327- 237 0.00   6 2.81 121 2.81  73 2.81  81 2.81  23 2.81
 224  0.842  0.728  0.727- 259 2.34 185 2.34 230 2.34 184 2.34  84 3.07
 225  0.727  0.651  0.909-  19 1.88 260 2.34  50 2.34 185 2.34 186 2.34  49 3.28
 226  0.131  0.170  0.636-  45 2.30 194 2.34 115 2.34 187 2.34 116 2.34  72 3.04  99 3.11
[...]
     0.000000000  0.000000000 14.900251389     0.000000000  0.000000000  0.067112962

  length of vectors
    19.467599869 19.467599869 14.900251389     0.051367401  0.051367401  0.067112962

 FORCES acting on ions
    electron-ion (+dipol)            ewald-force                    non-local-force                 convergence-correction
   0.347E+02 0.416E+02 -.401E+02   -.677E+00 -.181E+02 0.674E+02   0.386E+01 0.441E+01 0.496E+01   -.309E+02 -.232E+02 -.255E+02
   0.391E+02 0.249E+02 -.434E+02   -.681E+02 -.335E+02 0.622E+02   -.228E+02 -.341E+01 -.623E+01   0.109E+02 0.667E+01 -.223E+02
   -.119E+01 0.289E+02 0.851E+02   -.658E+01 -.297E+02 -.849E+02   -.245E+01 -.281E+01 -.194E+00   0.673E+01 -.560E+00 0.778E+00
   -.201E+02 0.559E+02 -.911E+02   0.383E+02 -.104E+03 0.939E+02   0.908E+01 -.440E+02 0.305E+01   -.653E+01 -.181E+01 -.175E+01
   -.275E+02 -.892E+01 -.334E+02   0.209E+02 0.122E+02 0.373E+02   0.234E+00 0.275E+00 -.861E+00   0.628E+01 -.378E+01 -.410E+01
   -.450E+02 -.478E+02 0.807E+02   0.173E+02 0.414E+02 -.991E+02   0.551E+00 0.445E+01 -.922E+01   0.249E+02 0.485E+01 0.163E+02
   0.214E+01 -.764E+01 -.106E+03   -.495E+01 0.399E+01 0.108E+03   -.205E+01 0.227E+01 0.345E+01   0.389E+01 0.253E+01 -.293E+01
   -.492E+02 0.394E+01 0.109E+03   0.605E+03 -.687E+02 -.109E+03   -.948E+01 0.144E+01 -.165E+02   0.250E+01 -.116E+01 0.309E+01
   0.424E+01 0.434E+01 0.842E+02   0.271E-01 -.209E+02 -.985E+02   -.611E+00 -.193E+01 -.285E+01   -.228E+01 0.141E+02 0.122E+02
   0.229E+02 0.447E+02 -.102E+03   -.256E+02 -.667E+02 0.106E+03   -.168E+01 -.178E+02 0.149E+02   0.566E+00 0.186E+02 -.382E+00
   0.440E+01 0.917E+01 -.222E+02   0.911E+01 -.321E+02 0.155E+02   0.104E+01 -.146E+01 -.959E+00   -.139E+02 0.238E+02 0.702E+01
   0.378E+01 -.568E+02 0.895E+02   -.118E+02 0.752E+02 -.892E+02   -.992E+01 0.428E+02 -.199E+01   0.515E+00 0.110E+02 -.121E+01
   -.672E+00 -.126E+02 -.333E+02   0.423E+00 0.258E+01 0.344E+02   0.120E+01 0.159E+01 0.857E+00   -.116E+01 0.818E+01 -.160E+01
   0.176E+02 0.202E+02 -.281E+02   0.146E+01 -.855E+01 0.299E+02   -.581E+00 -.425E+00 0.188E+01   -.184E+02 -.111E+02 -.168E+01
   0.862E+01 0.263E+02 0.983E+02   -.164E+02 -.347E+02 -.111E+03   -.176E+01 -.174E+02 -.159E+02   0.903E+01 0.136E+01 0.943E+01
   -.786E+01 -.845E+02 -.979E+02   0.297E+02 0.122E+03 0.878E+02   0.239E+02 0.384E+02 0.284E+01   -.169E+01 -.871E+01 0.973E+01
   -.514E+01 -.170E+02 -.272E+02   0.375E+01 0.265E+02 0.276E+02   0.315E+00 -.761E-01 0.721E+00   0.119E+01 -.940E+01 -.562E+00
   -.751E+01 -.119E+02 0.141E+03   0.112E+02 0.130E+02 -.156E+03   -.424E+00 0.666E+00 -.351E+02   -.413E+01 -.610E+00 -.825E+00
   -.391E+01 -.617E-01 -.111E+03   0.574E+03 -.693E+02 0.109E+03   0.169E+02 -.206E+01 0.144E+02   0.139E+00 0.327E+01 0.850E+00
   -.105E+02 -.140E+02 -.344E+02   0.439E+01 -.751E+01 0.398E+02   -.383E+00 -.115E+01 0.352E-01   0.702E+01 0.220E+02 -.464E+01
   0.156E+02 0.271E+02 0.102E+03   -.771E+01 -.452E+02 -.100E+03   -.159E+01 -.645E+01 -.972E+01   -.703E+01 0.177E+02 -.195E+01
   -.189E+02 0.151E+02 -.106E+03   0.340E+02 -.220E+02 0.108E+03   0.488E+01 -.109E+01 0.989E+01   -.137E+02 0.524E+01 -.136E+01
   0.355E+02 -.191E+02 0.332E+01   -.351E+02 0.181E+02 0.157E+02   0.164E+01 -.186E+01 0.599E+00   0.214E+00 -.789E+00 -.170E+02
   -.238E+01 -.182E+02 0.171E+02   0.702E+01 0.191E+02 -.162E+02   0.250E+01 0.343E+01 0.560E+01   -.240E+01 0.610E+00 0.308E+01
   0.252E+02 0.499E+02 -.851E+02   -.599E+02 -.860E+02 0.837E+02   -.273E+02 -.368E+02 0.324E+01   0.634E+01 0.190E+01 0.200E+01
   0.164E+02 0.904E+01 -.322E+02   -.151E+02 0.134E+01 0.331E+02   0.907E+00 -.278E+00 0.578E+00   -.905E+00 -.100E+02 -.124E+01
   -.212E+02 0.195E+01 0.112E+03   0.147E+02 0.130E+02 -.172E+03   0.197E+01 0.100E+01 -.422E+02   0.666E+01 -.122E+02 0.617E+01
   -.350E+01 0.274E+01 -.115E+03   0.402E+01 -.294E+01 0.112E+03   -.221E+01 -.622E+01 0.981E+01   0.446E+00 0.194E+00 0.423E+01
   0.255E+02 0.173E+00 -.780E+02   -.383E+02 0.538E+01 0.866E+02   -.401E+01 -.101E+01 0.185E+01   0.964E+01 -.659E+01 -.703E+01
   -.576E+01 0.168E+02 0.943E+02   -.128E+00 -.196E+02 -.932E+02   0.104E+01 -.550E+00 -.335E+01   0.752E+01 0.393E+01 -.227E+01
   -.135E+02 -.393E+02 -.986E+02   0.465E+01 0.482E+02 0.105E+03   0.393E+01 0.160E+02 0.129E+02   0.105E+02 -.362E+01 -.443E+01
   -.449E+01 0.129E+02 0.406E+02   0.258E+01 -.148E+02 -.401E+02   -.101E+01 -.709E+00 -.216E+01   0.281E+01 0.243E+01 -.499E+00
   -.131E+02 0.541E+02 0.927E+02   0.171E+02 -.103E+03 -.954E+02   0.935E+01 -.461E+02 -.247E+01   0.745E+01 0.106E+01 0.131E+01
   -.172E+02 0.918E+01 -.794E+02   0.267E+02 -.522E+01 0.826E+02   0.924E+00 -.323E+00 -.242E+00   -.100E+02 -.389E+01 -.276E+01
   -.235E+02 -.899E+01 0.370E+02   0.243E+02 0.140E+02 -.358E+02   0.731E-01 -.461E+00 -.852E+00   -.550E+00 -.453E+01 -.814E+00
   0.218E+02 -.288E+02 0.132E+03   -.110E+02 0.219E+02 -.105E+03   -.505E+00 0.204E+01 -.289E+01   -.944E+01 0.330E+01 -.228E+02
   0.257E+02 -.101E+02 -.125E+03   -.887E+01 0.270E+02 0.106E+03   -.417E+01 0.192E+01 0.911E+01   -.155E+02 -.150E+02 0.174E+02
   0.197E+01 -.762E+01 0.532E+02   -.103E+02 0.253E+02 -.279E+02   -.137E+01 0.721E+00 0.687E+00   0.745E+01 -.161E+02 -.239E+02
   0.102E+02 0.287E+02 0.112E+03   -.340E+01 -.350E+02 -.111E+03   -.285E+01 -.158E+02 -.150E+02   -.777E+01 0.140E+01 -.452E+01
   -.289E+02 -.458E+02 -.702E+02   0.308E+01 0.154E+02 0.990E+02   0.207E+00 0.596E+01 0.125E+02   0.240E+02 0.335E+02 -.223E+02
   0.418E+02 -.265E+02 -.866E+01   -.114E+02 -.900E+01 -.146E+02   0.275E+01 -.221E+01 -.166E+01   -.309E+02 0.336E+02 0.224E+02
   -.666E+01 -.127E+02 0.440E+02   0.129E+02 0.165E+02 -.434E+02   -.826E-01 -.179E+00 0.127E+00   -.626E+01 -.402E+01 -.931E+00
   0.162E+02 0.195E+02 -.856E+02   -.168E+02 -.231E+02 0.832E+02   -.484E+00 -.268E+01 0.212E+01   0.135E+01 0.157E+01 0.218E+01
   0.663E+01 0.414E+01 -.942E+02   -.729E+01 -.771E+01 0.916E+02   -.412E+01 -.947E+00 0.200E+01   -.199E+01 0.269E+01 0.363E+01
   -.192E+02 -.785E+02 0.904E+02   0.486E+02 0.111E+03 -.922E+02   0.233E+02 0.377E+02 -.242E+01   -.884E+01 -.327E+01 0.173E+01
   0.420E+01 0.739E+01 -.937E+02   -.382E+01 -.133E+02 0.922E+02   0.212E+01 -.620E+00 0.248E+01   0.136E+01 0.714E+01 0.326E+01
   0.317E+02 0.290E+02 0.724E+02   -.394E+02 -.267E+02 -.610E+02   -.231E+02 -.436E+01 0.625E+01   -.977E+01 -.325E+01 -.778E+01
   -.842E+02 0.278E+01 0.115E+03   0.571E+03 -.629E+02 -.103E+03   0.608E+02 -.839E+01 -.152E+02   0.174E+02 0.221E+01 -.844E+01
   0.349E+01 0.764E+01 -.105E+03   -.673E+01 -.116E+02 0.111E+03   -.275E+01 -.261E+00 0.458E+01   0.225E+01 0.384E+01 -.460E+01
   -.167E+02 -.113E+02 -.884E+02   0.176E+02 0.128E+02 0.874E+02   0.304E+01 0.433E+01 0.741E+00   -.233E+00 -.819E+00 -.266E+00
   -.166E+02 0.432E+01 0.122E+03   0.138E+02 -.103E+02 -.120E+03   0.529E+01 -.203E+00 -.114E+02   0.362E+01 0.495E+01 -.228E+01
   0.349E+02 0.110E+02 -.740E+02   -.339E+02 0.352E+00 0.846E+02   -.128E+01 0.176E+01 0.216E+01   -.910E+00 -.115E+02 -.105E+02
   -.166E+02 -.158E+02 0.952E+02   0.686E+02 0.777E+02 -.918E+02   0.237E+02 0.248E+02 -.268E+01   0.123E+00 0.194E+01 -.390E+01
   0.431E+02 0.476E+02 0.771E+02   -.713E+02 -.744E+02 -.861E+02   -.268E+02 -.365E+02 -.400E+01   -.658E+00 -.807E+01 0.888E+01
   -.534E+01 -.411E+02 -.112E+03   0.805E+01 0.396E+02 0.105E+03   0.389E+01 0.158E+02 0.119E+02   0.727E+00 0.482E+01 0.924E+01
   0.210E+01 -.827E+01 -.293E+02   -.684E+01 0.935E+01 0.226E+02   -.146E+01 0.233E+01 -.880E+00   0.481E+01 -.174E+01 0.752E+01
   0.340E+02 -.159E+02 0.101E+03   -.351E+02 0.162E+02 -.109E+03   -.179E+01 0.128E+02 -.128E+02   0.735E-01 0.408E+01 0.610E+01
   -.867E+01 0.115E+02 -.783E+02   0.260E+02 -.937E+01 0.882E+02   0.361E+01 -.194E+01 0.306E+01   -.175E+02 -.906E+00 -.984E+01
   0.849E+01 -.504E+01 0.890E+02   -.648E+01 0.329E+00 -.904E+02   -.370E+01 -.468E+00 -.200E+01   -.526E+01 0.315E+01 0.223E+00
   -.113E+02 -.716E+01 0.107E+03   0.520E+01 0.723E+01 -.108E+03   -.439E+01 0.494E+01 -.595E+01   0.701E+01 -.752E+00 0.121E+01
[...]
   -.109E+01 0.125E+01 -.510E+01   -.596E+01 0.494E+01 0.930E+01   0.133E+00 0.383E+00 0.166E+00   0.706E+01 -.668E+01 -.483E+01
   0.413E+02 0.435E+02 -.631E+02   -.336E+02 -.752E+02 0.674E+02   0.359E+01 -.335E+02 -.583E+01   0.625E+01 -.562E+01 -.148E+01
   0.180E+01 0.218E+02 0.102E+02   0.425E+00 -.280E+02 -.556E+01   0.461E+00 -.107E+02 0.128E+02   -.247E+01 0.283E+01 -.755E+00
   -.653E+01 -.836E+01 -.500E+01   0.444E+01 0.212E+01 0.596E+01   0.452E+00 0.534E+00 -.930E+00   0.142E+01 0.572E+01 -.621E+00
   0.438E+02 0.193E+02 -.681E+02   -.432E+02 -.730E+01 0.759E+02   -.298E+00 -.159E+01 0.314E+01   -.102E+00 -.126E+02 -.854E+01
   0.916E+01 0.308E+01 0.265E+02   -.174E+02 -.130E+02 -.259E+02   0.115E+01 -.322E+01 0.384E+01   0.592E+01 0.104E+02 0.308E+00
   -.573E+01 0.214E+01 -.118E+02   -.217E+01 -.542E+01 0.409E+01   0.181E+00 -.200E+01 -.196E+01   0.718E+01 0.244E+01 0.714E+01
   -.145E+02 -.720E+01 -.961E+02   0.110E+02 -.613E+01 0.905E+02   0.316E+01 0.146E+01 -.321E+00   0.440E+01 0.135E+02 0.602E+01
   -.241E+02 -.499E+01 0.253E+02   0.211E+02 0.265E+01 -.265E+02   -.742E+00 0.351E+01 0.410E+01   0.508E+01 0.148E+01 0.224E+01
   -.299E+01 0.414E+01 -.135E+02   -.171E+01 -.524E+01 0.879E+01   -.757E+00 -.648E+00 -.952E+00   0.558E+01 0.177E+01 0.505E+01
   -.455E+02 -.235E+02 -.664E+02   0.376E+02 0.182E+02 0.717E+02   0.120E+02 0.458E+01 -.905E+01   0.125E+02 0.443E+01 -.466E+01
   -.729E+02 0.107E+02 0.327E+02   0.763E+02 -.110E+02 -.279E+02   0.245E+02 -.555E+01 0.200E+02   -.461E+01 0.799E+00 -.216E+01
   -.143E+02 0.891E+00 -.121E+02   0.125E+02 0.316E+01 0.875E+01   -.382E+00 -.727E+00 0.734E+00   0.218E+01 -.319E+01 0.218E+01
   0.243E+02 0.303E+01 -.787E+01   -.200E+02 0.918E+01 0.104E+02   0.696E+00 0.178E+01 0.433E+00   -.510E+01 -.130E+02 -.278E+01
   -.111E+03 0.133E+02 -.181E+02   0.835E-12 -.961E-12 0.446E-12   0.392E+02 -.566E+01 -.289E+02   0.833E+02 -.814E+01 0.562E+02

 POSITION                                       TOTAL-FORCE (eV/Angst)
      4.77025      8.11150      1.62230         6.921123      4.746727      6.740667
      7.78196     10.05487      0.00000       -40.894068     -5.323714     -9.809554
     17.89014     11.92676      8.11150        -3.533485     -4.196332      0.709324
     19.37095      6.48920      0.00000        20.751884    -93.880573      4.086139
     16.12635      6.48920      3.24460        -0.076328     -0.214990     -1.083263
     12.88174      6.48920      6.48920        -2.275310      2.840000    -11.332698
     11.25945     14.60070      1.62230        -1.022042      1.148428      2.257834
     17.74864      8.11150      8.11150       548.446222    -64.504274    -13.829164
     12.88174      0.00000      6.48920         1.329113     -4.308507     -4.984747
      6.39255     12.97840      0.00000        -3.878639    -21.199845     18.476864
      3.14794     12.97840      3.24460         0.647173     -0.598253     -0.663819
     14.50404     17.84530      8.11150       -17.426252     72.141991     -2.965366
      6.39255     16.22300      3.24460        -0.259736     -0.226245      0.367438
      3.14794      6.48920      3.24460         0.100462      0.138062      2.006624
     11.25944      8.11150      8.11150        -0.585172    -24.444706    -19.510186
      6.39255      0.00000      0.00000        44.030139     67.603627      2.411903
      3.14794      0.00000      3.24460         0.078445     -0.008206      0.561660
     19.37095      0.00000      6.48920        -0.957723      1.147159    -51.021069
     12.88175     12.97840      0.00000       587.100329    -68.170789     13.261867
      9.63715     12.97840      3.24460         0.509228     -0.684195      0.801802
      6.39255     12.97840      6.48920        -0.796921     -6.882396     -9.783395
      1.52565     11.35610      1.62230         6.244223     -2.776414     10.801932
      9.63715      6.48920      3.24460         2.223410     -3.617966      2.584305
      6.28446      2.56734      9.46925         4.700521      4.985215      9.589876
     12.88175      0.00000      0.00000       -55.738198    -71.048272      3.761787
      9.63715      0.00000      3.24460         1.314579      0.081280      0.277965
     14.50404      4.86690      8.11150         2.046295      3.837004    -96.025628
      1.52565     17.84530      1.62230        -1.283445     -6.220777     10.561652
     10.77698      5.56235      0.00000        -7.261911     -2.035779      3.342048
     19.37095     12.97840      6.48920         2.630775      0.596490     -4.555833
     12.88175      6.48920      0.00000         5.484073     21.361438     15.140060
     17.74865     11.35610      4.86690        -0.153842     -0.212250     -2.160518
     14.50404     11.35610      8.11150        20.802949    -94.108389     -3.892294
      1.52565      4.86690      1.62230         0.441683     -0.244487      0.166106
     17.74865      4.86690      4.86690         0.226660      0.044186     -0.489768
      6.39255      0.00000      6.48920         0.763795     -1.611866      0.936537
      8.01485     17.84530      1.62230        -2.899239      3.821275      7.209013
      4.77025     17.84530      4.86690        -2.266048      2.222928      1.961972
      1.52564     17.84530      8.11150        -3.843861    -20.691773    -18.673623
      8.01485     11.35610      1.62230        -1.566880      9.084609     18.878259
      4.77025     11.35610      4.86690         2.198012     -4.089565     -2.571575
      1.52565      1.62230      4.86690        -0.163274     -0.325386     -0.300700
     13.02324     16.79366      0.00000         0.214128     -4.716739      1.885546
      1.04318     15.29615      0.00000        -6.814621     -1.819453      3.015627
      1.52564      4.86690      8.11150        43.773746     67.142610     -2.465913
     14.50405     17.84530      1.62230         3.824291      0.600390      4.261793
      2.91506     14.92178      8.11150       -40.677928     -5.302047      9.814839
      8.01485     17.84530      8.11150       564.561474    -66.288692    -11.893928
     14.50405     11.35610      1.62230        -3.786258     -0.378032      5.726785
     16.01825     12.30113      0.00000         3.697362      5.034469     -0.590019
     16.12635     16.22300      6.48920         6.045585     -1.219179    -11.410901
      7.03321      6.31110      0.00000        -1.293889      1.634381      2.153287
     18.63890     15.67053      8.11150        75.732557     88.712073     -3.137313
      8.01485      4.86690      8.11150       -55.725741    -71.308215     -4.208419
      3.14795     16.22300      0.00000         7.274888     19.080595     14.376487
     19.37094     16.22300      3.24460        -1.437294      1.673732     -0.055631
      8.01485     11.35610      8.11150        -2.921395     17.122237    -14.665542
      3.14795      9.73380      0.00000         3.451343     -0.752515      3.031579
     15.64388      0.69545      8.11150        -6.994545     -2.024797     -3.148551
     16.12635      9.73380      6.48920        -3.484971      4.260482     -5.656155
[...]
     14.52075      4.81360      9.46925         1.186843     -3.497123     98.160635
     12.27449      3.31609     12.18475         0.095786     -0.106049     -0.499727
     10.02822      1.81858      0.00000        17.530050    -70.844029     -3.024985
     17.51576      0.32107      9.46925         0.179598    -14.032918     16.707823
     15.26950     18.29117     12.18475        -0.262273      0.018258     -0.626391
      8.01485      4.86690      1.62230         0.105101     -2.201340      2.343253
     13.02324     16.79366      9.46925        -1.212472     -2.701396      4.683024
     10.77698     15.29615     12.18475        -0.591667     -2.841159     -2.607689
      8.53072     13.79864      0.00000         4.018788      1.679632      0.098651
     16.01826     12.30114      9.46925         1.357005      2.653579      5.029902
     13.77199     10.80363     12.18475         0.084343      0.015333     -0.635577
     11.52573      9.30612      0.00000        16.624213      3.756171     -8.409189
     19.01327      7.80861      9.46925        23.246658     -5.041577     22.554409
     16.76701      6.31111     12.18475        -0.127894      0.140069     -0.472508
      6.39255      3.24460      3.24460        -0.171920      0.968105      0.106854
    total drift:                               11.772592     -0.475989      9.130092

  FREE ENERGIE OF THE ION-ELECTRON SYSTEM (eV)
  free  energy   TOTEN  =        47.18560562 eV

  energy  without entropy=       47.18901643  energy(sigma->0) =       47.18731103