 vasp.6.4.3 19Mar24 (build Oct 22 2024 11:23:12) complex

 executed on             LinuxIFC date 2025.06.04  00:22:20

 INCAR:
   SYSTEM = Si and Ge interface calculation
   ISTART = 0
   ICHARG = 2
   LWAVE = .FALSE.
   LREAL = AUTO
   ENCUT = 700
   ENAUG = 900
   ADDGRID = .TRUE.
   LMAXMIX = 6
   LASPH = .TRUE.
   LMIXTAU = .TRUE.
   NCORE = 16
   NELM = 100
   NBANDS = 116
   EDIFF = 1d-7
   AMIX = 0.6
   ISMEAR = 0
   SIGMA = 0.01
   NELECT = 192
   ISPIN = 2
   NUPDOWN = 1
   LVTOT = .FALSE.
   LVHAR = .TRUE.

 POTCAR:    PAW_PBE Si 05Jan2001
|           W    W    AA    RRRRR   N    N  II  N    N   GGGG   !!!           |
|           W    W   A  A   R    R  NN   N  II  NN   N  G    G  !!!           |
|           W    W  A    A  R    R  N N  N  II  N N  N  G       !!!           |
|           W WW W  AAAAAA  RRRRR   N  N N  II  N  N N  G  GGG   !            |
|           WW  WW  A    A  R   R   N   NN  II  N   NN  G    G                |
|           W    W  A    A  R    R  N    N  II  N    N   GGGG   !!!           |
|     You use a magnetic or noncollinear calculation, but did not specify     |
|     the initial magnetic moment with the MAGMOM tag. Note that a            |
|     default of 0.021 will be used for all atoms. This ferromagnetic         |
|     setup may break the symmetry of the crystal, in particular it may       |
|     rule out finding an antiferromagnetic solution. Thence, we              |
|     recommend setting the initial magnetic moment manually or verifying     |
|     carefully that this magnetic setup is desired.                          |

 POTCAR:    PAW_PBE Si 05Jan2001
   VRHFIN =Si: s2p2

   TITEL  = PAW_PBE Si 05Jan2001
   POMASS =   28.085; ZVAL   =    4.000    mass and valenz
   ENMAX  =  245.345; ENMIN  =  184.009 eV

 Optimization of the real space projectors (new method)

 maximal supplied QI-value         = 19.84
 optimisation between [QCUT,QGAM] = [ 13.49, 26.99] = [ 50.98,203.92] Ry
 Optimized for a Real-space Cutoff    1.07 Angstroem

   l    n(q)    QCUT    max X(q) W(low)/X(q) W(high)/X(q)  e(spline)
   0      9    13.493   159.560    0.22E-03    0.15E-03    0.72E-07
   0      9    13.493   115.863    0.21E-03    0.15E-03    0.71E-07
   1      8    13.493    88.339    0.15E-03    0.11E-03    0.13E-06
   1      8    13.493    48.592    0.15E-03    0.10E-03    0.13E-06
  PAW_PBE Si 05Jan2001                  :

 POSCAR: Si+Si
  positions in direct lattice

 exchange-correlation table for PE
   RHO(1)=    0.500       N(1)  =     2000
   RHO(2)=  100.500       N(2)  =     4000

 ion  position               nearest neighbor table
   1  0.345  0.673  0.000-  42 1.16  13 2.35  28 2.35  45 2.86  33 2.97  18 2.97
   2  0.679  0.839  0.300-  13 2.35  34 2.35  14 2.35  29 2.35
   3  0.012  0.006  0.600-  37 1.40  35 2.35  14 2.35  15 2.35  30 2.35  46 2.67  43 3.01
   4  0.012  0.006  0.000-  37 2.29  10 2.35  34 2.35  47 2.35  46 2.67  15 2.97  30 2.97  43 3.01

   5  0.345  0.173  0.300-  31 2.35  35 2.35  11 2.35  10 2.35
   6  0.679  0.339  0.600-  32 2.35  36 2.35  11 2.35  12 2.35  38 2.84
   7  0.679  0.339  0.000-  44 1.93  38 2.19  48 2.26  16 2.35  31 2.35  41 2.59  45 2.65  39 2.85
                            12 2.97  36 2.97
   8  0.012  0.506  0.300-  28 2.35  32 2.35  16 2.35  17 2.35  48 2.76
   9  0.345  0.673  0.600-  29 2.35  33 2.35  17 2.35  18 2.35
  10  0.095  0.923  0.150-  47 2.29   4 2.35  23 2.35   5 2.35  19 2.35
  11  0.429  0.089  0.450-  24 2.35   6 2.35   5 2.35  20 2.35
  12  0.762  0.256  0.750-  39 2.03   6 2.35  21 2.35  48 2.84   7 2.97  25 2.97  38 3.00
  13  0.429  0.589  0.150-   1 2.35  26 2.35   2 2.35  22 2.35
  14  0.762  0.756  0.450-   3 2.35  27 2.35   2 2.35  23 2.35
  15  0.095  0.923  0.750-  47 1.40  37 1.70   3 2.35  24 2.35  41 2.43  38 2.80   4 2.97  19 2.97

[...]

  23  0.845  0.673  0.300-  10 2.35  31 2.35  14 2.35  32 2.35
  24  0.179  0.839  0.600-  11 2.35  32 2.35  15 2.35  33 2.35  41 2.84
  25  0.845  0.173  0.000-  39 1.16  34 2.35  16 2.35  48 2.86  30 2.97  12 2.97
  26  0.179  0.339  0.300-  17 2.35  13 2.35  34 2.35  35 2.35
  27  0.512  0.506  0.600-  40 1.40  18 2.35  14 2.35  35 2.35  36 2.35  43 2.67  46 3.01
  28  0.262  0.756  0.150-  42 2.03  45 2.19   8 2.35  19 2.35  20 2.35   1 2.35  48 2.59
  29  0.595  0.923  0.450-   9 2.35  21 2.35  20 2.35   2 2.35
  30  0.929  0.089  0.750-  46 1.94  37 2.17  21 2.35   3 2.35  43 2.39  25 2.97   4 2.97
  31  0.595  0.423  0.150-  44 2.29  22 2.35   5 2.35   7 2.35  23 2.35
  32  0.929  0.589  0.450-   6 2.35  24 2.35   8 2.35  23 2.35
  33  0.262  0.756  0.750-  42 2.03   9 2.35  24 2.35  45 2.84   1 2.97  19 2.97  41 3.00
  34  0.929  0.089  0.150-   4 2.35  26 2.35  25 2.35   2 2.35
  35  0.262  0.256  0.450-   3 2.35  27 2.35   5 2.35  26 2.35
  36  0.595  0.423  0.750-  44 1.40  40 1.70   6 2.35  27 2.35  38 2.43  41 2.80  22 2.97   7 2.97

  37  0.989  0.963  0.750-   3 1.40  15 1.70  30 2.17   4 2.29  46 2.35  43 2.35  47 2.35
  38  0.878  0.574  0.850-   7 2.19  47 2.35  44 2.35  48 2.35  36 2.43  19 2.59  15 2.80   6 2.84
                            12 3.00
  39  0.767  0.185  0.950-  25 1.16  16 2.03  12 2.03  48 2.35  45 2.35   7 2.85
  40  0.489  0.463  0.750-  27 1.40  36 1.70  18 2.17  22 2.29  43 2.35  46 2.35  44 2.35
  41  0.378  0.074  0.850-  19 2.19  44 2.35  47 2.35  45 2.35  15 2.43   7 2.59  36 2.80  24 2.84
                            33 3.00
  42  0.267  0.685  0.950-   1 1.16  28 2.03  33 2.03  45 2.35  48 2.35  19 2.85
  43  0.684  0.768  0.800-  18 1.94  40 2.35  37 2.35  30 2.39  27 2.67  22 2.67   4 3.01   3 3.01

  44  0.573  0.380  0.900-  36 1.40   7 1.93  31 2.29  41 2.35  38 2.35  40 2.35  22 2.35
  45  0.462  0.991  1.000-  28 2.19  19 2.26  42 2.35  39 2.35  41 2.35  16 2.59   7 2.65  20 2.76
                            33 2.84   1 2.86
  46  0.184  0.268  0.800-  30 1.94  37 2.35  40 2.35  18 2.39   3 2.67   4 2.67  27 3.01  22 3.01

  47  0.073  0.880  0.900-  15 1.40  19 1.93  10 2.29  38 2.35  41 2.35  37 2.35   4 2.35
  48  0.962  0.491  1.000-  16 2.19   7 2.26  39 2.35  42 2.35  38 2.35  28 2.59  19 2.65   8 2.76
                            12 2.84  25 2.86

  LATTYP: Found a base centered orthorhombic cell.
 ALAT       =     7.6805942991
 B/A-ratio  =     2.9999999214
 C/A-ratio  =     1.1785115537

  Lattice vectors:

 A1 = (  12.1440858840,   0.0000000000,   0.0000000000)
 A2 = (  -9.7152681350,   7.2864513400,   0.0000000000)
 A3 = (   0.0000000000,   0.0000000000,   9.0516691210)

Analysis of symmetry for initial positions (statically):
 Subroutine PRICEL returns following result:

  LATTYP: Found a simple orthorhombic cell.
 ALAT       =     3.8402971918
 B/A-ratio  =     2.3570230815
 C/A-ratio  =     3.0000000294

[...]

   2 primitive cells build up your supercell.

 Routine SETGRP: Setting up the symmetry group for a
 base centered orthorhombic supercell.

 Subroutine GETGRP returns: Found  1 space group operations
 (whereof  1 operations were pure point group operations)
 out of a pool of  8 trial point group operations.

The static configuration has the point symmetry C_1 .

Analysis of symmetry for dynamics (positions and initial velocities):
 Subroutine PRICEL returns following result:

[...]

The dynamic configuration has the point symmetry C_1 .

Analysis of structural, dynamic, and magnetic symmetry:
 Subroutine PRICEL returns following result:

  LATTYP: Found a simple orthorhombic cell.
 ALAT       =     3.8402971918
 B/A-ratio  =     2.3570230815
 C/A-ratio  =     3.0000000294

  Lattice vectors:

 A1 = (  -1.2144094016,  -3.6432255388,   0.0000000000)
 A2 = (   0.0000000000,   0.0000000000,   9.0516691210)
 A3 = ( -10.9296775366,   3.6432258012,   0.0000000000)

   2 primitive cells build up your supercell.

 Routine SETGRP: Setting up the symmetry group for a
 base centered orthorhombic supercell.

 Subroutine GETGRP returns: Found  1 space group operations
 (whereof  1 operations were pure point group operations)
 out of a pool of  8 trial point group operations.

The overall configuration has the point symmetry C_1 .

 Subroutine INISYM returns: Found  1 space group operations
 (whereof  1 operations are pure point group operations),
 and found     2 'primitive' translations

                                     Primitive cell

  volume of cell :     400.4789

  direct lattice vectors                    reciprocal lattice vectors
    -1.214409402 -3.643225539  0.000000000    -0.082344607 -0.247033824  0.000000000
     0.000000000  0.000000000  9.051669121     0.000000000  0.000000000  0.110476862
   -10.929677537  3.643225801  0.000000000    -0.082344601  0.027448220  0.000000000

  length of vectors
     3.840297192  9.051669121 11.520891688     0.260396514  0.110476862  0.086798837

  position of ions in fractional coordinates (direct lattice)
     0.982203134  0.000000000  0.327401074
     0.482202981  0.299999923  0.160734462
     0.982202899  0.599999845  0.994067836
     0.982203137  0.000000000  0.994067716
     0.482203029  0.299999923  0.827401119
     0.982202773  0.599999845  0.660734432
     0.982203204  0.000000000  0.660734387
     0.482202947  0.299999923  0.494067730
     0.982202836  0.599999845  0.327401134
     0.982203049  0.149999961  0.827401068
     0.482202848  0.449999988  0.660734443
     0.982202535  0.749999821  0.494067694
     0.982203016  0.149999961  0.160734455
     0.482202953  0.449999988  0.994067754
     0.982202633  0.749999821  0.827401128
     0.982203072  0.149999961  0.494067753
     0.482202890  0.449999988  0.327401051
     0.982202598  0.749999821  0.160734395
     0.047768633  0.749999821  0.973461942
     0.547768861  0.849999845  0.695684089
     0.047769076  0.949999988  0.417906309
     0.547768786  0.799999893  0.084573035
     0.047768952  0.899999917  0.806795127
     0.547769199  0.999999940  0.529017372

  ion indices of the primitive-cell ions
   primitive index   ion index
                 1           1
                 2          26
                 3          27
                 4          22
                 5           5
                 6          24
                 7          19
                 8           8
                 9           9
                10          31
                11          32
                12          33
                13          13
                14          35
                15          36
                16          28
                17          17
                18          18
                19          40
                20          41
                21          42
                22          43
                23          47
                24          45

 KPOINTS: Automatic KPOINTS generated

Automatic generation of k-mesh.
 Grid dimensions read from file:
 generate k-points for:    4    4    3

 Generating k-lattice:

  Cartesian coordinates                     Fractional coordinates (reciprocal lattice)
     0.020586152  0.027448202  0.000000000     0.250000000 -0.000000000  0.000000000
     0.000000000  0.034310255  0.000000000     0.000000000  0.250000000  0.000000000
     0.000000000  0.000000000  0.036825621     0.000000000  0.000000000  0.333333333

[...]
     42       1.5941      1.00000
     43       1.6840      1.00000
     44       1.7053      1.00000
     45       1.9926      1.00000
     46       2.0647      1.00000
     47       2.2015      1.00000
     48       2.3831      1.00000
     49       2.3852      1.00000
     50       2.5041      1.00000
     51       2.5253      1.00000
     52       2.7400      1.00000
     53       2.8830      1.00000
     54       3.2686      1.00000
     55       3.5106      1.00000
     56       3.6720      1.00000
     57       3.7163      1.00000
     58       3.7258      1.00000
     59       3.9827      1.00000
     60       3.9923      1.00000
[...]
    102       8.4929      0.00000
    103       8.5204      0.00000
    104       8.7042      0.00000
    105       8.7891      0.00000
    106       8.8739      0.00000
    107       8.9204      0.00000
    108       8.9441      0.00000
    109       9.2607      0.00000
    110       9.3486      0.00000
    111       9.4310      0.00000
    112       9.4739      0.00000
    113       9.4985      0.00000
    114       9.6321      0.00000
    115       9.7974      0.00000
    116       9.8389      0.00000
 Fermi energy:         8.0080885431

 spin component 2

[...]

 k-point    26 :       0.5000    0.5000    0.3333
  band No.  band energies     occupation
      1      -7.9814      1.00000
      2      -7.2927      1.00000
      3      -7.2125      1.00000
      4      -6.2196      1.00000
      5      -6.0596      1.00000
      6      -5.2942      1.00000
      7      -4.4050      1.00000
      8      -3.9706      1.00000
      9      -3.7143      1.00000
     10      -3.6882      1.00000
     11      -3.2909      1.00000
     12      -2.8705      1.00000
     13      -2.8538      1.00000
     14      -2.8389      1.00000
     15      -2.5659      1.00000
     16      -2.5600      1.00000
     17      -2.3405      1.00000
     18      -2.1489      1.00000
     19      -2.1358      1.00000
     20      -1.7675      1.00000
     21      -1.4889      1.00000
     22      -1.3009      1.00000
     23      -1.2478      1.00000
     24      -1.2217      1.00000
     25      -1.0280      1.00000
     26      -0.9269      1.00000
     27      -0.8699      1.00000
     28      -0.6723      1.00000
     29      -0.3862      1.00000
     30      -0.3792      1.00000
     31       0.0263      1.00000
     32       0.4289      1.00000
     33       0.6495      1.00000
     34       0.8642      1.00000
     35       0.9203      1.00000
     36       1.0434      1.00000
     37       1.2083      1.00000
     38       1.3361      1.00000
     39       1.3828      1.00000
     40       1.4897      1.00000
     41       1.5762      1.00000
     42       1.6212      1.00000
     43       1.7112      1.00000
     44       1.7346      1.00000
     45       2.0191      1.00000
     46       2.0888      1.00000
     47       2.2254      1.00000
     48       2.4072      1.00000
     49       2.4122      1.00000
     50       2.5315      1.00000
     51       2.5455      1.00000
     52       2.7595      1.00000
     53       2.9075      1.00000
     54       3.2909      1.00000
     55       3.5312      1.00000
     56       3.6925      1.00000
     57       3.7456      1.00000
     58       3.7472      1.00000
     59       4.0037      1.00000
     60       4.0163      1.00000
[...]
    102       8.5271      0.00000
    103       8.5473      0.00000
    104       8.7356      0.00000
    105       8.8168      0.00000
    106       8.9023      0.00000
    107       8.9494      0.00000
    108       8.9738      0.00000
    109       9.2864      0.00000
    110       9.3748      0.00000
    111       9.4562      0.00000
    112       9.4985      0.00000
    113       9.5260      0.00000
    114       9.6548      0.00000
    115       9.8161      0.00000
    116       9.8646      0.00000

 soft charge-density along one line, spin component           1
         0         1         2         3         4         5         6         7         8         9
 total charge-density along one line

 soft charge-density along one line, spin component           2
         0         1         2         3         4         5         6         7         8         9
 total charge-density along one line

------------------------ aborting loop because EDIFF is reached ----------------------------------------

  FORCE on cell =-STRESS in cart. coord.  units (eV):
  Direction    XX          YY          ZZ          XY          YZ          ZX
  Alpha Z    96.83390    96.83390    96.83390
  Ewald   -1313.11020 -1861.37110 -1855.53515   -97.41444  -177.60802   417.76593
  Hartree   410.58830   484.88251   -12.38912    27.31953   -40.03459   130.76570
  E(xc)    -651.22045  -647.39536  -653.60232     0.13689     2.13013    -2.23716
  Local   -1493.51250 -1302.43066  -556.31914    29.33807   168.11164  -430.17170
  n-local  2113.65556  2045.67390  2177.65915    -5.68159   -38.68709    35.24995
  augment  -300.02157  -314.47016  -303.50529    -2.49090    -1.20958     5.34520
  Kinetic  1544.01693  1591.79344  1543.18420    12.50959     4.18616    -9.80585
  Fock        0.00000     0.00000     0.00000     0.00000     0.00000     0.00000
  Total     407.22997    93.51647   436.32623   -36.28286   -83.11134   146.91207
  in kB     814.59314   187.06353   872.79517   -72.57758  -166.24987   293.87220

 VOLUME and BASIS-vectors are now :
  energy-cutoff  :      700.00
  volume of cell :      800.96
      direct lattice vectors                 reciprocal lattice vectors
    12.144085884  0.000000000  0.000000000     0.082344609  0.109792808  0.000000000
    -9.715268135  7.286451340  0.000000000     0.000000000  0.137241018  0.000000000
     0.000000000  0.000000000  9.051669121     0.000000000  0.000000000  0.110476862

  length of vectors
    12.144085884 12.144085312  9.051669121     0.137241012  0.137241018  0.110476862

 FORCES acting on ions
    electron-ion (+dipol)            ewald-force                    non-local-force                 convergence-correction
   -.127E+03 0.218E+02 -.358E+02   0.180E+03 -.279E+02 0.577E+02   0.563E+02 -.399E+01 0.248E+02   -.240E-03 0.695E-04 0.289E-04
   0.412E+01 -.145E+01 -.216E+01   -.448E+01 0.147E+01 0.218E+01   0.309E+00 -.338E-01 -.550E-01   -.153E-03 0.414E-04 -.727E-04
   0.225E+02 -.219E+02 0.145E+03   -.241E+02 0.234E+02 -.156E+03   -.382E+01 0.119E+02 -.474E+02   0.373E-04 0.201E-04 -.264E-03
   0.432E+02 -.166E+02 -.741E+02   -.434E+02 0.161E+02 0.738E+02   -.140E+01 0.150E+01 0.156E+01   -.178E-04 0.873E-05 0.193E-03
   0.100E+02 -.382E+01 -.135E+02   -.102E+02 0.326E+01 0.139E+02   0.104E+00 0.539E+00 -.254E+00   0.111E-03 -.975E-05 -.298E-04
   -.254E+02 0.101E+02 0.579E+02   0.246E+02 -.992E+01 -.585E+02   0.873E+00 -.173E+00 0.962E-01   0.886E-04 -.246E-04 0.123E-03
   -.114E+02 0.170E+02 -.612E+02   0.847E+01 -.147E+02 0.598E+02   0.816E+01 -.581E+01 0.687E+01   0.164E-03 -.438E-04 -.634E-04
   -.148E+02 0.444E+01 -.463E+02   0.151E+02 -.432E+01 0.468E+02   -.762E-01 -.214E+00 -.318E-01   0.438E-04 -.300E-04 -.168E-03
   0.230E+01 -.599E+00 0.265E+02   -.222E+01 0.724E+00 -.260E+02   -.496E-01 -.597E-01 -.659E+00   -.115E-03 0.365E-04 0.413E-04
   0.227E+02 -.930E+01 -.701E+02   -.230E+02 0.970E+01 0.706E+02   0.150E+00 -.602E-01 0.904E+00   0.211E-03 -.765E-04 -.374E-04
   -.106E+02 0.385E+01 0.132E+02   0.106E+02 -.337E+01 -.127E+02   0.100E+00 -.615E+00 -.785E+00   0.703E-04 -.930E-05 0.145E-04
   -.221E+02 0.547E+01 0.773E+02   0.245E+02 -.740E+01 -.752E+02   -.455E+01 0.348E+01 -.670E+01   -.491E-04 0.234E-04 0.129E-03
   -.428E+00 0.199E+00 -.256E+02   0.657E-01 -.682E-01 0.255E+02   0.458E+00 -.996E-01 0.107E+00   -.193E-03 0.611E-04 0.459E-04
   0.125E+02 -.287E+01 0.438E+02   -.125E+02 0.343E+01 -.436E+02   -.150E+00 -.702E+00 -.863E+00   -.177E-04 -.208E-04 -.206E-03
   -.387E+02 -.781E+01 0.115E+03   0.355E+02 0.928E+01 -.123E+03   0.171E+02 0.820E+01 -.509E+02   0.452E-03 -.128E-03 0.121E-03
   -.118E+02 0.104E+02 -.102E+03   0.110E+02 -.927E+01 0.101E+03   -.682E+00 -.187E+01 0.692E+01   0.136E-04 0.107E-05 -.191E-03
   -.245E+01 0.612E+00 0.371E+01   0.270E+01 -.869E+00 -.344E+01   -.764E-01 0.137E+00 -.272E+00   -.674E-04 0.216E-04 -.690E-04
   0.889E+02 -.117E+02 0.110E+02   -.862E+02 0.140E+02 -.105E+02   -.114E+02 -.545E+01 -.211E+01   -.414E-03 0.133E-03 0.767E-04
   -.114E+02 0.170E+02 -.612E+02   0.847E+01 -.147E+02 0.598E+02   0.816E+01 -.581E+01 0.687E+01   0.180E-03 -.535E-04 -.566E-04
   -.148E+02 0.444E+01 -.463E+02   0.151E+02 -.432E+01 0.468E+02   -.762E-01 -.214E+00 -.318E-01   0.512E-04 -.108E-04 -.164E-03
   0.230E+01 -.599E+00 0.265E+02   -.222E+01 0.724E+00 -.260E+02   -.496E-01 -.597E-01 -.659E+00   -.126E-03 0.428E-04 0.379E-04
   0.432E+02 -.166E+02 -.741E+02   -.434E+02 0.161E+02 0.738E+02   -.140E+01 0.150E+01 0.156E+01   -.147E-06 -.541E-05 0.183E-03
   0.100E+02 -.382E+01 -.135E+02   -.102E+02 0.326E+01 0.139E+02   0.104E+00 0.539E+00 -.254E+00   0.101E-03 -.537E-04 -.305E-04
   -.254E+02 0.101E+02 0.579E+02   0.246E+02 -.992E+01 -.585E+02   0.873E+00 -.173E+00 0.962E-01   0.104E-03 -.307E-04 0.106E-03
   -.127E+03 0.218E+02 -.358E+02   0.180E+03 -.279E+02 0.577E+02   0.563E+02 -.399E+01 0.248E+02   -.236E-03 0.784E-04 0.366E-04
   0.412E+01 -.145E+01 -.216E+01   -.448E+01 0.147E+01 0.218E+01   0.309E+00 -.338E-01 -.550E-01   -.146E-03 0.591E-04 -.719E-04
   0.225E+02 -.219E+02 0.145E+03   -.241E+02 0.234E+02 -.156E+03   -.382E+01 0.119E+02 -.474E+02   0.428E-04 0.708E-05 -.249E-03
   -.118E+02 0.104E+02 -.102E+03   0.110E+02 -.927E+01 0.101E+03   -.682E+00 -.187E+01 0.692E+01   0.422E-04 -.184E-04 -.200E-03
   -.245E+01 0.612E+00 0.371E+01   0.270E+01 -.869E+00 -.344E+01   -.764E-01 0.137E+00 -.272E+00   -.673E-04 0.206E-04 -.688E-04
   0.889E+02 -.117E+02 0.110E+02   -.862E+02 0.140E+02 -.105E+02   -.114E+02 -.545E+01 -.211E+01   -.434E-03 0.145E-03 0.725E-04
   0.227E+02 -.930E+01 -.701E+02   -.230E+02 0.970E+01 0.706E+02   0.150E+00 -.602E-01 0.904E+00   0.212E-03 -.769E-04 -.588E-04
   -.106E+02 0.385E+01 0.132E+02   0.106E+02 -.337E+01 -.127E+02   0.100E+00 -.615E+00 -.785E+00   0.601E-04 -.413E-04 0.123E-04
   -.221E+02 0.547E+01 0.773E+02   0.245E+02 -.740E+01 -.752E+02   -.455E+01 0.348E+01 -.670E+01   -.226E-04 0.753E-05 0.130E-03
   -.428E+00 0.199E+00 -.256E+02   0.657E-01 -.682E-01 0.255E+02   0.458E+00 -.996E-01 0.107E+00   -.203E-03 0.669E-04 0.558E-04
   0.125E+02 -.287E+01 0.438E+02   -.125E+02 0.343E+01 -.436E+02   -.150E+00 -.702E+00 -.863E+00   -.609E-05 0.162E-04 -.202E-03
   -.387E+02 -.781E+01 0.115E+03   0.355E+02 0.928E+01 -.123E+03   0.171E+02 0.820E+01 -.509E+02   0.452E-03 -.134E-03 0.132E-03
   0.438E+02 0.153E+02 -.333E+02   -.410E+02 -.192E+02 0.432E+02   -.128E+02 -.807E+01 0.481E+02   0.161E-03 -.723E-04 0.777E-04
   -.232E+02 -.132E+02 0.392E+02   0.231E+02 0.126E+02 -.387E+02   0.405E+00 0.242E+01 -.204E+01   0.162E-03 -.116E-03 0.109E-03
   -.180E+01 0.311E+02 0.467E+02   -.526E+02 -.276E+02 -.720E+02   -.490E+02 0.270E+01 -.206E+02   -.121E-03 0.671E-04 0.110E-03
   0.438E+02 0.153E+02 -.333E+02   -.410E+02 -.192E+02 0.432E+02   -.128E+02 -.807E+01 0.481E+02   0.169E-03 -.716E-04 0.863E-04
   -.232E+02 -.132E+02 0.392E+02   0.231E+02 0.126E+02 -.387E+02   0.405E+00 0.242E+01 -.204E+01   0.184E-03 -.406E-04 0.107E-03
   -.180E+01 0.311E+02 0.467E+02   -.526E+02 -.276E+02 -.720E+02   -.490E+02 0.270E+01 -.206E+02   -.875E-04 0.492E-04 0.117E-03
   0.385E+02 -.418E+02 -.307E+02   -.407E+02 0.399E+02 0.275E+02   0.668E+01 0.704E+01 0.629E+01   -.288E-03 0.943E-04 0.143E-03
   0.299E+02 0.173E+02 -.771E+02   -.243E+02 -.217E+02 0.874E+02   -.687E+01 -.800E+01 0.421E+02   0.390E-03 -.116E-03 0.612E-04
   -.281E+02 -.133E+02 -.111E+02   0.291E+02 0.125E+02 0.109E+02   -.727E+00 0.386E+01 -.137E+01   0.153E-04 -.122E-04 0.127E-04
   0.385E+02 -.418E+02 -.307E+02   -.407E+02 0.399E+02 0.275E+02   0.668E+01 0.704E+01 0.629E+01   -.270E-03 0.147E-03 0.141E-03
   0.299E+02 0.173E+02 -.771E+02   -.243E+02 -.217E+02 0.874E+02   -.687E+01 -.800E+01 0.421E+02   0.389E-03 -.127E-03 0.573E-04
   -.281E+02 -.133E+02 -.111E+02   0.291E+02 0.125E+02 0.109E+02   -.727E+00 0.386E+01 -.137E+01   0.150E-05 -.349E-04 0.122E-04
   0.213E+01 -.132E+02 -.732E+01   -.135E-12 -.639E-13 0.107E-13   -.217E+01 0.132E+02 0.731E+01   0.632E-03 -.140E-03 0.372E-03

 POSITION                                       TOTAL-FORCE (eV/Angst)
     -2.34237      4.90086      0.00000       109.495358    -10.082422     46.688100
      0.08645      6.11527      2.71550        -0.046765     -0.009595     -0.033784
      0.08645      0.04323      5.43100        -5.421830     13.340156    -58.407414
      0.08645      0.04323      0.00000        -1.695125      1.044022      1.302800
      2.51527      1.25763      2.71550        -0.078754     -0.024627      0.099742
      4.94408      2.47204      5.43100         0.077084      0.008381     -0.440495
      4.94409      2.47204      0.00000         5.187990     -3.514654      5.419528
     -4.77118      3.68645      2.71550         0.223372     -0.087988      0.456239
     -2.34237      4.90086      5.43100         0.029108      0.065692     -0.194760
     -7.80721      6.72247      1.35775        -0.123062      0.335208      1.386207
      4.33688      0.65043      4.07325         0.098521     -0.137037     -0.291177
      6.76570      1.86484      6.78875        -2.099686      1.553435     -4.611507
     -0.52075      4.29366      1.35775         0.096373      0.031823      0.033830
      1.90806      5.50807      4.07325        -0.109358     -0.142161     -0.656071
     -7.80720      6.72247      6.78875        13.892719      9.673021    -58.943619
      6.76570      1.86484      1.35775        -1.404849     -0.729124      5.461112
     -2.94957      3.07925      4.07325         0.169203     -0.119782     -0.005231
     -0.52075      4.29366      6.78875        -8.702498     -3.171292     -1.684221
     -5.98559      6.11527      0.00000         5.187990     -3.514654      5.419528
      6.15849      0.04323      2.71550         0.223372     -0.087988      0.456239
      8.58731      1.25763      5.43100         0.029108      0.065692     -0.194760
      1.30086      3.68645      0.00000        -1.695125      1.044022      1.302800
      3.72968      4.90086      2.71550        -0.078754     -0.024627      0.099742
     -5.98559      6.11527      5.43100         0.077084      0.008381     -0.440495
      8.58731      1.25763      0.00000       109.495358    -10.082422     46.688100
     -1.12796      2.47204      2.71550        -0.046765     -0.009595     -0.033784
      1.30086      3.68645      5.43100        -5.421830     13.340156    -58.407414
     -4.16398      5.50806      1.35775        -1.404849     -0.729124      5.461112
     -1.73516      6.72247      4.07325         0.169203     -0.119782     -0.005231
     10.40892      0.65043      6.78875        -8.702498     -3.171292     -1.684221
      3.12247      3.07925      1.35775        -0.123062      0.335208      1.386207
      5.55129      4.29366      4.07325         0.098521     -0.137037     -0.291177
     -4.16398      5.50807      6.78875        -2.099686      1.553435     -4.611507
     10.40892      0.65043      1.35775         0.096373      0.031823      0.033830
      0.69366      1.86484      4.07325        -0.109358     -0.142161     -0.656071
      3.12247      3.07925      6.78875        13.892719      9.673021    -58.943619
      2.66086      7.01574      6.78875        -9.964351    -11.998025     57.982938
      5.08968      4.18211      7.69392         0.348899      1.869994     -1.614938
      7.51849      1.34849      8.59909      -103.389887      6.231366    -45.902683
      1.44645      3.37251      6.78875        -9.964351    -11.998025     57.982938
      3.87527      0.53889      7.69392         0.348899      1.869994     -1.614938
     -3.41118      4.99172      8.59909      -103.389887      6.231366    -45.902683
      0.83925      5.59892      7.24133         4.495128      5.150186      3.159838
      3.26806      2.76530      8.14650        -1.305686    -12.411380     52.343146
     -4.01839      7.21813      9.05167         0.228095      3.124799     -1.547579
     -0.37516      1.95570      7.24133         4.495128      5.150186      3.159838
     -7.66161      6.40853      8.14650        -1.305686    -12.411380     52.343146
      6.91129      3.57491      9.05167         0.228095      3.124799     -1.547579
    total drift:                               -0.038909     -0.010038     -0.005987

  FREE ENERGIE OF THE ION-ELECTRON SYSTEM (eV)
  free  energy   TOTEN  =       -78.32844850 eV

  energy  without entropy=      -78.32780648  energy(sigma->0) =      -78.32812749