 vasp.6.4.3 19Mar24 (build Oct 22 2024 11:23:12) complex

 executed on             LinuxIFC date 2025.06.04  00:09:11

 INCAR:
   SYSTEM = Si and Ge interface calculation
   ISTART = 0
   ICHARG = 2
   LWAVE = .FALSE.
   LREAL = AUTO
   ENCUT = 700
   ENAUG = 900
   ADDGRID = .TRUE.
   LMAXMIX = 6
   LASPH = .TRUE.
   LMIXTAU = .TRUE.
   NCORE = 16
   NELM = 100
   NBANDS = 116
   EDIFF = 1d-7
   AMIX = 0.6
   ISMEAR = 0
   SIGMA = 0.01
   NELECT = 192
   ISPIN = 2
   NUPDOWN = 1
   LVTOT = .FALSE.
   LVHAR = .TRUE.

 POTCAR:    PAW_PBE Ge 05Jan2001
|           W    W    AA    RRRRR   N    N  II  N    N   GGGG   !!!           |
|           W    W   A  A   R    R  NN   N  II  NN   N  G    G  !!!           |
|           W    W  A    A  R    R  N N  N  II  N N  N  G       !!!           |
|           W WW W  AAAAAA  RRRRR   N  N N  II  N  N N  G  GGG   !            |
|           WW  WW  A    A  R   R   N   NN  II  N   NN  G    G                |
|           W    W  A    A  R    R  N    N  II  N    N   GGGG   !!!           |
|     You use a magnetic or noncollinear calculation, but did not specify     |
|     the initial magnetic moment with the MAGMOM tag. Note that a            |
|     default of 0.021 will be used for all atoms. This ferromagnetic         |
|     setup may break the symmetry of the crystal, in particular it may       |
|     rule out finding an antiferromagnetic solution. Thence, we              |
|     recommend setting the initial magnetic moment manually or verifying     |
|     carefully that this magnetic setup is desired.                          |

 POTCAR:    PAW_PBE Ge 05Jan2001
   VRHFIN =Ge: s2p2

   TITEL  = PAW_PBE Ge 05Jan2001
   POMASS =   72.610; ZVAL   =    4.000    mass and valenz
   ENMAX  =  173.807; ENMIN  =  130.355 eV

 Optimization of the real space projectors (new method)

 maximal supplied QI-value         = 16.25
 optimisation between [QCUT,QGAM] = [ 13.49, 26.98] = [ 50.95,203.80] Ry
 Optimized for a Real-space Cutoff    1.25 Angstroem

   l    n(q)    QCUT    max X(q) W(low)/X(q) W(high)/X(q)  e(spline)
   0     10    13.489    65.336    0.91E-04    0.11E-03    0.34E-06
   0     10    13.489    52.220    0.89E-04    0.11E-03    0.34E-06
   1     10    13.489    36.409    0.22E-03    0.27E-03    0.14E-06
   1     10    13.489    21.334    0.21E-03    0.27E-03    0.14E-06
   2      9    13.489     4.673    0.11E-03    0.12E-03    0.19E-06
  PAW_PBE Ge 05Jan2001                  :

 POSCAR: Ge+Ge
  positions in direct lattice

 exchange-correlation table for PE
   RHO(1)=    0.500       N(1)  =     2000
   RHO(2)=  100.500       N(2)  =     4000

 ion  position               nearest neighbor table
   1  0.006  0.994  0.000-  34 2.45  10 2.45  43 2.88
   2  0.172  0.828  0.248-  16 2.45  11 2.45  34 2.45  35 2.45
   3  0.339  0.661  0.496-  17 2.45  12 2.45  35 2.45  36 2.45
   4  0.672  0.328  0.000-  13 2.45  28 2.45  41 2.48  45 2.76  47 2.82
   5  0.839  0.161  0.248-  28 2.45  29 2.45  10 2.45  14 2.45
   6  0.006  0.994  0.496-  29 2.45  11 2.45  30 2.45  15 2.45  43 2.88
   7  0.339  0.661  0.000-  48 1.74  39 2.41  31 2.45  16 2.45  42 2.55
   8  0.506  0.494  0.248-  32 2.45  13 2.45  31 2.45  17 2.45
   9  0.672  0.328  0.496-  14 2.45  32 2.45  33 2.45  18 2.45
  10  0.089  0.161  0.124-   1 2.45  22 2.45  23 2.45   5 2.45
  11  0.256  0.994  0.372-   2 2.45  24 2.45   6 2.45  23 2.45
  12  0.422  0.828  0.620-  46 2.41   3 2.45  24 2.45
  13  0.756  0.494  0.124-   8 2.45  25 2.45   4 2.45  26 2.45  45 2.48
  14  0.922  0.328  0.372-   9 2.45  27 2.45  26 2.45   5 2.45
  15  0.089  0.161  0.620-  40 2.28  37 2.43  27 2.45   6 2.45  43 2.55
  16  0.422  0.828  0.124-   2 2.45  19 2.45   7 2.45  20 2.45
  17  0.589  0.661  0.372-   3 2.45  20 2.45  21 2.45   8 2.45
  18  0.756  0.494  0.620-  41 2.40  21 2.45   9 2.45
  19  0.506  0.994  0.000-  28 2.45  16 2.45  46 2.88
  20  0.672  0.828  0.248-  34 2.45  29 2.45  16 2.45  17 2.45
  21  0.839  0.661  0.496-  35 2.45  17 2.45  18 2.45  30 2.45
  22  0.172  0.328  0.000-  10 2.45  31 2.45  38 2.48  48 2.76  44 2.82
  23  0.339  0.161  0.248-  28 2.45  10 2.45  11 2.45  32 2.45
  24  0.506  0.994  0.496-  29 2.45  11 2.45  33 2.45  12 2.45  46 2.88
  25  0.839  0.661  0.000-  45 1.74  42 2.41  13 2.45  34 2.45  39 2.55
  26  0.006  0.494  0.248-  31 2.45  14 2.45  35 2.45  13 2.45
  27  0.172  0.328  0.496-  14 2.45  32 2.45  15 2.45  36 2.45
  28  0.589  0.161  0.124-   5 2.45  23 2.45  19 2.45   4 2.45
  29  0.756  0.994  0.372-   6 2.45  24 2.45  20 2.45   5 2.45
  30  0.922  0.828  0.620-  43 2.41   6 2.45  21 2.45
  31  0.256  0.494  0.124-   7 2.45  26 2.45   8 2.45  22 2.45  48 2.48
  32  0.422  0.328  0.372-   8 2.45   9 2.45  27 2.45  23 2.45
  33  0.589  0.161  0.620-  37 2.28  40 2.43   9 2.45  24 2.45  46 2.55
  34  0.922  0.828  0.124-   1 2.45  20 2.45  25 2.45   2 2.45
  35  0.089  0.661  0.372-  21 2.45  26 2.45   3 2.45   2 2.45
  36  0.256  0.494  0.620-  38 2.40   3 2.45  27 2.45
  37  0.318  0.098  0.707-  33 2.28  15 2.43  46 2.45  47 2.45  43 2.45
  38  0.207  0.376  0.789-  36 2.40  47 2.45  48 2.45  44 2.45  22 2.48
  39  0.096  0.654  0.872-   7 2.41  48 2.45  45 2.45  25 2.55
  40  0.818  0.098  0.707-  15 2.28  33 2.43  44 2.45  46 2.45  43 2.45
  41  0.707  0.376  0.789-  18 2.40  44 2.45  47 2.45  45 2.45   4 2.48
  42  0.596  0.654  0.872-  25 2.41  45 2.45  48 2.45   7 2.55
  43  0.013  0.987  0.748-  30 2.41  40 2.45  37 2.45  15 2.55   6 2.88   1 2.88
  44  0.902  0.265  0.830-  40 2.45  41 2.45  38 2.45  22 2.82
  45  0.791  0.542  0.913-  25 1.74  42 2.45  41 2.45  39 2.45  13 2.48   4 2.76
  46  0.513  0.987  0.748-  12 2.41  37 2.45  40 2.45  33 2.55  19 2.88  24 2.88
  47  0.402  0.265  0.830-  37 2.45  41 2.45  38 2.45   4 2.82
  48  0.291  0.542  0.913-   7 1.74  42 2.45  38 2.45  39 2.45  31 2.48  22 2.76

  LATTYP: Found a base centered orthorhombic cell.
 ALAT       =     8.0013380050
 B/A-ratio  =     2.9999998809
 C/A-ratio  =     1.4264331715

  Lattice vectors:

 A1 = (   4.0006690030, -12.0020065310,   0.0000000000)
 A2 = (   4.0006690020,  12.0020065310,   0.0000000000)
 A3 = (   0.0000000000,   0.0000000000,  11.4133739470)

Analysis of symmetry for initial positions (statically):
 Subroutine PRICEL returns following result:

  LATTYP: Found a simple orthorhombic cell.
 ALAT       =     4.0006686824
 B/A-ratio  =     2.8528665713
 C/A-ratio  =     3.0000001209

[...]

   2 primitive cells build up your supercell.

 Routine SETGRP: Setting up the symmetry group for a
 base centered orthorhombic supercell.

 Subroutine GETGRP returns: Found  1 space group operations
 (whereof  1 operations were pure point group operations)
 out of a pool of  8 trial point group operations.

The static configuration has the point symmetry C_1 .

Analysis of symmetry for dynamics (positions and initial velocities):
 Subroutine PRICEL returns following result:

[...]

The dynamic configuration has the point symmetry C_1 .

Analysis of structural, dynamic, and magnetic symmetry:
 Subroutine PRICEL returns following result:

  LATTYP: Found a simple orthorhombic cell.
 ALAT       =     4.0006686824
 B/A-ratio  =     2.8528665713
 C/A-ratio  =     3.0000001209

  Lattice vectors:

 A1 = (  -4.0006686824,   0.0000000000,   0.0000000000)
 A2 = (   0.0000000000,   0.0000000000,  11.4133739470)
 A3 = (  -0.0000003206,  12.0020065310,   0.0000000000)

   2 primitive cells build up your supercell.

 Routine SETGRP: Setting up the symmetry group for a
 base centered orthorhombic supercell.

 Subroutine GETGRP returns: Found  1 space group operations
 (whereof  1 operations were pure point group operations)
 out of a pool of  8 trial point group operations.

The overall configuration has the point symmetry C_1 .

 Subroutine INISYM returns: Found  1 space group operations
 (whereof  1 operations are pure point group operations),
 and found     2 'primitive' translations

                                     Primitive cell

  volume of cell :     548.0252

  direct lattice vectors                    reciprocal lattice vectors
    -4.000668682  0.000000000  0.000000000    -0.249958214 -0.000000007  0.000000000
     0.000000000  0.000000000 11.413373947     0.000000000  0.000000000  0.087616511
    -0.000000321 12.002006531  0.000000000     0.000000000  0.083319401  0.000000000

  length of vectors
     4.000668682 11.413373947 12.002006531     0.249958214  0.087616511  0.083319401

  position of ions in fractional coordinates (direct lattice)
     0.982916512  0.000000000  0.994305491
     0.482916447  0.247858316  0.827638865
     0.982916220  0.495716661  0.660972118
     0.982916535  0.000000000  0.327638805
     0.482916460  0.247858316  0.160972118
     0.982916413  0.495716661  0.994305432
     0.982916460  0.000000000  0.660972118
     0.482916413  0.247858316  0.494305432
     0.982916447  0.495716661  0.327638745
     0.982916460  0.123929158  0.160972148
     0.482916234  0.371787518  0.994305491
     0.982916029  0.619645953  0.827638805
     0.982916492  0.123929158  0.494305491
     0.482916267  0.371787518  0.327638805
     0.982916311  0.619645953  0.160972089
     0.982916565  0.123929158  0.827638865
     0.482916580  0.371787518  0.660972118
     0.982916373  0.619645953  0.494305432
     0.460969340  0.706548631  0.097966693
     0.960969325  0.789168060  0.375744492
     0.460969494  0.871787548  0.653522313
     0.960969447  0.747858286  0.986855507
     0.460969454  0.830477834  0.264633328
     0.960969738  0.913097322  0.542411149

  ion indices of the primitive-cell ions
   primitive index   ion index
                 1           1
                 2           2
                 3          21
                 4          22
                 5           5
                 6           6
                 7          25
                 8          26
                 9          27
                10          10
                11          29
                12          30
                13          31
                14          14
                15          15
                16          34
                17          35
                18          36
                19          40
                20          38
                21          39
                22          43
                23          44
                24          45

 KPOINTS: Automatic KPOINTS generated

Automatic generation of k-mesh.
 Grid dimensions read from file:
 generate k-points for:    4    3    3

 Generating k-lattice:

  Cartesian coordinates                     Fractional coordinates (reciprocal lattice)
     0.031244774  0.010414925  0.000000000     0.250000000 -0.000000000  0.000000000
     0.000000000  0.027773134  0.000000000     0.000000000  0.333333333  0.000000000
     0.000000000  0.000000000  0.029205504     0.000000000  0.000000000  0.333333333

  Length of vectors
     0.032934884  0.027773134  0.029205504

  Shift w.r.t. Gamma in fractional coordinates (k-lattice)
     0.000000000  0.000000000  0.000000000

 WARNING: IBZKPT: internal override: KBLOWUP is changed to .FALSE.
      ... skipping the blow-up phase ...

[...]
     42      -2.5685      1.00000
     43      -2.5416      1.00000
     44      -2.0141      1.00000
     45      -1.8477      1.00000
     46      -1.5383      1.00000
     47      -1.4202      1.00000
     48      -1.4140      1.00000
     49      -0.9264      1.00000
     50      -0.7718      1.00000
     51      -0.7112      1.00000
     52      -0.6409      1.00000
     53      -0.4014      1.00000
     54      -0.3670      1.00000
     55      -0.3469      1.00000
     56      -0.1569      1.00000
     57      -0.0667      1.00000
     58      -0.0574      1.00000
     59      -0.0164      1.00000
     60       0.0444      1.00000
[...]
    102       4.1784      0.00000
    103       4.4595      0.00000
    104       4.5880      0.00000
    105       4.6253      0.00000
    106       4.7340      0.00000
    107       4.8277      0.00000
    108       4.9127      0.00000
    109       4.9983      0.00000
    110       5.1651      0.00000
    111       5.2087      0.00000
    112       5.3327      0.00000
    113       5.4138      0.00000
    114       5.4354      0.00000
    115       5.4939      0.00000
    116       5.6274      0.00000
 Fermi energy:         3.6018820748

 spin component 2

[...]

 k-point    19 :      -0.2500   -0.3333    0.3333
  band No.  band energies     occupation
      1     -11.3149      1.00000
      2     -10.7527      1.00000
      3      -9.7245      1.00000
      4      -8.7694      1.00000
      5      -8.6627      1.00000
      6      -8.4561      1.00000
      7      -8.0807      1.00000
      8      -7.8468      1.00000
      9      -7.5966      1.00000
     10      -7.3403      1.00000
     11      -7.1327      1.00000
     12      -7.0823      1.00000
     13      -7.0538      1.00000
     14      -6.8913      1.00000
     15      -6.8278      1.00000
     16      -6.6509      1.00000
     17      -6.5092      1.00000
     18      -6.1894      1.00000
     19      -6.0699      1.00000
     20      -5.9969      1.00000
     21      -5.9557      1.00000
     22      -5.9031      1.00000
     23      -5.5921      1.00000
     24      -5.3202      1.00000
     25      -5.2867      1.00000
     26      -4.9766      1.00000
     27      -4.8274      1.00000
     28      -4.5984      1.00000
     29      -4.4556      1.00000
     30      -4.4056      1.00000
     31      -4.0362      1.00000
     32      -3.9540      1.00000
     33      -3.7286      1.00000
     34      -3.6760      1.00000
     35      -3.6218      1.00000
     36      -3.4882      1.00000
     37      -3.4371      1.00000
     38      -3.1152      1.00000
     39      -3.0975      1.00000
     40      -2.9359      1.00000
     41      -2.8180      1.00000
     42      -2.5533      1.00000
     43      -2.5264      1.00000
     44      -1.9910      1.00000
     45      -1.8339      1.00000
     46      -1.5232      1.00000
     47      -1.3978      1.00000
     48      -1.3974      1.00000
     49      -0.9031      1.00000
     50      -0.7538      1.00000
     51      -0.6912      1.00000
     52      -0.6204      1.00000
     53      -0.3840      1.00000
     54      -0.3497      1.00000
     55      -0.3291      1.00000
     56      -0.1413      1.00000
     57      -0.0511      1.00000
     58      -0.0389      1.00000
     59      -0.0012      1.00000
     60       0.0672      1.00000
[...]
    102       4.2035      0.00000
    103       4.4852      0.00000
    104       4.6089      0.00000
    105       4.6712      0.00000
    106       4.7541      0.00000
    107       4.8720      0.00000
    108       4.9319      0.00000
    109       5.0282      0.00000
    110       5.1817      0.00000
    111       5.2259      0.00000
    112       5.3500      0.00000
    113       5.4418      0.00000
    114       5.4519      0.00000
    115       5.5298      0.00000
    116       5.6470      0.00000

 soft charge-density along one line, spin component           1
         0         1         2         3         4         5         6         7         8         9
 total charge-density along one line

 soft charge-density along one line, spin component           2
         0         1         2         3         4         5         6         7         8         9
 total charge-density along one line

------------------------ aborting loop because EDIFF is reached ----------------------------------------

  FORCE on cell =-STRESS in cart. coord.  units (eV):
  Direction    XX          YY          ZZ          XY          YZ          ZX
  Alpha Z   401.77793   401.77793   401.77793
  Ewald   -1697.84471 -1590.24778 -1671.01419     0.12418   245.20059    -2.36615
  Hartree   282.53711   140.24569   180.58416     0.03253   138.21401     0.07762
  E(xc)    -664.58997  -669.10873  -665.70906     0.00823    -1.26232     0.03911
  Local    -768.09910  -692.32109  -669.13240    -1.44519  -363.22718    -0.19088
  n-local   954.99407   998.77699   970.36283     0.10694    13.90344    -0.49178
  augment    60.44477    63.48515    62.19678    -0.21021     2.50006    -0.25696
  Kinetic  1483.63691  1468.42549  1485.69741    -1.71690    -7.96643     0.19950
  Fock        0.00000     0.00000     0.00000     0.00000     0.00000     0.00000
  Total      52.85701   121.03364    94.76347    -3.10042    27.36216    -2.98954
  in kB      77.26497   176.92376   138.52272    -4.53212    39.99728    -4.37003

 VOLUME and BASIS-vectors are now :
  energy-cutoff  :      700.00
  volume of cell :     1096.05
      direct lattice vectors                 reciprocal lattice vectors
     8.001338005  0.000000000  0.000000000     0.124979097  0.041659701  0.000000000
    -4.000669003 12.002006531  0.000000000     0.000000000  0.083319401  0.000000000
     0.000000000  0.000000000 11.413373947     0.000000000  0.000000000  0.087616511

  length of vectors
     8.001338005 12.651225760 11.413373947     0.131739536  0.083319401  0.087616511

 FORCES acting on ions
    electron-ion (+dipol)            ewald-force                    non-local-force                 convergence-correction
   0.117E+00 0.153E+02 0.200E+02   -.146E+00 -.152E+02 -.215E+02   0.528E-01 -.220E+00 0.288E+00   -.749E-05 -.203E-03 0.158E-03
   -.374E-01 -.392E+01 0.504E+01   -.431E-02 0.385E+01 -.495E+01   0.481E-01 -.704E-01 -.428E-01   0.165E-06 0.632E-04 -.135E-03
   0.529E-01 -.614E+01 -.190E+02   -.425E-03 0.594E+01 0.190E+02   0.284E-01 0.567E-01 0.989E-01   0.118E-05 0.543E-03 -.406E-04
   -.615E-01 0.243E+02 -.187E+02   0.135E+00 -.259E+02 0.185E+02   -.116E+00 -.205E-01 0.101E+01   0.416E-05 -.103E-03 0.335E-03
   -.116E-01 0.808E+01 0.891E+01   -.960E-02 -.817E+01 -.887E+01   0.242E-01 0.314E-01 -.125E+00   -.207E-05 -.148E-03 -.368E-03
   -.605E-01 0.208E+02 0.164E+02   0.881E-01 -.213E+02 -.166E+02   0.213E-01 0.691E-01 -.765E+00   0.432E-05 -.559E-03 -.189E-03
   -.666E+00 -.700E+02 -.129E+02   0.562E-01 0.809E+02 0.197E+02   -.356E+00 0.106E+02 0.847E+01   0.641E-05 0.313E-03 0.731E-04
   -.519E-01 -.396E+01 -.105E+02   0.439E-01 0.396E+01 0.113E+02   0.654E-02 0.771E-01 -.649E+00   0.855E-06 0.738E-04 -.278E-03
   -.216E-01 -.120E+02 0.741E+01   -.455E-02 0.127E+02 -.715E+01   0.373E-01 -.956E-01 -.567E+00   0.358E-05 0.161E-04 -.464E-03
   -.555E-01 0.163E+02 0.750E+01   0.708E-01 -.163E+02 -.747E+01   0.993E-02 -.287E+00 0.203E+00   -.439E-05 -.115E-03 -.139E-03
   0.197E-01 0.107E+02 0.966E+01   -.179E-01 -.103E+02 -.956E+01   0.171E-01 -.214E+00 -.202E+00   -.332E-05 -.284E-03 -.273E-03
   0.327E+00 0.372E+02 -.279E+02   -.548E+00 -.373E+02 0.286E+02   0.123E+00 -.524E+00 -.479E+00   0.704E-05 -.835E-04 0.817E-04
   0.523E+00 0.139E+01 -.274E+02   -.569E+00 -.249E+01 0.293E+02   -.241E-01 0.217E+00 0.231E+00   -.363E-05 -.655E-04 0.185E-04
   0.218E-01 -.497E+01 0.989E+00   -.400E-02 0.435E+01 -.866E+00   -.359E-02 0.395E+00 -.194E+00   -.300E-05 -.335E-04 -.520E-03
   -.343E+01 -.164E+02 0.142E+02   0.370E+01 0.172E+02 -.146E+02   0.575E+00 0.145E+01 -.177E+01   -.321E-04 -.364E-03 -.668E-04
   -.681E-02 -.127E+02 0.150E+02   0.512E-01 0.139E+02 -.147E+02   0.543E-02 -.829E+00 -.137E+00   0.535E-05 0.172E-03 -.117E-03
   -.566E-01 -.521E+01 -.125E+02   0.315E-02 0.558E+01 0.124E+02   0.505E-01 -.247E+00 0.160E+00   0.368E-05 0.309E-03 -.145E-03
   0.597E+00 -.357E+02 0.186E+01   -.691E+00 0.357E+02 -.158E+01   0.218E-01 0.536E+00 -.927E+00   0.626E-05 0.466E-03 -.380E-04
   0.117E+00 0.153E+02 0.200E+02   -.146E+00 -.152E+02 -.215E+02   0.528E-01 -.220E+00 0.288E+00   -.267E-05 -.208E-03 0.162E-03
   -.375E-01 -.392E+01 0.504E+01   -.428E-02 0.385E+01 -.495E+01   0.481E-01 -.704E-01 -.428E-01   -.721E-05 0.660E-04 -.137E-03
   0.529E-01 -.614E+01 -.190E+02   -.409E-03 0.594E+01 0.190E+02   0.284E-01 0.567E-01 0.989E-01   0.709E-06 0.542E-03 -.396E-04
   -.615E-01 0.243E+02 -.187E+02   0.135E+00 -.259E+02 0.185E+02   -.116E+00 -.205E-01 0.101E+01   0.239E-05 -.105E-03 0.326E-03
   -.115E-01 0.808E+01 0.891E+01   -.965E-02 -.817E+01 -.887E+01   0.242E-01 0.314E-01 -.125E+00   -.153E-05 -.144E-03 -.368E-03
   -.604E-01 0.208E+02 0.164E+02   0.881E-01 -.213E+02 -.166E+02   0.213E-01 0.691E-01 -.765E+00   0.911E-05 -.561E-03 -.192E-03
   -.666E+00 -.700E+02 -.129E+02   0.562E-01 0.809E+02 0.197E+02   -.356E+00 0.106E+02 0.847E+01   -.106E-04 0.311E-03 0.734E-04
   -.519E-01 -.396E+01 -.105E+02   0.438E-01 0.396E+01 0.113E+02   0.654E-02 0.771E-01 -.649E+00   -.247E-05 0.742E-04 -.276E-03
   -.217E-01 -.120E+02 0.741E+01   -.451E-02 0.127E+02 -.715E+01   0.373E-01 -.956E-01 -.567E+00   0.397E-05 0.139E-04 -.461E-03
   -.556E-01 0.163E+02 0.750E+01   0.708E-01 -.163E+02 -.747E+01   0.993E-02 -.287E+00 0.203E+00   0.563E-05 -.115E-03 -.134E-03
   0.197E-01 0.107E+02 0.966E+01   -.179E-01 -.103E+02 -.956E+01   0.171E-01 -.214E+00 -.202E+00   -.913E-05 -.281E-03 -.276E-03
   0.327E+00 0.372E+02 -.279E+02   -.548E+00 -.373E+02 0.286E+02   0.123E+00 -.524E+00 -.479E+00   0.365E-05 -.871E-04 0.812E-04
   0.523E+00 0.139E+01 -.274E+02   -.569E+00 -.249E+01 0.293E+02   -.241E-01 0.217E+00 0.231E+00   0.380E-05 -.664E-04 0.153E-04
   0.218E-01 -.497E+01 0.988E+00   -.404E-02 0.435E+01 -.866E+00   -.359E-02 0.395E+00 -.194E+00   -.414E-05 -.272E-04 -.518E-03
   -.343E+01 -.164E+02 0.142E+02   0.370E+01 0.172E+02 -.146E+02   0.575E+00 0.145E+01 -.177E+01   -.275E-04 -.368E-03 -.726E-04
   -.681E-02 -.127E+02 0.150E+02   0.512E-01 0.139E+02 -.147E+02   0.543E-02 -.829E+00 -.137E+00   -.881E-06 0.175E-03 -.119E-03
   -.566E-01 -.521E+01 -.125E+02   0.314E-02 0.558E+01 0.124E+02   0.505E-01 -.247E+00 0.160E+00   -.609E-06 0.310E-03 -.144E-03
   0.597E+00 -.357E+02 0.186E+01   -.691E+00 0.357E+02 -.158E+01   0.218E-01 0.536E+00 -.927E+00   0.968E-05 0.459E-03 -.308E-04
   0.450E+01 0.272E+02 -.224E+02   -.475E+01 -.276E+02 0.223E+02   -.807E+00 0.129E-01 0.116E+01   0.240E-04 -.446E-03 0.339E-03
   -.178E+01 -.119E+02 0.219E+02   0.183E+01 0.113E+02 -.233E+02   0.124E+00 0.746E+00 0.202E+00   -.263E-05 0.497E-04 0.613E-03
   0.309E+01 -.531E+02 0.491E+02   -.346E+01 0.556E+02 -.527E+02   -.199E+00 -.877E+00 0.945E+00   -.666E-05 0.495E-03 0.635E-04
   0.450E+01 0.272E+02 -.224E+02   -.475E+01 -.276E+02 0.223E+02   -.807E+00 0.129E-01 0.116E+01   0.321E-04 -.443E-03 0.342E-03
   -.178E+01 -.119E+02 0.219E+02   0.183E+01 0.113E+02 -.233E+02   0.124E+00 0.746E+00 0.202E+00   0.238E-05 0.524E-04 0.609E-03
   0.309E+01 -.531E+02 0.491E+02   -.346E+01 0.556E+02 -.527E+02   -.199E+00 -.877E+00 0.945E+00   -.126E-04 0.495E-03 0.649E-04
   -.208E+01 0.536E+02 -.518E+02   0.201E+01 -.542E+02 0.527E+02   0.299E+00 -.136E+01 0.210E+01   -.779E-05 -.696E-03 0.266E-03
   0.179E+01 0.166E+02 -.203E+02   -.187E+01 -.172E+02 0.199E+02   -.401E-01 0.781E+00 0.144E+01   0.140E-04 -.886E-04 0.641E-03
   -.334E+01 0.501E+01 0.415E+02   0.408E+01 -.150E+02 -.499E+02   0.804E+00 -.107E+02 -.668E+01   -.418E-05 0.161E-03 0.288E-03
   -.208E+01 0.536E+02 -.518E+02   0.201E+01 -.542E+02 0.527E+02   0.299E+00 -.136E+01 0.210E+01   -.243E-05 -.701E-03 0.263E-03
   0.179E+01 0.166E+02 -.203E+02   -.187E+01 -.172E+02 0.199E+02   -.401E-01 0.781E+00 0.144E+01   -.391E-05 -.859E-04 0.642E-03
   -.334E+01 0.501E+01 0.415E+02   0.408E+01 -.150E+02 -.499E+02   0.804E+00 -.107E+02 -.668E+01   0.114E-04 0.157E-03 0.283E-03
   -.125E+01 0.911E+00 -.774E+01   -.124E-13 0.711E-14 -.284E-13   0.141E+01 -.898E+00 0.754E+01   0.276E-05 -.106E-02 0.196E-03

 POSITION                                       TOTAL-FORCE (eV/Angst)
     -3.93232     11.93366      0.00000         0.020152     -0.105485     -1.204864
     -1.93199      9.93333      2.82890         0.003171     -0.137027      0.054295
      0.06835      7.93299      5.65780         0.077769     -0.137993      0.117448
      4.06901      3.93232      0.00000        -0.046212     -1.568234      0.861439
      6.06935      1.93199      2.82890        -0.000171     -0.058799     -0.078011
     -3.93232     11.93366      5.65780         0.045775     -0.481179     -0.911174
      0.06835      7.93299      0.00000        -0.968861     21.477591     15.290250
      2.06868      5.93266      2.82890        -0.004674      0.074944      0.125017
      4.06902      3.93232      5.65780         0.008000      0.516105     -0.303760
      0.06835      1.93199      1.41445         0.022023     -0.298985      0.239727
     -1.93199     11.93366      4.24335         0.015716      0.152011     -0.096252
      0.06835      9.93333      7.07225        -0.101294     -0.664434      0.173803
      4.06901      5.93266      1.41445        -0.073493     -0.882587      2.075100
      6.06935      3.93232      4.24335         0.011027     -0.222258     -0.068365
      0.06835      1.93199      7.07225         0.840092      2.276554     -2.102582
      0.06834      9.93333      1.41445         0.046638      0.332565      0.109486
      2.06868      7.93299      4.24335        -0.006108      0.117374      0.001692
      4.06901      5.93266      7.07225        -0.075714      0.478331     -0.647267
      0.06835     11.93366      0.00000         0.020152     -0.105485     -1.204864
      2.06868      9.93333      2.82890         0.003171     -0.137027      0.054295
      4.06902      7.93299      5.65780         0.077769     -0.137993      0.117448
      0.06835      3.93232      0.00000        -0.046212     -1.568234      0.861439
      2.06868      1.93199      2.82890        -0.000171     -0.058799     -0.078011
      0.06835     11.93366      5.65780         0.045775     -0.481179     -0.911174
      4.06901      7.93299      0.00000        -0.968861     21.477591     15.290250
     -1.93199      5.93266      2.82890        -0.004674      0.074944      0.125017
      0.06835      3.93232      5.65780         0.008000      0.516105     -0.303760
      4.06901      1.93199      1.41445         0.022023     -0.298985      0.239727
      2.06868     11.93366      4.24335         0.015716      0.152011     -0.096252
      4.06902      9.93333      7.07225        -0.101294     -0.664434      0.173803
      0.06835      5.93266      1.41445        -0.073493     -0.882587      2.075100
      2.06868      3.93232      4.24335         0.011027     -0.222258     -0.068365
      4.06902      1.93199      7.07225         0.840092      2.276554     -2.102582
      4.06901      9.93333      1.41445         0.046638      0.332565      0.109486
     -1.93199      7.93299      4.24335        -0.006108      0.117374      0.001692
      0.06835      5.93266      7.07225        -0.075714      0.478331     -0.647267
      2.15648      1.17580      8.06410        -1.056578     -0.354860      1.037277
      0.15615      4.50969      9.00707         0.168596      0.114577     -1.177211
     -1.84419      7.84358      9.95004        -0.569139      1.704172     -2.559616
      6.15715      1.17580      8.06410        -1.056578     -0.354860      1.037277
      4.15682      4.50969      9.00707         0.168596      0.114577     -1.177211
      2.15648      7.84358      9.95004        -0.569139      1.704172     -2.559616
     -3.84452     11.84425      8.53559         0.229689     -1.902356      3.006842
      6.15715      3.17613      9.47855        -0.120779      0.209338      1.100892
      4.15682      6.51002     10.42152         1.534375    -20.639365    -15.044167
      0.15615     11.84425      8.53559         0.229689     -1.902356      3.006842
      2.15648      3.17613      9.47855        -0.120779      0.209338      1.100892
      0.15615      6.51002     10.42152         1.534375    -20.639365    -15.044167
    total drift:                                0.152073      0.011734     -0.194398

  FREE ENERGIE OF THE ION-ELECTRON SYSTEM (eV)
  free  energy   TOTEN  =      -182.20296874 eV

  energy  without entropy=     -182.20221807  energy(sigma->0) =     -182.20259340