 vasp.6.4.3 19Mar24 (build Oct 22 2024 11:23:12) complex

 executed on             LinuxIFC date 2025.06.04  00:31:13

 INCAR:
   SYSTEM = Si and Ge interface calculation
   ISTART = 0
   ICHARG = 2
   LWAVE = .FALSE.
   LREAL = AUTO
   ENCUT = 700
   ENAUG = 900
   ADDGRID = .TRUE.
   LMAXMIX = 6
   LASPH = .TRUE.
   LMIXTAU = .TRUE.
   NCORE = 16
   NELM = 100
   NBANDS = 116
   EDIFF = 1d-7
   AMIX = 0.6
   ISMEAR = 0
   SIGMA = 0.01
   NELECT = 192
   ISPIN = 2
   NUPDOWN = 1
   LVTOT = .FALSE.
   LVHAR = .TRUE.

 POTCAR:    PAW_PBE Sn 08Apr2002
 POTCAR:    PAW_PBE Ge 05Jan2001
|           W    W    AA    RRRRR   N    N  II  N    N   GGGG   !!!           |
|           W    W   A  A   R    R  NN   N  II  NN   N  G    G  !!!           |
|           W    W  A    A  R    R  N N  N  II  N N  N  G       !!!           |
|           W WW W  AAAAAA  RRRRR   N  N N  II  N  N N  G  GGG   !            |
|           WW  WW  A    A  R   R   N   NN  II  N   NN  G    G                |
|           W    W  A    A  R    R  N    N  II  N    N   GGGG   !!!           |
|     You use a magnetic or noncollinear calculation, but did not specify     |
|     the initial magnetic moment with the MAGMOM tag. Note that a            |
|     default of 0.021 will be used for all atoms. This ferromagnetic         |
|     setup may break the symmetry of the crystal, in particular it may       |
|     rule out finding an antiferromagnetic solution. Thence, we              |
|     recommend setting the initial magnetic moment manually or verifying     |
|     carefully that this magnetic setup is desired.                          |

 POTCAR:    PAW_PBE Sn 08Apr2002
   VRHFIN =Sn: s2p2

   TITEL  = PAW_PBE Sn 08Apr2002
   POMASS =  118.710; ZVAL   =    4.000    mass and valenz
   ENMAX  =  103.236; ENMIN  =   77.427 eV

 POTCAR:    PAW_PBE Ge 05Jan2001
   VRHFIN =Ge: s2p2

   TITEL  = PAW_PBE Ge 05Jan2001
   POMASS =   72.610; ZVAL   =    4.000    mass and valenz
   ENMAX  =  173.807; ENMIN  =  130.355 eV

 Optimization of the real space projectors (new method)

 maximal supplied QI-value         = 12.47
 optimisation between [QCUT,QGAM] = [ 12.47, 27.06] = [ 43.56,205.12] Ry
 Optimized for a Real-space Cutoff    1.58 Angstroem

   l    n(q)    QCUT    max X(q) W(low)/X(q) W(high)/X(q)  e(spline)
   0     13    12.472    14.688    0.45E-04    0.45E-04    0.25E-05
   0     13    12.472     7.308    0.94E-04    0.11E-03    0.61E-05
   1     12    12.472    45.102    0.34E-03    0.14E-03    0.21E-05
   1     12    12.472    30.691    0.31E-03    0.13E-03    0.20E-05
   2     12    12.472     7.156    0.86E-04    0.11E-03    0.17E-05
 WARNING: PSMAXN for non-local potential too small
          PSMAXN should be >   13.5545592237991       NTYP=           1
 Optimization of the real space projectors (new method)

 maximal supplied QI-value         = 16.25
 optimisation between [QCUT,QGAM] = [ 13.49, 26.98] = [ 50.95,203.80] Ry
 Optimized for a Real-space Cutoff    1.25 Angstroem

   l    n(q)    QCUT    max X(q) W(low)/X(q) W(high)/X(q)  e(spline)
   0     10    13.489    65.336    0.91E-04    0.11E-03    0.34E-06
   0     10    13.489    52.220    0.89E-04    0.11E-03    0.34E-06
   1     10    13.489    36.409    0.22E-03    0.27E-03    0.14E-06
   1     10    13.489    21.334    0.21E-03    0.27E-03    0.14E-06
   2      9    13.489     4.673    0.11E-03    0.12E-03    0.19E-06
  PAW_PBE Sn 08Apr2002                  :
  PAW_PBE Ge 05Jan2001                  :

 POSCAR: Sn+Ge
  positions in direct lattice

 exchange-correlation table for PE
   RHO(1)=    0.500       N(1)  =     2000
   RHO(2)=  100.500       N(2)  =     4000

 ion  position               nearest neighbor table
   1  0.980  0.031  0.000-  36 1.78  40 2.08   8 2.81  19 2.81
   2  0.780  0.331  0.234-  42 2.14   9 2.81  20 2.81  22 2.81  35 3.14  29 3.34
   3  0.580  0.631  0.467-  28 2.31  21 2.81  23 2.81  10 2.81  45 3.29
   4  0.480  0.031  0.000-  47 1.23  38 2.39  22 2.81  11 2.81  27 3.30
   5  0.280  0.331  0.234-  12 2.81  19 2.81  23 2.81  37 2.88  33 3.03  33 3.24
   6  0.080  0.631  0.467-  43 1.86  26 2.64  24 2.81  20 2.81   7 2.81  32 2.97
   7  0.255  0.681  0.117-  30 2.15  17 2.81  13 2.81   6 2.81  32 2.97  39 3.05  35 3.15
   8  0.055  0.981  0.350-  25 1.83   1 2.81  14 2.81  18 2.81
   9  0.855  0.281  0.584-  44 1.01  42 2.65   2 2.81  15 2.81
  10  0.755  0.681  0.117-  28 2.26  16 2.81  14 2.81   3 2.81  41 2.94
  11  0.555  0.981  0.350-  47 2.79  17 2.81  15 2.81   4 2.81  27 3.07  30 3.19  38 3.31
  12  0.355  0.281  0.584-  37 1.78  33 2.33  40 2.76  18 2.81   5 2.81  46 3.02  29 3.33
  13  0.230  0.531  0.000-  48 1.67  39 1.70  35 2.47  23 2.81   7 2.81
  14  0.030  0.831  0.234-  41 2.56  34 2.71  24 2.81  10 2.81   8 2.81  25 2.95
  15  0.830  0.131  0.467-  27 2.00  44 2.23   9 2.81  11 2.81  19 2.81
  16  0.730  0.531  0.000-  46 2.13  20 2.81  10 2.81  26 3.09  41 3.17
  17  0.530  0.831  0.234-  30 2.23  21 2.81  11 2.81   7 2.81  32 3.19
  18  0.330  0.131  0.467-  31 1.76  12 2.81   8 2.81  22 2.81  38 3.28  29 3.32
  19  0.005  0.181  0.117-  36 1.76  40 2.61   1 2.81   5 2.81  15 2.81  33 3.29
  20  0.805  0.481  0.350-  26 2.06  16 2.81   6 2.81   2 2.81  43 2.90
  21  0.605  0.781  0.584-  45 1.71  32 2.78  17 2.81   3 2.81  28 3.06
  22  0.505  0.181  0.117-  29 1.65   4 2.81   2 2.81  18 2.81  31 2.93  31 3.33
  23  0.305  0.481  0.350-  48 2.54  13 2.81   5 2.81   3 2.81
  24  0.105  0.781  0.584-  43 1.84  41 2.27  34 2.72  14 2.81   6 2.81  38 3.09
  25  0.973  0.904  0.584-   8 1.83  34 2.49  45 2.51  14 2.95
  26  0.856  0.487  0.667-  20 2.06  35 2.49  46 2.51  43 2.56   6 2.64  16 3.09
  27  0.740  0.070  0.750-  15 2.00  36 2.49  47 2.51  44 2.56  11 3.07   4 3.30
  28  0.623  0.654  0.834-  10 2.26   3 2.31  48 2.51  45 2.56  21 3.06
  29  0.506  0.237  0.917-  22 1.65  31 2.48  46 2.56  18 3.32  12 3.33   2 3.34
  30  0.390  0.820  0.000-   7 2.15  17 2.23  32 2.48  47 2.56  11 3.19
  31  0.473  0.154  0.584-  18 1.76  29 2.48  38 2.56  22 2.93  22 3.33
  32  0.356  0.737  0.667-  30 2.48  39 2.56  21 2.78   7 2.97   6 2.97  17 3.19
  33  0.240  0.320  0.750-  12 2.33  37 2.51  40 2.56   5 3.03   5 3.24  19 3.29
  34  0.123  0.904  0.834-  25 2.49  38 2.51  41 2.56  14 2.71  24 2.72
  35  0.006  0.487  0.917-  13 2.47  26 2.49  39 2.51  42 2.56   2 3.14   7 3.15
  36  0.890  0.070  0.000-  19 1.76   1 1.78  27 2.49  40 2.51
  37  0.473  0.404  0.584-  12 1.78  46 2.49  33 2.51   5 2.88
  38  0.356  0.987  0.667-   4 2.39  47 2.49  34 2.51  31 2.56  24 3.09  18 3.28  11 3.31
  39  0.240  0.570  0.750-  13 1.70  48 2.49  35 2.51  32 2.56   7 3.05
  40  0.123  0.154  0.834-   1 2.08  36 2.51  33 2.56  19 2.61  12 2.76
  41  0.006  0.737  0.917-  24 2.27  43 2.48  34 2.56  14 2.56  10 2.94  16 3.17
  42  0.890  0.320  0.000-   2 2.14  44 2.48  35 2.56   9 2.65
  43  0.973  0.654  0.584-  24 1.84   6 1.86  41 2.48  26 2.56  20 2.90
  44  0.856  0.237  0.667-   9 1.01  15 2.23  42 2.48  27 2.56
  45  0.740  0.820  0.750-  21 1.71  25 2.51  28 2.56   3 3.29
  46  0.623  0.404  0.834-  16 2.13  37 2.49  26 2.51  29 2.56  12 3.02
  47  0.506  0.987  0.917-   4 1.23  38 2.49  27 2.51  30 2.56  11 2.79
  48  0.390  0.570  0.000-  13 1.67  39 2.49  28 2.51  23 2.54

  LATTYP: Found a simple orthorhombic cell.
 ALAT       =     6.2100000380
 B/A-ratio  =     2.0899195090
 C/A-ratio  =     2.3366011140

  Lattice vectors:

 A1 = (   0.0000000000,   0.0000000000,   6.2100000380)
 A2 = (  12.9784002300,   0.0000000000,   0.0000000000)
 A3 = (   0.0000000000,  14.5102930070,   0.0000000000)

Analysis of symmetry for initial positions (statically):
 Subroutine PRICEL returns:
 Original cell was already a primitive cell.

 Routine SETGRP: Setting up the symmetry group for a
 simple orthorhombic supercell.

 Subroutine GETGRP returns: Found  1 space group operations
 (whereof  1 operations were pure point group operations)
 out of a pool of  8 trial point group operations.

The static configuration has the point symmetry C_1 .

Analysis of symmetry for dynamics (positions and initial velocities):
 Subroutine PRICEL returns:
 Original cell was already a primitive cell.

[...]

The dynamic configuration has the point symmetry C_1 .

Analysis of structural, dynamic, and magnetic symmetry:
 Subroutine PRICEL returns:
 Original cell was already a primitive cell.

 Routine SETGRP: Setting up the symmetry group for a
 simple orthorhombic supercell.

 Subroutine GETGRP returns: Found  1 space group operations
 (whereof  1 operations were pure point group operations)
 out of a pool of  8 trial point group operations.

The overall configuration has the point symmetry C_1 .

 Subroutine INISYM returns: Found  1 space group operations
 (whereof  1 operations are pure point group operations),
 and found     1 'primitive' translations

                                     Primitive cell

  volume of cell :    1169.4696

  direct lattice vectors                    reciprocal lattice vectors
    12.978400230  0.000000000  0.000000000     0.077051099  0.068916596  0.000000000
   -12.978400230 14.510293007  0.000000000     0.000000000  0.068916596  0.000000000
     0.000000000  0.000000000  6.210000038     0.000000000  0.000000000  0.161030595

  length of vectors
    12.978400230 19.467600666  6.210000038     0.103374896  0.068916596  0.161030595

  position of ions in fractional coordinates (direct lattice)
     0.979564309  0.030653533  0.000000013
     0.779564261  0.330653578  0.233660161
     0.579564154  0.630653620  0.467320323
     0.479564250  0.030653533  0.000000013
     0.279564202  0.330653578  0.233660161
     0.079564132  0.630653620  0.467320323
     0.254564315  0.680653512  0.116829842
     0.054564159  0.980653465  0.350490004
     0.854564130  0.280653596  0.584150076
     0.754564404  0.680653512  0.116829842
     0.554564238  0.980653465  0.350490004
     0.354564160  0.280653596  0.584150076
     0.229564279  0.530653477  0.000000000
     0.029564191  0.830653489  0.233660161
     0.829564035  0.130653620  0.467320323
     0.729564190  0.530653477  0.000000000
     0.529564142  0.830653489  0.233660161
     0.329564035  0.130653620  0.467320323
     0.004564330  0.180653512  0.116829857
     0.804564178  0.480653584  0.350490004
     0.604564250  0.780653656  0.584150076
     0.504564285  0.180653512  0.116829857
     0.304564178  0.480653584  0.350490004
     0.104564168  0.780653656  0.584150076
     0.973007262  0.903597474  0.584150136
     0.856340528  0.486930728  0.667320073
     0.739673793  0.070263982  0.750490069
     0.623006940  0.653597236  0.833660126
     0.506340265  0.236930609  0.916830063
     0.389673412  0.820263624  0.000000000
     0.473007262  0.153597444  0.584150136
     0.356340498  0.736930668  0.667320073
     0.239673749  0.320263982  0.750490069
     0.123006947  0.903597236  0.833660007
     0.006340192  0.486930490  0.916829944
     0.889673531  0.070263624  0.000000000
     0.473007262  0.403597444  0.584150195
     0.356340468  0.986930728  0.667320132
     0.239673704  0.570263982  0.750490069
     0.123006977  0.153597176  0.833660007
     0.006340250  0.736930490  0.916830063
[...]
     42      -0.8271      1.00000
     43      -0.6957      1.00000
     44      -0.5171      1.00000
     45      -0.4327      1.00000
     46      -0.3218      1.00000
     47      -0.0971      1.00000
     48       0.0583      1.00000
     49       0.1115      1.00000
     50       0.2167      1.00000
     51       0.4223      1.00000
     52       0.5133      1.00000
     53       0.6303      1.00000
     54       0.7270      1.00000
     55       0.7953      1.00000
     56       0.9170      1.00000
     57       1.0073      1.00000
     58       1.1404      1.00000
     59       1.2621      1.00000
     60       1.3258      1.00000
[...]
    102       5.4798      0.00000
    103       5.5667      0.00000
    104       5.6256      0.00000
    105       5.6913      0.00000
    106       5.8201      0.00000
    107       5.8895      0.00000
    108       5.9600      0.00000
    109       6.0212      0.00000
    110       6.0906      0.00000
    111       6.1671      0.00000
    112       6.2697      0.00000
    113       6.3335      0.00000
    114       6.4637      0.00000
    115       6.5432      0.00000
    116       6.5991      0.00000
 Fermi energy:         4.9360791107

 spin component 2

[...]

 k-point    16 :      -0.3333    0.5000    0.4000
  band No.  band energies     occupation
      1     -10.1171      1.00000
      2      -9.7433      1.00000
      3      -9.5119      1.00000
      4      -8.5102      1.00000
      5      -8.0934      1.00000
      6      -7.8330      1.00000
      7      -7.6465      1.00000
      8      -7.4831      1.00000
      9      -7.4168      1.00000
     10      -7.0594      1.00000
     11      -6.8204      1.00000
     12      -6.6636      1.00000
     13      -6.3860      1.00000
     14      -6.3406      1.00000
     15      -5.8482      1.00000
     16      -5.5725      1.00000
     17      -5.2318      1.00000
     18      -5.1397      1.00000
     19      -4.8494      1.00000
     20      -4.6274      1.00000
     21      -4.4594      1.00000
     22      -4.2919      1.00000
     23      -4.1661      1.00000
     24      -3.8468      1.00000
     25      -3.7258      1.00000
     26      -3.3647      1.00000
     27      -3.1663      1.00000
     28      -2.8792      1.00000
     29      -2.8139      1.00000
     30      -2.5345      1.00000
     31      -2.4390      1.00000
     32      -2.1985      1.00000
     33      -1.9416      1.00000
     34      -1.8482      1.00000
     35      -1.7352      1.00000
     36      -1.6173      1.00000
     37      -1.4511      1.00000
     38      -1.2913      1.00000
     39      -1.1792      1.00000
     40      -1.0476      1.00000
     41      -0.8977      1.00000
     42      -0.8091      1.00000
     43      -0.6760      1.00000
     44      -0.4971      1.00000
     45      -0.4144      1.00000
     46      -0.3022      1.00000
     47      -0.0795      1.00000
     48       0.0765      1.00000
     49       0.1294      1.00000
     50       0.2344      1.00000
     51       0.4406      1.00000
     52       0.5312      1.00000
     53       0.6496      1.00000
     54       0.7445      1.00000
     55       0.8127      1.00000
     56       0.9352      1.00000
     57       1.0256      1.00000
     58       1.1576      1.00000
     59       1.2800      1.00000
     60       1.3428      1.00000
[...]
    102       5.5000      0.00000
    103       5.5897      0.00000
    104       5.6484      0.00000
    105       5.7115      0.00000
    106       5.8417      0.00000
    107       5.9114      0.00000
    108       5.9807      0.00000
    109       6.0419      0.00000
    110       6.1127      0.00000
    111       6.1886      0.00000
    112       6.2894      0.00000
    113       6.3546      0.00000
    114       6.4848      0.00000
    115       6.5653      0.00000
    116       6.6890      0.00000

 soft charge-density along one line, spin component           1
         0         1         2         3         4         5         6         7         8         9
 total charge-density along one line

 soft charge-density along one line, spin component           2
         0         1         2         3         4         5         6         7         8         9
 total charge-density along one line

------------------------ aborting loop because EDIFF is reached ----------------------------------------

  FORCE on cell =-STRESS in cart. coord.  units (eV):
  Direction    XX          YY          ZZ          XY          YZ          ZX
  Alpha Z   311.50060   311.50060   311.50060
  Ewald   -1601.57989 -1373.00342 -1492.83597  -179.13535  -112.41765   158.43576
  Hartree   169.85213   280.26611   194.19823     1.97048   -27.75951    29.12578
  E(xc)    -826.68469  -826.82061  -824.74755     5.24850     2.74913    -4.16876
  Local    -658.84169 -1036.97032  -863.48408    38.72894    78.99154  -117.02898
  n-local  1905.40480  1917.75731  1915.24572   -18.40340   -10.49908    27.35770
  augment  -251.95538  -262.37562  -266.26409   -15.28080    -6.06078     8.86730
  Kinetic  1532.00143  1510.51380  1522.05608    13.87157     6.63784   -11.07338
  Fock        0.00000     0.00000     0.00000     0.00000     0.00000     0.00000
  Total     579.69732   520.86787   495.66893  -153.00006   -68.35852    91.51542
  in kB     794.18728   713.59074   679.06810  -209.61059   -93.65141   125.37644

 VOLUME and BASIS-vectors are now :
  energy-cutoff  :      700.00
  volume of cell :     1169.47
      direct lattice vectors                 reciprocal lattice vectors
    12.978400230  0.000000000  0.000000000     0.077051099  0.068916596  0.000000000
   -12.978400230 14.510293007  0.000000000     0.000000000  0.068916596  0.000000000
     0.000000000  0.000000000  6.210000038     0.000000000  0.000000000  0.161030595

  length of vectors
    12.978400230 19.467600666  6.210000038     0.103374896  0.068916596  0.161030595

 FORCES acting on ions
    electron-ion (+dipol)            ewald-force                    non-local-force                 convergence-correction
   -.413E+02 0.546E+02 -.157E+02   0.517E+02 -.606E+02 0.161E+02   0.229E+02 -.169E+02 0.415E+01   -.301E-04 -.276E-04 0.569E-04
   0.108E+02 -.468E+01 -.203E+02   -.117E+02 0.471E+01 0.216E+02   -.509E+01 0.573E+00 0.414E+01   0.246E-04 0.234E-03 0.214E-06
   -.134E+02 0.121E+02 0.216E+02   0.129E+02 -.121E+02 -.227E+02   0.457E+00 -.131E+01 -.272E+01   -.148E-03 -.138E-03 -.834E-06
   0.273E+02 -.169E+02 -.392E+02   -.101E+03 0.687E+02 0.811E+02   -.354E+02 0.255E+02 0.225E+02   0.260E-04 -.117E-03 0.623E-04
   0.159E-01 -.750E+01 0.112E+02   0.986E+00 0.776E+01 -.122E+02   -.142E+01 -.369E+00 -.833E+00   0.205E-04 0.134E-03 0.417E-04
   -.453E+02 -.920E+00 0.318E+02   0.518E+02 -.916E+00 -.344E+02   0.193E+02 -.224E+01 -.826E+01   0.229E-03 -.390E-04 0.922E-05
   0.754E+01 0.143E+02 -.242E+02   -.778E+01 -.156E+02 0.249E+02   -.158E+01 -.598E+01 0.260E+01   0.679E-04 -.120E-03 -.271E-04
   0.204E+02 -.264E+02 0.337E+02   -.206E+02 0.313E+02 -.391E+02   0.231E+00 0.128E+02 -.166E+02   -.703E-04 0.198E-04 -.235E-04
   0.639E+01 -.357E+02 0.286E+02   -.111E+03 0.150E+03 -.121E+03   -.284E+02 0.295E+02 -.231E+02   -.365E-04 0.274E-03 -.621E-04
   0.596E+01 0.192E+00 -.242E+02   -.585E+01 0.150E-01 0.250E+02   0.251E+01 0.413E+00 0.310E+01   -.651E-04 -.133E-03 0.101E-04
   -.668E+01 0.934E+01 -.132E+02   0.666E+01 -.995E+01 0.148E+02   -.136E+00 0.393E+00 0.605E+00   0.377E-05 -.237E-03 -.218E-04
   -.681E+01 0.401E+02 0.199E+02   0.873E+01 -.495E+02 -.209E+02   0.401E+01 -.260E+02 -.150E+01   -.671E-04 0.218E-03 -.190E-04
   -.327E+00 0.446E+02 -.427E+02   -.136E+02 -.575E+02 0.590E+02   -.193E+02 -.203E+02 0.257E+02   -.164E-03 0.155E-03 -.159E-04
   0.903E+01 -.791E+01 -.630E+01   -.796E+01 0.747E+01 0.625E+01   -.911E+00 0.112E+01 0.662E+00   0.846E-04 -.484E-04 0.136E-04
   -.414E+02 0.631E+01 0.455E+02   0.429E+02 -.548E+01 -.481E+02   0.533E+01 0.534E+00 -.139E+02   0.524E-04 -.464E-04 -.114E-03
   0.302E+02 -.140E+02 -.233E+02   -.304E+02 0.148E+02 0.235E+02   -.817E+00 0.640E+01 0.420E+01   0.659E-04 -.101E-03 -.272E-04
   -.495E+02 -.124E+02 -.130E+02   0.520E+02 0.133E+02 0.125E+02   0.335E+01 0.391E+00 0.395E+01   -.121E-03 -.199E-03 0.973E-05
   0.544E+02 0.112E+02 0.269E+02   -.645E+02 -.140E+02 -.305E+02   -.242E+02 -.462E+01 -.116E+02   -.662E-04 0.749E-04 -.190E-04
   0.464E+01 -.508E+02 -.379E+02   -.544E+01 0.628E+02 0.424E+02   -.328E+00 0.240E+02 0.123E+02   0.825E-04 0.112E-03 0.404E-04
   0.268E+02 0.141E+02 0.354E+02   -.281E+02 -.143E+02 -.372E+02   -.279E+01 -.149E+01 -.104E+02   0.984E-04 0.877E-04 0.825E-05
   0.206E+02 -.116E+02 0.328E+02   -.308E+02 0.687E+01 -.413E+02   -.216E+02 -.899E+01 -.173E+02   -.262E-03 -.115E-03 -.409E-04
   0.892E+00 0.196E+02 -.318E+02   0.793E+01 -.301E+02 0.459E+02   0.136E+02 -.161E+02 0.251E+02   -.125E-04 0.673E-04 0.315E-04
   0.711E+00 0.205E+02 -.186E+02   -.822E+00 -.214E+02 0.209E+02   -.387E+00 -.224E+00 0.459E+00   -.107E-03 0.536E-04 0.212E-04
   -.946E+01 -.446E+02 0.285E+02   0.109E+02 0.531E+02 -.294E+02   0.945E+00 0.212E+02 -.351E+01   0.233E-03 -.139E-03 -.213E-04
   0.237E+02 0.653E+01 -.932E+01   -.242E+02 -.152E+02 0.210E+02   -.970E+00 -.843E+01 0.111E+02   -.438E-04 0.248E-04 -.410E-04
   -.509E+01 0.210E+02 -.132E+02   0.669E+01 -.222E+02 0.183E+02   0.875E+00 -.568E-01 0.678E+01   0.123E-03 0.141E-03 0.290E-04
   -.208E+02 0.302E+02 -.856E+01   0.198E+02 -.347E+02 0.147E+02   -.119E+01 -.281E+01 0.721E+01   0.928E-05 -.189E-03 -.172E-04
   -.130E+02 0.139E+02 -.349E+01   0.125E+02 -.145E+02 0.329E+01   -.185E+01 0.119E+00 0.435E+00   -.148E-03 -.155E-03 0.169E-04
   0.312E+02 -.130E+02 -.101E+01   -.452E+02 0.280E+02 -.220E+02   -.937E+01 0.118E+02 -.168E+02   -.783E-04 0.177E-03 0.571E-06
   0.103E+02 -.137E+02 0.554E+01   -.127E+02 0.166E+02 -.809E+01   -.222E+01 0.393E+01 -.414E+01   0.927E-04 -.291E-03 0.167E-04
   -.206E+02 -.107E+02 0.725E+01   0.395E+02 0.151E+02 0.122E+01   0.151E+02 0.269E+01 0.711E+01   0.263E-05 0.402E-04 -.310E-04
   -.790E+01 -.190E+02 0.232E+02   0.725E+01 0.193E+02 -.242E+02   0.867E+00 -.431E+00 -.128E+00   -.501E-04 -.204E-03 0.313E-04
   0.383E+02 -.223E+02 -.939E+01   -.433E+02 0.237E+02 0.106E+02   -.551E+00 -.208E-01 0.136E+01   0.692E-04 0.200E-03 -.472E-04
   0.220E+02 -.227E+02 -.194E+02   -.226E+02 0.241E+02 0.202E+02   -.416E+00 -.370E+00 -.336E+00   0.817E-04 -.867E-05 0.310E-06
   0.106E+02 0.511E+01 -.104E+02   -.127E+02 -.492E+01 0.120E+02   -.486E+00 -.106E+01 -.122E+01   0.106E-03 0.286E-03 0.790E-05
   0.186E+02 0.436E+02 -.758E+01   -.390E+02 -.561E+02 -.268E+00   -.154E+02 -.106E+02 -.731E+01   0.720E-04 -.854E-04 0.762E-04
   0.845E+01 -.532E+02 0.187E+02   -.904E+01 0.729E+02 -.196E+02   0.409E+00 0.153E+02 0.858E+00   -.449E-04 -.160E-04 0.163E-04
   0.952E+01 0.131E+02 0.337E+02   -.104E+02 -.140E+02 -.375E+02   -.521E+00 -.784E-01 -.938E+00   0.773E-04 -.118E-03 -.458E-04
   -.128E+02 0.957E+01 0.577E+02   0.552E+01 -.719E+00 -.861E+02   -.409E+01 0.671E+01 -.169E+02   -.149E-03 0.103E-03 0.295E-04
   -.286E+02 -.319E+01 0.234E+02   0.311E+02 0.751E+01 -.264E+02   0.120E+01 0.487E+01 -.392E+01   0.380E-04 0.124E-03 -.820E-05
   0.397E+01 0.135E+02 -.312E+02   -.428E+01 -.147E+02 0.353E+02   -.488E+00 -.114E+01 0.879E+00   0.212E-03 -.134E-03 -.894E-05
   -.328E+02 0.352E+01 -.189E+02   0.372E+02 -.327E+01 0.176E+02   0.228E+01 -.798E-01 -.261E+01   0.138E-04 0.302E-03 0.573E-04
   0.441E+02 0.123E+02 0.666E+01   -.569E+02 -.248E+02 -.267E+01   -.111E+02 -.980E+01 0.534E+01   0.252E-03 -.127E-03 -.766E-05
   -.122E+02 -.276E+02 0.944E+00   0.129E+03 -.962E+02 0.101E+03   0.133E+02 -.142E+02 0.168E+02   0.207E-04 0.186E-03 0.127E-04
   -.443E+01 -.311E+02 -.278E+02   0.216E+02 0.399E+02 0.429E+02   0.141E+02 0.636E+01 0.112E+02   -.183E-03 -.817E-04 0.150E-04
   0.161E+02 0.120E+02 -.121E+02   -.155E+02 -.149E+02 0.104E+02   0.717E+00 -.454E+01 -.163E+01   -.518E-04 0.108E-03 -.475E-04
   -.147E+02 0.116E+02 -.837E+00   0.102E+03 -.713E+02 -.478E+02   0.231E+02 -.164E+02 -.130E+02   0.446E-04 -.260E-03 0.305E-04
   -.488E+02 -.508E+00 -.859E+01   0.778E+02 0.110E+02 0.960E+01   0.199E+02 0.735E+01 -.958E+00   -.218E-03 -.471E-05 -.103E-04
   0.266E+02 -.741E+01 0.914E+00   0.284E-12 0.693E-13 0.000E+00   -.267E+02 0.748E+01 -.873E+00   0.856E-04 -.139E-04 -.122E-04

 POSITION                                       TOTAL-FORCE (eV/Angst)
     12.31534      0.44479      0.00000        33.245161    -22.894134      4.527713
      5.82614      4.79788      1.45103        -5.979398      0.605484      5.383133
     -0.66306      9.15097      2.90206        -0.031532     -1.230396     -3.781116
      5.82614      0.44479      0.00000      -109.185503     77.296217     64.470124
     -0.66306      4.79788      1.45103        -0.415673     -0.110911     -1.919503
     -7.15226      9.15097      2.90206        25.847718     -4.075793    -10.876207
     -5.52996      9.87648      0.72551        -1.814795     -7.269606      3.292299
    -12.01916     14.22957      2.17654         0.114462     17.730362    -21.891232
      7.44844      4.07237      3.62757      -133.309368    143.525270   -115.805949
      0.95925      9.87648      0.72551         2.622504      0.618393      3.876224
     -5.52996     14.22957      2.17654        -0.151611     -0.212410      2.250246
      0.95924      4.07237      3.62757         5.920785    -35.368490     -2.465697
     -3.90766      7.69994      0.00000       -33.275258    -33.135273     42.005116
    -10.39686     12.05303      1.45103         0.159548      0.669406      0.611023
      9.07074      1.89582      2.90206         6.864287      1.364815    -16.573454
      2.58154      7.69994      0.00000        -1.026354      7.171723      4.406555
     -3.90766     12.05303      1.45103         5.775514      1.298177      3.412124
      2.58154      1.89582      2.90206       -34.282610     -7.361015    -15.146997
     -2.28536      2.62134      0.72551        -1.125485     35.992046     16.819697
      4.20384      6.97442      2.17654        -4.179268     -1.691161    -12.163695
     -2.28536     11.32751      3.62757       -31.922254    -13.740455    -25.725384
      4.20384      2.62134      0.72551        22.413003    -26.548352     39.233973
     -2.28536      6.97442      2.17654        -0.497278     -1.107079      2.758374
     -8.77456     11.32751      3.62757         2.435431     29.702458     -4.464864
      0.90083     13.11146      3.62757        -1.503581    -17.094034     22.753093
      4.79435      7.06551      4.14406         2.472055     -1.251840     11.855716
      8.68787      1.01955      4.66054        -2.197474     -7.297189     13.356998
     -0.39701      9.48389      5.17703        -2.383736     -0.447096      0.228855
      3.49651      3.43793      5.69351       -23.344173     26.822606    -39.756626
     -5.58837     11.90227      0.00000        -4.590969      6.814890     -6.689438
      4.14543      2.22874      3.62757        34.047858      7.092497     15.569467
     -4.93945     10.69308      4.14406         0.214449     -0.110315     -1.074421
     -1.04593      4.64712      4.66054        -5.538171      1.374398      2.578726
    -10.13081     13.11146      5.17703        -1.019232      0.992009      0.527063
     -6.23729      7.06550      5.69351        -2.614461     -0.869383      0.391278
     10.63463      1.01955      0.00000       -35.732167    -23.104204    -15.161740
      0.90083      5.85632      3.62757        -0.187565     35.026825     -0.045916
     -8.18405     14.32065      4.14406        -1.433570     -0.985234     -4.794717
     -4.29053      8.27470      4.66054       -11.335939     15.557649    -45.371235
     -0.39701      2.22874      5.17703         3.788815      9.188563     -6.902048
     -9.48189     10.69308      5.69351        -0.794649     -2.296246      5.007148
      7.39003      4.64712      0.00000         6.700808      0.170360     -3.850151
      4.14543      9.48389      3.62757       -23.877621    -22.244282      9.321288
      8.03895      3.43793      4.14406       129.655032   -138.071835    118.525813
     -1.04593     11.90227      4.66054        31.280666     15.173707     26.279564
      2.84759      5.85631      5.17703         1.284375     -7.475958     -3.350026
     -6.23729     14.32065      5.69351       109.917398    -76.022063    -61.682836
     -2.34377      8.27469      0.00000        48.989824     17.826896      0.051643
    total drift:                               -0.043221      0.068373      0.041316

  FREE ENERGIE OF THE ION-ELECTRON SYSTEM (eV)
  free  energy   TOTEN  =       109.53305709 eV

  energy  without entropy=      109.53410978  energy(sigma->0) =      109.53358344