 vasp.6.4.3 19Mar24 (build Oct 22 2024 11:23:12) complex

 executed on             LinuxIFC date 2025.06.03  22:52:41

 INCAR:
   SYSTEM = Si and Ge interface calculation
   ISTART = 0
   ICHARG = 2
   LWAVE = .FALSE.
   LREAL = AUTO
   ENCUT = 700
   ENAUG = 900
   ADDGRID = .TRUE.
   LMAXMIX = 6
   LASPH = .TRUE.
   LMIXTAU = .TRUE.
   NCORE = 16
   NELM = 100
   NBANDS = 58
   EDIFF = 1d-7
   AMIX = 0.6
   ISMEAR = 0
   SIGMA = 0.01
   NELECT = 96
   ISPIN = 2
   NUPDOWN = 1
   LVTOT = .FALSE.
   LVHAR = .TRUE.

 POTCAR:    PAW_PBE Ge 05Jan2001
|           W    W    AA    RRRRR   N    N  II  N    N   GGGG   !!!           |
|           W    W   A  A   R    R  NN   N  II  NN   N  G    G  !!!           |
|           W    W  A    A  R    R  N N  N  II  N N  N  G       !!!           |
|           W WW W  AAAAAA  RRRRR   N  N N  II  N  N N  G  GGG   !            |
|           WW  WW  A    A  R   R   N   NN  II  N   NN  G    G                |
|           W    W  A    A  R    R  N    N  II  N    N   GGGG   !!!           |
|     You use a magnetic or noncollinear calculation, but did not specify     |
|     the initial magnetic moment with the MAGMOM tag. Note that a            |
|     default of 0.042 will be used for all atoms. This ferromagnetic         |
|     setup may break the symmetry of the crystal, in particular it may       |
|     rule out finding an antiferromagnetic solution. Thence, we              |
|     recommend setting the initial magnetic moment manually or verifying     |
|     carefully that this magnetic setup is desired.                          |

 POTCAR:    PAW_PBE Ge 05Jan2001
   VRHFIN =Ge: s2p2

   TITEL  = PAW_PBE Ge 05Jan2001
   POMASS =   72.610; ZVAL   =    4.000    mass and valenz
   ENMAX  =  173.807; ENMIN  =  130.355 eV

 Optimization of the real space projectors (new method)

 maximal supplied QI-value         = 16.25
 optimisation between [QCUT,QGAM] = [ 13.49, 26.98] = [ 50.95,203.80] Ry
 Optimized for a Real-space Cutoff    1.25 Angstroem

   l    n(q)    QCUT    max X(q) W(low)/X(q) W(high)/X(q)  e(spline)
   0     10    13.489    65.336    0.91E-04    0.11E-03    0.34E-06
   0     10    13.489    52.220    0.89E-04    0.11E-03    0.34E-06
   1     10    13.489    36.409    0.22E-03    0.27E-03    0.14E-06
   1     10    13.489    21.334    0.21E-03    0.27E-03    0.14E-06
   2      9    13.489     4.673    0.11E-03    0.12E-03    0.19E-06
  PAW_PBE Ge 05Jan2001                  :

 POSCAR: Ge+Ge
  positions in direct lattice

 exchange-correlation table for PE
   RHO(1)=    0.500       N(1)  =     2000
   RHO(2)=  100.500       N(2)  =     4000

 ion  position               nearest neighbor table
   1  0.017  0.000  0.000-  15 1.41  18 2.00  24 2.00   4 2.45  10 2.45
   2  0.517  0.000  0.200-   4 2.45  10 2.45  11 2.45   5 2.45
   3  0.017  0.000  0.400-  13 1.41  11 2.45   5 2.45  12 2.45   6 2.45
   4  0.267  0.750  0.100-  18 1.41   2 2.45   1 2.45   7 2.45   8 2.45
   5  0.767  0.750  0.300-   8 2.45   2 2.45   3 2.45   9 2.45
   6  0.267  0.750  0.500-  16 1.41  13 2.00  19 2.00   9 2.45   3 2.45
   7  0.517  0.500  0.000-  21 1.41  24 2.00  18 2.00  10 2.45   4 2.45
   8  0.017  0.500  0.200-  10 2.45   5 2.45  11 2.45   4 2.45
   9  0.517  0.500  0.400-  19 1.41  11 2.45   6 2.45   5 2.45  12 2.45
  10  0.767  0.250  0.100-  24 1.41   8 2.45   2 2.45   7 2.45   1 2.45
  11  0.267  0.250  0.300-   9 2.45   2 2.45   3 2.45   8 2.45
  12  0.767  0.250  0.500-  22 1.41  19 2.00  13 2.00   3 2.45   9 2.45
  13  0.017  0.000  0.500-   3 1.41   6 2.00  12 2.00  16 2.45  22 2.45
  14  0.517  0.000  0.700-  16 2.45  22 2.45  23 2.45  17 2.45
  15  0.017  0.000  0.900-   1 1.41  23 2.45  17 2.45  24 2.45  18 2.45
  16  0.267  0.750  0.600-   6 1.41  14 2.45  13 2.45  19 2.45  20 2.45
  17  0.767  0.750  0.800-  15 2.45  20 2.45  21 2.45  14 2.45
  18  0.267  0.750  0.000-   4 1.41   1 2.00   7 2.00  21 2.45  15 2.45
  19  0.517  0.500  0.500-   9 1.41  12 2.00   6 2.00  22 2.45  16 2.45
  20  0.017  0.500  0.700-  22 2.45  17 2.45  16 2.45  23 2.45
  21  0.517  0.500  0.900-   7 1.41  23 2.45  18 2.45  17 2.45  24 2.45
  22  0.767  0.250  0.600-  12 1.41  20 2.45  14 2.45  19 2.45  13 2.45
  23  0.267  0.250  0.800-  21 2.45  15 2.45  14 2.45  20 2.45
  24  0.767  0.250  0.000-  10 1.41   7 2.00   1 2.00  15 2.45  21 2.45

  LATTYP: Found a simple tetragonal cell.
 ALAT       =     5.6578001980
 C/A-ratio  =     2.5000000419

  Lattice vectors:

 A1 = (   5.6578001980,   0.0000000000,   0.0000000000)
 A2 = (   0.0000000000,   5.6578001980,   0.0000000000)
 A3 = (   0.0000000000,   0.0000000000,  14.1445007320)

Analysis of symmetry for initial positions (statically):
 Subroutine PRICEL returns following result:

[...]

   4 primitive cells build up your supercell.

 Routine SETGRP: Setting up the symmetry group for a
 simple tetragonal supercell.

 Subroutine GETGRP returns: Found  8 space group operations
 (whereof  1 operations were pure point group operations)
 out of a pool of 16 trial point group operations.

The static configuration has the point symmetry C_1 .
 The point group associated with its full space group is D_2h.

Analysis of symmetry for dynamics (positions and initial velocities):
 Subroutine PRICEL returns following result:

[...]

The dynamic configuration has the point symmetry C_1 .
 The point group associated with its full space group is D_2h.

Analysis of structural, dynamic, and magnetic symmetry:
 Subroutine PRICEL returns following result:

  LATTYP: Found a simple tetragonal cell.
 ALAT       =     4.0006688186
 C/A-ratio  =     1.7677672248

  Lattice vectors:

 A1 = (   2.8288998331,  -2.8289002687,   0.0000000000)
 A2 = (   2.8288998331,   2.8288999293,   0.0000000000)
 A3 = (   0.0000000000,   0.0000000000,   7.0722512147)

   4 primitive cells build up your supercell.

 Routine SETGRP: Setting up the symmetry group for a
 simple tetragonal supercell.

 Subroutine GETGRP returns: Found  8 space group operations
 (whereof  1 operations were pure point group operations)
 out of a pool of 16 trial point group operations.

The overall configuration has the point symmetry C_1 .
 The point group associated with its full space group is D_2h.

 Subroutine INISYM returns: Found  8 space group operations
 (whereof  1 operations are pure point group operations),
 and found     4 'primitive' translations

                                     Primitive cell

  volume of cell :     113.1939

  direct lattice vectors                    reciprocal lattice vectors
     2.828899833 -2.828900269  0.000000000     0.176747145 -0.176747139  0.000000000
     2.828899833  2.828899929  0.000000000     0.176747167  0.176747139  0.000000000
     0.000000000  0.000000000  7.072251215     0.000000000  0.000000000  0.141397692

  length of vectors
     4.000668819  4.000668579  7.072251215     0.249958206  0.249958221  0.141397692

  position of ions in fractional coordinates (direct lattice)
     0.017083454  0.017083456  0.000000000
     0.517083424  0.517083486  0.399999898
     0.017083407  0.017083409  0.799999736
     0.517083445  0.017083477  0.199999950
     0.017083430  0.517083432  0.599999832
     0.517083415  0.017083447  0.000000000

  ion indices of the primitive-cell ions
   primitive index   ion index
                 1           1
                 2           2
                 3          15
                 4           4
                 5          23
                 6          18

 KPOINTS: Automatic KPOINTS generated

Automatic generation of k-mesh.
 Grid dimensions read from file:
 generate k-points for:    6    6    2

 Generating k-lattice:

  Cartesian coordinates                     Fractional coordinates (reciprocal lattice)
     0.029457857  0.000000000  0.000000000     0.166666667  0.000000000  0.000000000
     0.000000000  0.029457857  0.000000000     0.000000000  0.166666667  0.000000000
     0.000000000  0.000000000  0.035349427     0.000000000  0.000000000  0.500000000

  Length of vectors
     0.029457857  0.029457857  0.035349427

  Shift w.r.t. Gamma in fractional coordinates (k-lattice)
     0.000000000  0.000000000  0.000000000

 Subroutine IBZKPT returns following result:

 Found     26 irreducible k-points:

 Following reciprocal coordinates:
            Coordinates               Weight
  0.000000  0.000000  0.000000      1.000000
  0.166667  0.000000  0.000000      4.000000
  0.333333  0.000000  0.000000      4.000000
  0.500000  0.000000  0.000000      2.000000
  0.166667  0.166667  0.000000      2.000000
 -0.166667  0.166667  0.000000      2.000000
  0.333333  0.166667  0.000000      4.000000
 -0.166667  0.333333  0.000000      4.000000
  0.500000  0.166667  0.000000      4.000000
  0.333333  0.333333  0.000000      2.000000
 -0.333333  0.333333  0.000000      2.000000
  0.500000  0.333333  0.000000      4.000000
  0.500000  0.500000  0.000000      1.000000
  0.000000  0.000000  0.500000      1.000000
  0.166667  0.000000  0.500000      4.000000
  0.333333  0.000000  0.500000      4.000000
  0.500000  0.000000  0.500000      2.000000
  0.166667  0.166667  0.500000      2.000000
 -0.166667  0.166667  0.500000      2.000000
  0.333333  0.166667  0.500000      4.000000
 -0.166667  0.333333  0.500000      4.000000
  0.500000  0.166667  0.500000      4.000000
  0.333333  0.333333  0.500000      2.000000
 -0.333333  0.333333  0.500000      2.000000
  0.500000  0.333333  0.500000      4.000000
  0.500000  0.500000  0.500000      1.000000

 Following cartesian coordinates:
            Coordinates               Weight
  0.000000  0.000000  0.000000      1.000000
  0.029458  0.000000  0.000000      4.000000
  0.058916  0.000000  0.000000      4.000000
  0.088374  0.000000  0.000000      2.000000
  0.029458  0.029458  0.000000      2.000000
 -0.029458  0.029458  0.000000      2.000000
  0.058916  0.029458  0.000000      4.000000
 -0.029458  0.058916  0.000000      4.000000
  0.088374  0.029458  0.000000      4.000000
  0.058916  0.058916  0.000000      2.000000
 -0.058916  0.058916  0.000000      2.000000
  0.088374  0.058916  0.000000      4.000000
  0.088374  0.088374  0.000000      1.000000
  0.000000  0.000000  0.035349      1.000000
  0.029458  0.000000  0.035349      4.000000
  0.058916  0.000000  0.035349      4.000000
  0.088374  0.000000  0.035349      2.000000
  0.029458  0.029458  0.035349      2.000000
 -0.029458  0.029458  0.035349      2.000000
  0.058916  0.029458  0.035349      4.000000
 -0.029458  0.058916  0.035349      4.000000
  0.088374  0.029458  0.035349      4.000000
  0.058916  0.058916  0.035349      2.000000
 -0.058916  0.058916  0.035349      2.000000
  0.088374  0.058916  0.035349      4.000000
  0.088374  0.088374  0.035349      1.000000

 SYSTEM =  Si and Ge interface calculation
 POSCAR =  Ge+Ge

 Startparameter for this run:
   NWRITE =      2    write-flag & timer
   PREC   = normal    normal or accurate (medium, high low for compatibility)
   ISTART =      0    job   : 0-new  1-cont  2-samecut
   ICHARG =      2    charge: 1-file 2-atom 10-const
   ISPIN  =      2    spin polarized calculation?
   LNONCOLLINEAR =      F non collinear calculations
[...]

[...]

 eigenvalues of (default mixing * dielectric matrix)
  average eigenvalue GAMMA=   1.6733
  1.6733

[...]

 eigenvalue-minimisations  :  6856
 total energy-change (2. order) :-0.1659782E-06  (-0.6359135E-07)
 number of electron      95.9999999 magnetization       1.0000000
 augmentation part      -17.8741100 magnetization      -0.1034339

[...]

 Broyden mixing:
  rms(total) = 0.61858E-04    rms(broyden)= 0.61188E-04
  rms(prec ) = 0.65194E-04
  weight for this iteration     100.00

 eigenvalues of (default mixing * dielectric matrix)
  average eigenvalue GAMMA=   1.0214
  2.0433  1.7629  1.7629  1.2661  1.0208  0.8255  0.8255  0.7451  0.5474  0.5113
  0.4732  0.4732

[...]

--------------------------------------- Iteration      1(  18)  ---------------------------------------

 eigenvalue-minimisations  :  3720
 total energy-change (2. order) : 0.8141205E-07  (-0.6095908E-08)
 number of electron      95.9999999 magnetization       1.0000000
 augmentation part      -17.8740842 magnetization      -0.1034385

 Free energy of the ion-electron system (eV)
  alpha Z        PSCENC =       243.14971798
  Ewald energy   TEWEN  =     -2323.90224092
  -Hartree energ DENC   =      -374.39139336
  -exchange      EXHF   =         0.00000000
  -V(xc)+E(xc)   XCENC  =      -167.66367503
  PAW double counting   =     11324.81678545   -10993.89246907
  entropy T*S    EENTRO =        -0.00049811
  eigenvalues    EBANDS =      -133.24219306
  atomic energy  EATOM  =      2519.90183662
  Solvation  Ediel_sol  =         0.00000000
  free energy    TOTEN  =        94.77587049 eV

  energy without entropy =       94.77636860  energy(sigma->0) =       94.77611955

 average (electrostatic) potential at core
  the test charge radii are     1.1631
  (the norm of the test charge is              1.0000)
       1 -35.8396       2 -31.3137       3 -35.4866       4 -35.4866       5 -31.3137
       6 -35.8396       7 -35.8396       8 -31.3137       9 -35.4866      10 -35.4866
      11 -31.3137      12 -35.8396      13 -35.8395      14 -31.3138      15 -35.4867
      16 -35.4867      17 -31.3138      18 -35.8396      19 -35.8395      20 -31.3138
      21 -35.4867      22 -35.4867      23 -31.3138      24 -35.8396

 E-fermi :   5.3207     XC(G=0):  -9.6086     alpha+bet :-10.9879

 val. band max:        5.6212475566   @ k =   0.5000   0.5000   0.5000
 cond. band min:       5.3274435824   @ k =  -0.1667   0.3333   0.0000
 fundamental gap:     -0.2938039742
 Fermi energy:         5.6282471845

 spin component 1

 k-point     1 :       0.0000    0.0000    0.0000
  band No.  band energies     occupation
      1     -12.0169      1.00000
      2     -11.9949      1.00000
      3      -9.6281      1.00000
      4      -9.6281      1.00000
      5      -9.6241      1.00000
      6      -9.6241      1.00000
      7      -7.7200      1.00000
      8      -7.0444      1.00000
      9      -6.1168      1.00000
     10      -4.3295      1.00000
     11      -3.8973      1.00000
     12      -3.8861      1.00000
     13      -3.7931      1.00000
     14      -3.7931      1.00000
     15      -3.7486      1.00000
     16      -3.7486      1.00000
     17      -3.0042      1.00000
     18      -2.8117      1.00000
     19      -2.8117      1.00000
     20      -2.6732      1.00000
     21      -2.6732      1.00000
     22      -0.7892      1.00000
     23      -0.6879      1.00000
     24      -0.5093      1.00000
     25      -0.2359      1.00000
     26      -0.2359      1.00000
     27       0.1850      1.00000
     28       0.1850      1.00000
     29       1.1074      1.00000
     30       1.1074      1.00000
     31       1.1452      1.00000
     32       1.7432      1.00000
     33       1.7432      1.00000
     34       1.7794      1.00000
     35       1.8894      1.00000
     36       1.9997      1.00000
     37       2.5965      1.00000
     38       2.8289      1.00000
     39       2.8393      1.00000
     40       2.8393      1.00000
     41       3.4035      1.00000
     42       3.9566      1.00000
     43       4.1408      1.00000
     44       4.1408      1.00000
     45       4.1522      1.00000
     46       4.2146      1.00000
     47       4.9943      1.00000
     48       5.5463      1.00000
     49       5.7331      0.00000
     50       5.9735      0.00000
     51       6.0516      0.00000
     52       6.0516      0.00000
     53       6.4006      0.00000
     54       6.5100      0.00000
     55       6.6611      0.00000
     56       6.7150      0.00000
     57       6.8163      0.00000
     58       6.8945      0.00000
     59       6.9434      0.00000
     60       6.9434      0.00000

[...]

 k-point    26 :       0.5000    0.5000    0.5000
  band No.  band energies     occupation
      1     -11.6996      1.00000
      2     -11.6996      1.00000
      3      -9.9527      1.00000
      4      -9.9527      1.00000
      5      -9.9527      1.00000
      6      -9.9527      1.00000
      7      -6.3455      1.00000
      8      -6.3455      1.00000
      9      -5.5909      1.00000
     10      -5.5908      1.00000
     11      -4.7553      1.00000
     12      -4.7553      1.00000
     13      -4.7553      1.00000
     14      -4.7552      1.00000
     15      -3.7488      1.00000
     16      -3.7488      1.00000
     17      -3.1349      1.00000
     18      -3.1349      1.00000
     19      -1.6304      1.00000
     20      -1.6304      1.00000
     21      -1.6304      1.00000
     22      -1.6303      1.00000
     23      -1.3511      1.00000
     24      -1.3510      1.00000
     25      -0.6207      1.00000
     26      -0.6207      1.00000
     27       1.1862      1.00000
     28       1.1862      1.00000
     29       1.1862      1.00000
     30       1.1863      1.00000
     31       1.2204      1.00000
     32       1.2204      1.00000
     33       2.3033      1.00000
     34       2.3033      1.00000
     35       2.3033      1.00000
     36       2.3033      1.00000
     37       2.7334      1.00000
     38       2.7334      1.00000
     39       3.2080      1.00000
     40       3.2080      1.00000
     41       3.9020      1.00000
     42       3.9020      1.00000
     43       4.4807      1.00000
     44       4.4807      1.00000
     45       5.6212      0.84017
     46       5.6212      0.84004
     47       5.6212      0.83940
     48       5.6212      0.83889
     49       6.2897      0.00000
     50       6.2897      0.00000
     51       6.2897      0.00000
     52       6.2897      0.00000
     53       6.4523      0.00000
     54       6.4523      0.00000
     55       7.0812      0.00000
     56       7.0812      0.00000
     57       7.1152      0.00000
     58       7.1152      0.00000
     59       8.1054      0.00000
     60       8.1054      0.00000
 Fermi energy:         5.3207059459

 spin component 2

[...]

 k-point    26 :       0.5000    0.5000    0.5000
  band No.  band energies     occupation
      1     -11.6567      1.00000
      2     -11.6567      1.00000
      3      -9.9119      1.00000
      4      -9.9119      1.00000
      5      -9.9119      1.00000
      6      -9.9119      1.00000
      7      -6.3169      1.00000
      8      -6.3169      1.00000
      9      -5.5567      1.00000
     10      -5.5567      1.00000
     11      -4.7177      1.00000
     12      -4.7177      1.00000
     13      -4.7176      1.00000
     14      -4.7176      1.00000
     15      -3.7113      1.00000
     16      -3.7112      1.00000
     17      -3.0836      1.00000
     18      -3.0835      1.00000
     19      -1.5962      1.00000
     20      -1.5962      1.00000
     21      -1.5962      1.00000
     22      -1.5962      1.00000
     23      -1.3151      1.00000
     24      -1.3151      1.00000
     25      -0.5694      1.00000
     26      -0.5694      1.00000
     27       1.2359      1.00000
     28       1.2359      1.00000
     29       1.2359      1.00000
     30       1.2360      1.00000
     31       1.2619      1.00000
     32       1.2620      1.00000
     33       2.3375      1.00000
     34       2.3375      1.00000
     35       2.3375      1.00000
     36       2.3375      1.00000
     37       2.7919      1.00000
     38       2.7919      1.00000
     39       3.2534      1.00000
     40       3.2534      1.00000
     41       3.9331      1.00000
     42       3.9332      1.00000
     43       4.5078      1.00000
     44       4.5078      1.00000
     45       5.6758      0.00000
     46       5.6758      0.00000
     47       5.6758      0.00000
     48       5.6758      0.00000
     49       6.3311      0.00000
     50       6.3311      0.00000
     51       6.3312      0.00000
     52       6.3312      0.00000
     53       6.4954      0.00000
     54       6.4954      0.00000
     55       7.1457      0.00000
     56       7.1458      0.00000
     57       7.1515      0.00000
     58       7.1515      0.00000
     59       8.1484      0.00000
     60       8.1484      0.00000

 soft charge-density along one line, spin component           1
         0         1         2         3         4         5         6         7         8         9
 total charge-density along one line

 soft charge-density along one line, spin component           2
         0         1         2         3         4         5         6         7         8         9
 total charge-density along one line

------------------------ aborting loop because EDIFF is reached ----------------------------------------

  FORCE on cell =-STRESS in cart. coord.  units (eV):
  Direction    XX          YY          ZZ          XY          YZ          ZX
  Alpha Z   243.14972   243.14972   243.14972
  Ewald   -1016.93483 -1016.93483  -290.04114  -459.79547     0.00022     0.00027
  Hartree   146.17015   146.17015    82.05127   -93.80513    -0.00002    -0.00001
  E(xc)    -362.14499  -362.14499  -373.98175     2.47489    -0.00000    -0.00000
  Local    -445.82894  -445.82894  -481.40900   464.26197    -0.00009    -0.00003
  n-local   656.40437   655.98481   800.20093   -32.39622     0.00004     0.00006
  augment    19.90142    19.90146   115.71664    -5.58235     0.00001     0.00002
  Kinetic   872.19020   875.56549   850.41485    23.49363    -0.00005    -0.00004
  Fock        0.00000     0.00000     0.00000     0.00000     0.00000     0.00000
  Total     114.38498   114.38498   946.10151  -101.34022     0.00000     0.00000
  in kB     404.75923   404.75923  3347.84610  -358.59942     0.00000     0.00000

 VOLUME and BASIS-vectors are now :
  energy-cutoff  :      700.00
  volume of cell :      452.78
      direct lattice vectors                 reciprocal lattice vectors
     5.657800198  0.000000000  0.000000000     0.176747139  0.000000000  0.000000000
     0.000000000  5.657800198  0.000000000     0.000000000  0.176747139  0.000000000
     0.000000000  0.000000000 14.144500732     0.000000000  0.000000000  0.070698855

  length of vectors
     5.657800198  5.657800198 14.144500732     0.176747139  0.176747139  0.070698855

 FORCES acting on ions
    electron-ion (+dipol)            ewald-force                    non-local-force                 convergence-correction
   0.190E-05 0.343E-05 -.338E+02   0.343E-05 0.188E-04 0.802E+02   0.208E-18 -.137E-18 0.306E+02   0.113E-07 0.159E-07 -.990E-05
   0.235E-04 -.166E-05 -.174E+02   -.225E-05 -.266E-05 0.175E+02   0.702E-19 -.428E-19 0.831E+00   -.535E-08 0.163E-07 -.178E-04
   0.354E-04 -.506E-06 0.754E+02   -.249E-04 -.538E-05 -.123E+03   0.380E-19 0.202E-18 -.322E+02   0.127E-07 0.164E-07 0.178E-04
   0.168E-04 -.245E-05 -.754E+02   0.367E-05 -.146E-04 0.123E+03   0.861E-19 0.617E-19 0.322E+02   0.561E-08 0.828E-08 -.224E-04
   0.227E-04 -.184E-05 0.174E+02   -.627E-05 -.337E-05 -.175E+02   0.103E-18 -.566E-20 -.831E+00   -.487E-08 0.821E-08 0.932E-05
   0.364E-04 0.250E-04 0.338E+02   -.249E-05 -.950E-05 -.802E+02   -.225E-18 0.705E-18 -.306E+02   0.490E-08 0.782E-08 0.108E-04
   0.643E-04 0.519E-04 -.338E+02   0.379E-04 0.866E-05 0.802E+02   0.319E-18 -.120E-18 0.306E+02   -.122E-07 -.170E-07 -.990E-05
   0.868E-04 0.133E-04 -.174E+02   0.219E-04 0.115E-04 0.175E+02   0.893E-19 -.432E-19 0.831E+00   0.535E-08 -.158E-07 -.178E-04
   0.138E-03 0.292E-04 0.754E+02   -.257E-04 0.415E-05 -.123E+03   0.441E-19 -.289E-20 -.322E+02   -.136E-07 -.172E-07 0.178E-04
   0.416E-04 0.121E-04 -.754E+02   -.605E-06 -.923E-05 0.123E+03   -.293E-18 0.300E-19 0.322E+02   -.653E-08 -.860E-08 -.224E-04
   0.221E-04 0.675E-05 0.174E+02   -.767E-05 0.248E-05 -.175E+02   0.746E-19 -.128E-19 -.831E+00   0.529E-08 -.780E-08 0.933E-05
   0.466E-04 0.384E-04 0.338E+02   0.302E-05 -.833E-06 -.802E+02   -.969E-20 -.118E-18 -.306E+02   -.596E-08 -.872E-08 0.108E-04
   0.190E-05 0.343E-05 -.338E+02   0.343E-05 0.188E-04 0.802E+02   -.129E-18 0.205E-18 0.306E+02   0.113E-07 0.159E-07 0.205E-04
   0.235E-04 -.166E-05 -.174E+02   -.225E-05 -.266E-05 0.175E+02   -.190E-19 -.947E-20 0.831E+00   -.535E-08 0.163E-07 -.751E-06
   0.354E-04 -.506E-06 0.754E+02   -.249E-04 -.538E-05 -.123E+03   0.100E-18 -.159E-18 -.322E+02   0.127E-07 0.164E-07 -.175E-05
   0.168E-04 -.245E-05 -.754E+02   0.367E-05 -.146E-04 0.123E+03   -.163E-19 0.973E-20 0.322E+02   0.561E-08 0.828E-08 0.687E-05
   0.227E-04 -.184E-05 0.174E+02   -.627E-05 -.337E-05 -.175E+02   0.317E-19 0.101E-18 -.831E+00   -.487E-08 0.821E-08 0.772E-05
   0.364E-04 0.250E-04 0.338E+02   -.249E-05 -.950E-05 -.802E+02   -.230E-18 0.608E-18 -.306E+02   0.490E-08 0.782E-08 -.195E-04
   0.643E-04 0.519E-04 -.338E+02   0.379E-04 0.866E-05 0.802E+02   -.141E-18 0.385E-18 0.306E+02   -.122E-07 -.170E-07 0.205E-04
   0.868E-04 0.133E-04 -.174E+02   0.219E-04 0.115E-04 0.175E+02   -.198E-19 0.949E-19 0.831E+00   0.535E-08 -.158E-07 -.750E-06
   0.138E-03 0.292E-04 0.754E+02   -.257E-04 0.415E-05 -.123E+03   0.345E-19 0.146E-18 -.322E+02   -.136E-07 -.172E-07 -.175E-05
   0.416E-04 0.121E-04 -.754E+02   -.605E-06 -.923E-05 0.123E+03   0.209E-18 0.676E-20 0.322E+02   -.653E-08 -.860E-08 0.687E-05
   0.221E-04 0.675E-05 0.174E+02   -.767E-05 0.248E-05 -.175E+02   0.239E-19 0.102E-18 -.831E+00   0.529E-08 -.780E-08 0.773E-05
   0.466E-04 0.384E-04 0.338E+02   0.302E-05 -.833E-06 -.802E+02   -.111E-18 -.191E-18 -.306E+02   -.596E-08 -.872E-08 -.195E-04
   0.107E-02 0.347E-03 -.169E-03   -.112E-13 0.184E-14 -.568E-13   0.238E-18 0.181E-17 0.000E+00   -.691E-08 -.426E-08 0.190E-05

 POSITION                                       TOTAL-FORCE (eV/Angst)
      0.09665      0.00000      0.00000         0.000000      0.000000     77.048400
      2.92555      0.00000      2.82890         0.000000     -0.000000      0.933281
      0.09665      0.00000      5.65780        -0.000000     -0.000000    -79.967607
      1.51110      4.24335      1.41445         0.000000      0.000000     79.967607
      4.34000      4.24335      4.24335        -0.000000      0.000000     -0.933281
      1.51110      4.24335      7.07225        -0.000000     -0.000000    -77.048400
      2.92555      2.82890      0.00000         0.000000      0.000000     77.048400
      0.09665      2.82890      2.82890        -0.000000     -0.000000      0.933281
      2.92555      2.82890      5.65780         0.000000      0.000000    -79.967607
      4.34000      1.41445      1.41445         0.000000      0.000000     79.967607
      1.51110      1.41445      4.24335         0.000000      0.000000     -0.933281
      4.34000      1.41445      7.07225        -0.000000      0.000000    -77.048400
      0.09665      0.00000      7.07225        -0.000000     -0.000000     77.048400
      2.92555      0.00000      9.90115         0.000000     -0.000000      0.933281
      0.09665      0.00000     12.73005        -0.000000      0.000000    -79.967607
      1.51110      4.24335      8.48670         0.000000      0.000000     79.967607
      4.34000      4.24335     11.31560        -0.000000     -0.000000     -0.933281
      1.51110      4.24335      0.00000         0.000000      0.000000    -77.048400
      2.92555      2.82890      7.07225        -0.000000     -0.000000     77.048400
      0.09665      2.82890      9.90115         0.000000      0.000000      0.933281
      2.92555      2.82890     12.73005        -0.000000      0.000000    -79.967607
      4.34000      1.41445      8.48670        -0.000000     -0.000000     79.967607
      1.51110      1.41445     11.31560        -0.000000     -0.000000     -0.933281
      4.34000      1.41445      0.00000         0.000000      0.000000    -77.048400
    total drift:                                0.001071      0.000347     -0.000167

  FREE ENERGIE OF THE ION-ELECTRON SYSTEM (eV)
  free  energy   TOTEN  =        94.77587049 eV

  energy  without entropy=       94.77636860  energy(sigma->0) =       94.77611955