 vasp.6.4.3 19Mar24 (build Oct 22 2024 11:23:12) complex

 executed on             LinuxIFC date 2025.06.03  22:58:48

 INCAR:
   SYSTEM = Si and Ge interface calculation
   ISTART = 0
   ICHARG = 2
   LWAVE = .FALSE.
   LREAL = AUTO
   ENCUT = 700
   ENAUG = 900
   ADDGRID = .TRUE.
   LMAXMIX = 6
   LASPH = .TRUE.
   LMIXTAU = .TRUE.
   NCORE = 16
   NELM = 100
   NBANDS = 58
   EDIFF = 1d-7
   AMIX = 0.6
   ISMEAR = 0
   SIGMA = 0.01
   NELECT = 96
   ISPIN = 2
   NUPDOWN = 1
   LVTOT = .FALSE.
   LVHAR = .TRUE.

 POTCAR:    PAW_PBE Si 05Jan2001
|           W    W    AA    RRRRR   N    N  II  N    N   GGGG   !!!           |
|           W    W   A  A   R    R  NN   N  II  NN   N  G    G  !!!           |
|           W    W  A    A  R    R  N N  N  II  N N  N  G       !!!           |
|           W WW W  AAAAAA  RRRRR   N  N N  II  N  N N  G  GGG   !            |
|           WW  WW  A    A  R   R   N   NN  II  N   NN  G    G                |
|           W    W  A    A  R    R  N    N  II  N    N   GGGG   !!!           |
|     You use a magnetic or noncollinear calculation, but did not specify     |
|     the initial magnetic moment with the MAGMOM tag. Note that a            |
|     default of 0.042 will be used for all atoms. This ferromagnetic         |
|     setup may break the symmetry of the crystal, in particular it may       |
|     rule out finding an antiferromagnetic solution. Thence, we              |
|     recommend setting the initial magnetic moment manually or verifying     |
|     carefully that this magnetic setup is desired.                          |

 POTCAR:    PAW_PBE Si 05Jan2001
   VRHFIN =Si: s2p2

   TITEL  = PAW_PBE Si 05Jan2001
   POMASS =   28.085; ZVAL   =    4.000    mass and valenz
   ENMAX  =  245.345; ENMIN  =  184.009 eV

 Optimization of the real space projectors (new method)

 maximal supplied QI-value         = 19.84
 optimisation between [QCUT,QGAM] = [ 13.49, 26.99] = [ 50.98,203.92] Ry
 Optimized for a Real-space Cutoff    1.07 Angstroem

   l    n(q)    QCUT    max X(q) W(low)/X(q) W(high)/X(q)  e(spline)
   0      9    13.493   159.560    0.22E-03    0.15E-03    0.72E-07
   0      9    13.493   115.863    0.21E-03    0.15E-03    0.71E-07
   1      8    13.493    88.339    0.15E-03    0.11E-03    0.13E-06
   1      8    13.493    48.592    0.15E-03    0.10E-03    0.13E-06
  PAW_PBE Si 05Jan2001                  :

 POSCAR: Si+Si
  positions in direct lattice

 exchange-correlation table for PE
   RHO(1)=    0.500       N(1)  =     2000
   RHO(2)=  100.500       N(2)  =     4000

 ion  position               nearest neighbor table
   1  0.018  0.000  0.000-  15 1.36  24 1.92  18 1.92  10 2.35   4 2.35
   2  0.518  0.000  0.200-   4 2.35  10 2.35  11 2.35   5 2.35
   3  0.018  0.000  0.400-  13 1.36   5 2.35  12 2.35  11 2.35   6 2.35
   4  0.268  0.750  0.100-  18 1.36   2 2.35   1 2.35   7 2.35   8 2.35
   5  0.768  0.750  0.300-   3 2.35   9 2.35   8 2.35   2 2.35
   6  0.268  0.750  0.500-  16 1.36  19 1.92  13 1.92   3 2.35   9 2.35
   7  0.518  0.500  0.000-  21 1.36  18 1.92  24 1.92   4 2.35  10 2.35
   8  0.018  0.500  0.200-  10 2.35   4 2.35  11 2.35   5 2.35
   9  0.518  0.500  0.400-  19 1.36   5 2.35  12 2.35  11 2.35   6 2.35
  10  0.768  0.250  0.100-  24 1.36   1 2.35   8 2.35   7 2.35   2 2.35
  11  0.268  0.250  0.300-   3 2.35   9 2.35   8 2.35   2 2.35
  12  0.768  0.250  0.500-  22 1.36  13 1.92  19 1.92   3 2.35   9 2.35
  13  0.018  0.000  0.500-   3 1.36  12 1.92   6 1.92  22 2.35  16 2.35
  14  0.518  0.000  0.700-  16 2.35  22 2.35  23 2.35  17 2.35
  15  0.018  0.000  0.900-   1 1.36  17 2.35  23 2.35  24 2.35  18 2.35
  16  0.268  0.750  0.600-   6 1.36  14 2.35  20 2.35  13 2.35  19 2.35
  17  0.768  0.750  0.800-  15 2.35  21 2.35  20 2.35  14 2.35
  18  0.268  0.750  0.000-   4 1.36   7 1.92   1 1.92  15 2.35  21 2.35
  19  0.518  0.500  0.500-   9 1.36   6 1.92  12 1.92  16 2.35  22 2.35
  20  0.018  0.500  0.700-  22 2.35  16 2.35  23 2.35  17 2.35
  21  0.518  0.500  0.900-   7 1.36  17 2.35  23 2.35  24 2.35  18 2.35
  22  0.768  0.250  0.600-  12 1.36  20 2.35  14 2.35  13 2.35  19 2.35
  23  0.268  0.250  0.800-  15 2.35  21 2.35  20 2.35  14 2.35
  24  0.768  0.250  0.000-  10 1.36   1 1.92   7 1.92  15 2.35  21 2.35

  LATTYP: Found a simple tetragonal cell.
 ALAT       =     5.4310002330
 C/A-ratio  =     2.5000001316

  Lattice vectors:

 A1 = (   5.4310002330,   0.0000000000,   0.0000000000)
 A2 = (   0.0000000000,   5.4310002330,   0.0000000000)
 A3 = (   0.0000000000,   0.0000000000,  13.5775012970)

Analysis of symmetry for initial positions (statically):
 Subroutine PRICEL returns following result:

[...]

   4 primitive cells build up your supercell.

 Routine SETGRP: Setting up the symmetry group for a
 simple tetragonal supercell.

 Subroutine GETGRP returns: Found  8 space group operations
 (whereof  1 operations were pure point group operations)
 out of a pool of 16 trial point group operations.

The static configuration has the point symmetry C_1 .
 The point group associated with its full space group is D_2h.

Analysis of symmetry for dynamics (positions and initial velocities):
 Subroutine PRICEL returns following result:

[...]

The dynamic configuration has the point symmetry C_1 .
 The point group associated with its full space group is D_2h.

Analysis of structural, dynamic, and magnetic symmetry:
 Subroutine PRICEL returns following result:

  LATTYP: Found a simple tetragonal cell.
 ALAT       =     3.8402971510
 C/A-ratio  =     1.7677670195

  Lattice vectors:

 A1 = (   2.7155001980,  -2.7155001165,   0.0000000000)
 A2 = (   2.7155001980,   2.7155001165,   0.0000000000)
 A3 = (   0.0000000000,   0.0000000000,   6.7887506485)

   4 primitive cells build up your supercell.

 Routine SETGRP: Setting up the symmetry group for a
 simple tetragonal supercell.

 Subroutine GETGRP returns: Found  8 space group operations
 (whereof  1 operations were pure point group operations)
 out of a pool of 16 trial point group operations.

The overall configuration has the point symmetry C_1 .
 The point group associated with its full space group is D_2h.

 Subroutine INISYM returns: Found  8 space group operations
 (whereof  1 operations are pure point group operations),
 and found     4 'primitive' translations

                                     Primitive cell

  volume of cell :     100.1197

  direct lattice vectors                    reciprocal lattice vectors
     2.715500198 -2.715500116  0.000000000     0.184128140 -0.184128145  0.000000000
     2.715500198  2.715500116  0.000000000     0.184128140  0.184128145  0.000000000
     0.000000000  0.000000000  6.788750649     0.000000000  0.000000000  0.147302508

  length of vectors
     3.840297151  3.840297151  6.788750649     0.260396516  0.260396516  0.147302508

  position of ions in fractional coordinates (direct lattice)
     0.017796858  0.017796858  0.000000000
     0.517796858  0.517796858  0.400000006
     0.017796873  0.017796873  0.799999952
     0.517796911  0.017796911  0.200000002
     0.017796851  0.517796971  0.600000144
     0.517796970  0.017796970  0.000000000

  ion indices of the primitive-cell ions
   primitive index   ion index
                 1           1
                 2           2
                 3          15
                 4          10
                 5          17
                 6          24

 KPOINTS: Automatic KPOINTS generated

Automatic generation of k-mesh.
 Grid dimensions read from file:
 generate k-points for:    6    6    2

 Generating k-lattice:

  Cartesian coordinates                     Fractional coordinates (reciprocal lattice)
     0.030688024  0.000000000  0.000000000     0.166666667  0.000000000  0.000000000
     0.000000000  0.030688024  0.000000000     0.000000000  0.166666667  0.000000000
     0.000000000  0.000000000  0.036825627     0.000000000  0.000000000  0.500000000

  Length of vectors
     0.030688024  0.030688024  0.036825627

  Shift w.r.t. Gamma in fractional coordinates (k-lattice)
     0.000000000  0.000000000  0.000000000

 Subroutine IBZKPT returns following result:

 Found     26 irreducible k-points:

 Following reciprocal coordinates:
            Coordinates               Weight
  0.000000  0.000000  0.000000      1.000000
  0.166667  0.000000  0.000000      4.000000
  0.333333  0.000000  0.000000      4.000000
  0.500000  0.000000  0.000000      2.000000
  0.166667  0.166667  0.000000      2.000000
 -0.166667  0.166667  0.000000      2.000000
  0.333333  0.166667  0.000000      4.000000
 -0.166667  0.333333  0.000000      4.000000
  0.500000  0.166667  0.000000      4.000000
  0.333333  0.333333  0.000000      2.000000
 -0.333333  0.333333  0.000000      2.000000
  0.500000  0.333333  0.000000      4.000000
  0.500000  0.500000  0.000000      1.000000
  0.000000  0.000000  0.500000      1.000000
  0.166667  0.000000  0.500000      4.000000
  0.333333  0.000000  0.500000      4.000000
  0.500000  0.000000  0.500000      2.000000
  0.166667  0.166667  0.500000      2.000000
 -0.166667  0.166667  0.500000      2.000000
  0.333333  0.166667  0.500000      4.000000
 -0.166667  0.333333  0.500000      4.000000
  0.500000  0.166667  0.500000      4.000000
  0.333333  0.333333  0.500000      2.000000
 -0.333333  0.333333  0.500000      2.000000
  0.500000  0.333333  0.500000      4.000000
  0.500000  0.500000  0.500000      1.000000

 Following cartesian coordinates:
            Coordinates               Weight
  0.000000  0.000000  0.000000      1.000000
  0.030688  0.000000  0.000000      4.000000
  0.061376  0.000000  0.000000      4.000000
  0.092064  0.000000  0.000000      2.000000
  0.030688  0.030688  0.000000      2.000000
 -0.030688  0.030688  0.000000      2.000000
  0.061376  0.030688  0.000000      4.000000
 -0.030688  0.061376  0.000000      4.000000
  0.092064  0.030688  0.000000      4.000000
  0.061376  0.061376  0.000000      2.000000
 -0.061376  0.061376  0.000000      2.000000
  0.092064  0.061376  0.000000      4.000000
  0.092064  0.092064  0.000000      1.000000
  0.000000  0.000000  0.036826      1.000000
  0.030688  0.000000  0.036826      4.000000
  0.061376  0.000000  0.036826      4.000000
  0.092064  0.000000  0.036826      2.000000
  0.030688  0.030688  0.036826      2.000000
 -0.030688  0.030688  0.036826      2.000000
  0.061376  0.030688  0.036826      4.000000
 -0.030688  0.061376  0.036826      4.000000
  0.092064  0.030688  0.036826      4.000000
  0.061376  0.061376  0.036826      2.000000
 -0.061376  0.061376  0.036826      2.000000
  0.092064  0.061376  0.036826      4.000000
  0.092064  0.092064  0.036826      1.000000

 SYSTEM =  Si and Ge interface calculation
 POSCAR =  Si+Si

 Startparameter for this run:
   NWRITE =      2    write-flag & timer
   PREC   = normal    normal or accurate (medium, high low for compatibility)
   ISTART =      0    job   : 0-new  1-cont  2-samecut
   ICHARG =      2    charge: 1-file 2-atom 10-const
   ISPIN  =      2    spin polarized calculation?
   LNONCOLLINEAR =      F non collinear calculations
   LSORBIT =      F    spin-orbit coupling
   INIWAV =      1    electr: 0-lowe 1-rand  2-diag
[...]

[...]

 eigenvalues of (default mixing * dielectric matrix)
  average eigenvalue GAMMA=   1.0446
  1.0446

[...]

 eigenvalue-minimisations  :  7392
 total energy-change (2. order) : 0.1868174E-05  (-0.6289778E-06)
 number of electron      95.9999999 magnetization       1.0000000
 augmentation part       -6.8257299 magnetization      -0.0489904

[...]

 Broyden mixing:
  rms(total) = 0.30286E-03    rms(broyden)= 0.30285E-03
  rms(prec ) = 0.31031E-03
  weight for this iteration     100.00

 eigenvalues of (default mixing * dielectric matrix)
  average eigenvalue GAMMA=   1.0087
  2.0627  2.0627  1.5649  1.5649  0.8380  0.8380  0.8229  0.8229  0.6536  0.5107
  0.4674  0.4674  0.4369

[...]

--------------------------------------- Iteration      1(  19)  ---------------------------------------

 eigenvalue-minimisations  :  4016
 total energy-change (2. order) :-0.6984465E-08  (-0.6620712E-08)
 number of electron      95.9999999 magnetization       1.0000000
 augmentation part       -6.8257290 magnetization      -0.0489972

 Free energy of the ion-electron system (eV)
  alpha Z        PSCENC =        48.41695718
  Ewald energy   TEWEN  =     -2420.94898911
  -Hartree energ DENC   =      -422.79852596
  -exchange      EXHF   =         0.00000000
  -V(xc)+E(xc)   XCENC  =      -197.20256723
  PAW double counting   =     20819.07319150   -20408.26149111
  entropy T*S    EENTRO =        -0.00021185
  eigenvalues    EBANDS =       147.32467583
  atomic energy  EATOM  =      2473.59896808
  Solvation  Ediel_sol  =         0.00000000
  free energy    TOTEN  =        39.20200732 eV

  energy without entropy =       39.20221918  energy(sigma->0) =       39.20211325

 average (electrostatic) potential at core
  the test charge radii are     0.9892
  (the norm of the test charge is              1.0000)
       1 -83.6989       2 -81.5256       3 -83.7205       4 -83.7205       5 -81.5256
       6 -83.6989       7 -83.6989       8 -81.5256       9 -83.7205      10 -83.7205
      11 -81.5255      12 -83.6989      13 -83.6989      14 -81.5256      15 -83.7205
      16 -83.7205      17 -81.5256      18 -83.6989      19 -83.6989      20 -81.5256
      21 -83.7205      22 -83.7205      23 -81.5256      24 -83.6989

 E-fermi :   7.5449     XC(G=0):  -9.8539     alpha+bet :-14.3735

 val. band max:        7.8081119630   @ k =   0.5000   0.3333   0.0000
 cond. band min:       7.5509382674   @ k =  -0.1667   0.3333   0.0000
 fundamental gap:     -0.2571736956
 Fermi energy:         7.8211176519

 spin component 1

 k-point     1 :       0.0000    0.0000    0.0000
  band No.  band energies     occupation
      1      -7.7299      1.00000
      2      -7.6736      1.00000
      3      -5.1910      1.00000
      4      -5.1910      1.00000
      5      -5.1815      1.00000
      6      -5.1815      1.00000
      7      -4.3781      1.00000
      8      -3.2940      1.00000
      9      -3.0488      1.00000
     10      -0.6721      1.00000
     11      -0.6626      1.00000
     12      -0.6556      1.00000
     13      -0.6039      1.00000
     14      -0.6039      1.00000
     15      -0.5314      1.00000
     16      -0.5314      1.00000
     17       0.0974      1.00000
     18       0.0974      1.00000
     19       0.1878      1.00000
     20       0.2894      1.00000
     21       0.2894      1.00000
     22       2.1562      1.00000
     23       2.1659      1.00000
     24       2.1659      1.00000
     25       2.2496      1.00000
     26       2.6754      1.00000
     27       2.6754      1.00000
     28       2.9397      1.00000
     29       3.4555      1.00000
     30       3.4555      1.00000
     31       4.1548      1.00000
     32       4.1548      1.00000
     33       4.3081      1.00000
     34       4.4221      1.00000
     35       4.5133      1.00000
     36       5.0008      1.00000
     37       5.0333      1.00000
     38       5.0382      1.00000
     39       5.0382      1.00000
     40       5.1320      1.00000
     41       5.1571      1.00000
     42       5.6623      1.00000
     43       6.3082      1.00000
     44       6.4962      1.00000
     45       6.4962      1.00000
     46       6.6210      1.00000
     47       6.7991      1.00000
     48       7.4715      1.00000
     49       7.8609      0.00000
     50       8.0306      0.00000
     51       8.0306      0.00000
     52       8.4086      0.00000
     53       8.4516      0.00000
     54       8.5623      0.00000
     55       8.7670      0.00000
     56       8.8038      0.00000
     57       8.8038      0.00000
     58       8.9453      0.00000
     59       9.3453      0.00000
     60       9.8674      0.00000

[...]

 k-point    26 :       0.5000    0.5000    0.5000
  band No.  band energies     occupation
      1      -7.2617      1.00000
      2      -7.2617      1.00000
      3      -5.6437      1.00000
      4      -5.6437      1.00000
      5      -5.6437      1.00000
      6      -5.6437      1.00000
      7      -2.4667      1.00000
      8      -2.4667      1.00000
      9      -2.4344      1.00000
     10      -2.4344      1.00000
     11      -1.6685      1.00000
     12      -1.6685      1.00000
     13      -1.6685      1.00000
     14      -1.6685      1.00000
     15      -0.4923      1.00000
     16      -0.4923      1.00000
     17      -0.2866      1.00000
     18      -0.2866      1.00000
     19       1.1923      1.00000
     20       1.1923      1.00000
     21       1.1923      1.00000
     22       1.1923      1.00000
     23       1.4007      1.00000
     24       1.4007      1.00000
     25       2.1826      1.00000
     26       2.1826      1.00000
     27       3.8050      1.00000
     28       3.8050      1.00000
     29       3.8050      1.00000
     30       3.8050      1.00000
     31       4.0745      1.00000
     32       4.0745      1.00000
     33       4.7229      1.00000
     34       4.7229      1.00000
     35       4.7229      1.00000
     36       4.7229      1.00000
     37       5.4684      1.00000
     38       5.4684      1.00000
     39       5.7874      1.00000
     40       5.7874      1.00000
     41       5.8663      1.00000
     42       5.8663      1.00000
     43       6.1885      1.00000
     44       6.1885      1.00000
     45       7.6098      1.00000
     46       7.6098      1.00000
     47       7.6098      1.00000
     48       7.6098      1.00000
     49       9.0608      0.00000
     50       9.0608      0.00000
     51       9.0608      0.00000
     52       9.0608      0.00000
     53       9.4548      0.00000
     54       9.4548      0.00000
     55       9.5155      0.00000
     56       9.5155      0.00000
     57       9.7981      0.00000
     58       9.7981      0.00000
     59       9.8064      0.00000
     60       9.8115      0.00000
 Fermi energy:         7.5449171667

 spin component 2

[...]

 k-point    26 :       0.5000    0.5000    0.5000
  band No.  band energies     occupation
      1      -7.2054      1.00000
      2      -7.2054      1.00000
      3      -5.5911      1.00000
      4      -5.5911      1.00000
      5      -5.5910      1.00000
      6      -5.5910      1.00000
      7      -2.4332      1.00000
      8      -2.4332      1.00000
      9      -2.3942      1.00000
     10      -2.3942      1.00000
     11      -1.6251      1.00000
     12      -1.6251      1.00000
     13      -1.6251      1.00000
     14      -1.6251      1.00000
     15      -0.4496      1.00000
     16      -0.4496      1.00000
     17      -0.2304      1.00000
     18      -0.2304      1.00000
     19       1.2282      1.00000
     20       1.2282      1.00000
     21       1.2282      1.00000
     22       1.2282      1.00000
     23       1.4482      1.00000
     24       1.4482      1.00000
     25       2.2348      1.00000
     26       2.2348      1.00000
     27       3.8685      1.00000
     28       3.8686      1.00000
     29       3.8686      1.00000
     30       3.8686      1.00000
     31       4.1280      1.00000
     32       4.1280      1.00000
     33       4.7589      1.00000
     34       4.7589      1.00000
     35       4.7589      1.00000
     36       4.7589      1.00000
     37       5.4924      1.00000
     38       5.4924      1.00000
     39       5.8415      1.00000
     40       5.8415      1.00000
     41       5.9600      1.00000
     42       5.9600      1.00000
     43       6.2085      1.00000
     44       6.2085      1.00000
     45       7.6795      0.00000
     46       7.6795      0.00000
     47       7.6795      0.00000
     48       7.6795      0.00000
     49       9.1021      0.00000
     50       9.1021      0.00000
     51       9.1021      0.00000
     52       9.1022      0.00000
     53       9.5172      0.00000
     54       9.5172      0.00000
     55       9.5844      0.00000
     56       9.5844      0.00000
     57       9.8415      0.00000
     58       9.8415      0.00000
     59       9.8503      0.00000
     60       9.8627      0.00000

 soft charge-density along one line, spin component           1
         0         1         2         3         4         5         6         7         8         9
 total charge-density along one line

 soft charge-density along one line, spin component           2
         0         1         2         3         4         5         6         7         8         9
 total charge-density along one line

------------------------ aborting loop because EDIFF is reached ----------------------------------------

  FORCE on cell =-STRESS in cart. coord.  units (eV):
  Direction    XX          YY          ZZ          XY          YZ          ZX
  Alpha Z    48.41696    48.41696    48.41696
  Ewald   -1059.40223 -1059.40223  -302.15345  -478.99639     0.00013    -0.00027
  Hartree   170.34953   170.34953    82.10364  -104.43474    -0.00001     0.00000
  E(xc)    -337.71164  -337.71166  -348.26300     0.30803    -0.00000     0.00000
  Local    -561.05732  -561.05732  -743.51145   519.44939    -0.00007     0.00005
  n-local  1130.58684  1125.68060  1331.71754   -22.41558     0.00001    -0.00005
  augment  -172.84522  -172.84515  -149.33626    -1.71105    -0.00000    -0.00001
  Kinetic   845.95896   852.17605   848.22036    28.67685    -0.00004     0.00002
  Fock        0.00000     0.00000     0.00000     0.00000     0.00000     0.00000
  Total      64.95133    64.95133   767.19435   -59.12113     0.00000     0.00000
  in kB     259.84785   259.84785  3069.27980  -236.52324     0.00000     0.00000

 VOLUME and BASIS-vectors are now :
  energy-cutoff  :      700.00
  volume of cell :      400.48
      direct lattice vectors                 reciprocal lattice vectors
     5.431000233  0.000000000  0.000000000     0.184128145  0.000000000  0.000000000
     0.000000000  5.431000233  0.000000000     0.000000000  0.184128145  0.000000000
     0.000000000  0.000000000 13.577501297     0.000000000  0.000000000  0.073651254

  length of vectors
     5.431000233  5.431000233 13.577501297     0.184128145  0.184128145  0.073651254

 FORCES acting on ions
    electron-ion (+dipol)            ewald-force                    non-local-force                 convergence-correction
   0.183E-05 -.506E-05 -.728E+02   0.189E-04 -.625E-04 0.870E+02   0.131E-22 -.218E-20 0.547E+02   -.112E-07 0.789E-09 0.471E-04
   -.490E-05 0.942E-06 -.195E+02   0.190E-05 0.672E-05 0.190E+02   0.508E-20 -.173E-21 0.163E+01   0.102E-07 -.252E-09 0.247E-03
   -.888E-05 -.841E-06 0.119E+03   0.240E-04 -.112E-04 -.134E+03   0.369E-20 -.874E-20 -.528E+02   -.115E-07 0.222E-09 -.399E-03
   -.139E-04 -.431E-04 -.119E+03   -.433E-04 -.172E-04 0.134E+03   -.103E-21 0.556E-20 0.528E+02   -.940E-08 0.152E-07 0.398E-03
   -.206E-04 -.150E-04 0.195E+02   -.108E-04 -.853E-05 -.190E+02   -.170E-20 -.592E-20 -.163E+01   0.947E-08 0.142E-07 -.248E-03
   -.109E-03 -.122E-03 0.728E+02   0.546E-04 0.407E-04 -.870E+02   0.342E-20 -.337E-23 -.547E+02   -.984E-08 0.159E-07 -.473E-04
   -.116E-04 -.146E-04 -.728E+02   -.432E-04 -.530E-04 0.870E+02   0.150E-21 -.115E-20 0.547E+02   0.117E-07 -.146E-09 0.471E-04
   -.431E-05 0.942E-06 -.195E+02   0.102E-04 0.672E-05 0.190E+02   0.464E-20 -.718E-22 0.163E+01   -.105E-07 -.219E-09 0.247E-03
   -.903E-04 0.162E-05 0.119E+03   0.333E-04 -.854E-05 -.134E+03   0.371E-20 -.916E-21 -.528E+02   0.121E-07 0.455E-09 -.399E-03
   -.560E-04 0.195E-05 -.119E+03   -.397E-04 0.102E-04 0.134E+03   -.174E-21 -.919E-20 0.528E+02   0.102E-07 -.146E-07 0.398E-03
   -.425E-05 0.163E-05 0.195E+02   0.123E-04 0.183E-04 -.190E+02   -.127E-20 0.586E-20 -.163E+01   -.995E-08 -.146E-07 -.248E-03
   -.733E-04 -.863E-04 0.728E+02   -.180E-04 0.783E-04 -.870E+02   0.338E-20 -.423E-21 -.547E+02   0.109E-07 -.152E-07 -.473E-04
   0.183E-05 -.506E-05 -.728E+02   0.189E-04 -.625E-04 0.870E+02   0.733E-22 0.236E-20 0.547E+02   -.112E-07 0.789E-09 0.513E-04
   -.490E-05 0.942E-06 -.195E+02   0.190E-05 0.672E-05 0.190E+02   -.594E-20 -.157E-20 0.163E+01   0.102E-07 -.252E-09 0.250E-03
   -.888E-05 -.841E-06 0.119E+03   0.240E-04 -.112E-04 -.134E+03   -.908E-20 -.192E-21 -.528E+02   -.115E-07 0.222E-09 -.401E-03
   -.139E-04 -.431E-04 -.119E+03   -.433E-04 -.172E-04 0.134E+03   -.102E-20 0.355E-20 0.528E+02   -.940E-08 0.152E-07 0.402E-03
   -.206E-04 -.150E-04 0.195E+02   -.108E-04 -.853E-05 -.190E+02   -.270E-22 0.506E-20 -.163E+01   0.947E-08 0.142E-07 -.248E-03
   -.109E-03 -.122E-03 0.728E+02   0.546E-04 0.407E-04 -.870E+02   -.186E-21 0.104E-21 -.547E+02   -.984E-08 0.159E-07 -.516E-04
   -.116E-04 -.146E-04 -.728E+02   -.432E-04 -.530E-04 0.870E+02   0.999E-22 0.171E-20 0.547E+02   0.117E-07 -.146E-09 0.513E-04
   -.431E-05 0.942E-06 -.195E+02   0.102E-04 0.672E-05 0.190E+02   0.592E-20 -.138E-20 0.163E+01   -.105E-07 -.219E-09 0.250E-03
   -.903E-04 0.162E-05 0.119E+03   0.333E-04 -.854E-05 -.134E+03   0.511E-20 0.273E-22 -.528E+02   0.121E-07 0.455E-09 -.401E-03
   -.560E-04 0.195E-05 -.119E+03   -.397E-04 0.102E-04 0.134E+03   -.197E-20 0.414E-20 0.528E+02   0.102E-07 -.146E-07 0.402E-03
   -.425E-05 0.163E-05 0.195E+02   0.123E-04 0.183E-04 -.190E+02   0.675E-20 0.484E-20 -.163E+01   -.995E-08 -.146E-07 -.248E-03
   -.733E-04 -.863E-04 0.728E+02   -.180E-04 0.783E-04 -.870E+02   0.486E-22 -.405E-21 -.547E+02   0.109E-07 -.152E-07 -.516E-04
   -.790E-03 -.559E-03 0.155E-03   -.319E-14 -.645E-14 -.242E-12   0.206E-19 0.877E-21 -.284E-13   0.417E-08 0.342E-08 -.547E-06

 POSITION                                       TOTAL-FORCE (eV/Angst)
      0.09665      0.00000      0.00000         0.000000      0.000000     68.925938
      2.81215      0.00000      2.71550         0.000000     -0.000000      1.109694
      0.09665      0.00000      5.43100        -0.000000     -0.000000    -67.908508
      1.45440      4.07325      1.35775        -0.000000      0.000000     67.908508
      4.16991      4.07325      4.07325         0.000000      0.000000     -1.109694
      1.45441      4.07325      6.78875        -0.000000     -0.000000    -68.925938
      2.81215      2.71550      0.00000         0.000000      0.000000     68.925938
      0.09665      2.71550      2.71550         0.000000      0.000000      1.109694
      2.81216      2.71550      5.43100        -0.000000      0.000000    -67.908508
      4.16991      1.35775      1.35775        -0.000000      0.000000     67.908508
      1.45440      1.35775      4.07325         0.000000      0.000000     -1.109694
      4.16991      1.35775      6.78875         0.000000     -0.000000    -68.925938
      0.09665      0.00000      6.78875        -0.000000      0.000000     68.925938
      2.81215      0.00000      9.50425         0.000000      0.000000      1.109694
      0.09665      0.00000     12.21975         0.000000     -0.000000    -67.908508
      1.45440      4.07325      8.14650         0.000000     -0.000000     67.908508
      4.16991      4.07325     10.86200        -0.000000      0.000000     -1.109694
      1.45441      4.07325      0.00000         0.000000      0.000000    -68.925938
      2.81215      2.71550      6.78875        -0.000000     -0.000000     68.925938
      0.09665      2.71550      9.50425         0.000000      0.000000      1.109694
      2.81216      2.71550     12.21975         0.000000     -0.000000    -67.908508
      4.16991      1.35775      8.14650         0.000000     -0.000000     67.908508
      1.45440      1.35775     10.86200         0.000000      0.000000     -1.109694
      4.16991      1.35775      0.00000         0.000000      0.000000    -68.925938
    total drift:                               -0.000790     -0.000559      0.000154

  FREE ENERGIE OF THE ION-ELECTRON SYSTEM (eV)
  free  energy   TOTEN  =        39.20200732 eV

  energy  without entropy=       39.20221918  energy(sigma->0) =       39.20211325