 vasp.6.4.3 19Mar24 (build Oct 22 2024 11:23:12) complex

 executed on             LinuxIFC date 2025.06.04  10:45:25

 INCAR:
   SYSTEM = Si and Ge interface calculation
   ISTART = 0
   ICHARG = 2
   LWAVE = .FALSE.
   LREAL = AUTO
   ENCUT = 700
   ENAUG = 900
   ADDGRID = .TRUE.
   LMAXMIX = 6
   LASPH = .TRUE.
   LMIXTAU = .TRUE.
   NCORE = 16
   NELM = 100
   NBANDS = 231
   EDIFF = 1d-7
   AMIX = 0.6
   ISMEAR = 0
   SIGMA = 0.01
   NELECT = 384
   ISPIN = 2
   NUPDOWN = 1
   LVTOT = .FALSE.
   LVHAR = .TRUE.

 POTCAR:    PAW_PBE Ge 05Jan2001
|           W    W    AA    RRRRR   N    N  II  N    N   GGGG   !!!           |
|           W    W   A  A   R    R  NN   N  II  NN   N  G    G  !!!           |
|           W    W  A    A  R    R  N N  N  II  N N  N  G       !!!           |
|           W WW W  AAAAAA  RRRRR   N  N N  II  N  N N  G  GGG   !            |
|           WW  WW  A    A  R   R   N   NN  II  N   NN  G    G                |
|           W    W  A    A  R    R  N    N  II  N    N   GGGG   !!!           |
|     You use a magnetic or noncollinear calculation, but did not specify     |
|     the initial magnetic moment with the MAGMOM tag. Note that a            |
|     default of 0.01 will be used for all atoms. This ferromagnetic          |
|     setup may break the symmetry of the crystal, in particular it may       |
|     rule out finding an antiferromagnetic solution. Thence, we              |
|     recommend setting the initial magnetic moment manually or verifying     |
|     carefully that this magnetic setup is desired.                          |

 POTCAR:    PAW_PBE Ge 05Jan2001
   VRHFIN =Ge: s2p2

   TITEL  = PAW_PBE Ge 05Jan2001
   POMASS =   72.610; ZVAL   =    4.000    mass and valenz
   ENMAX  =  173.807; ENMIN  =  130.355 eV

 Optimization of the real space projectors (new method)

 maximal supplied QI-value         = 16.25
 optimisation between [QCUT,QGAM] = [ 13.49, 26.98] = [ 50.95,203.80] Ry
 Optimized for a Real-space Cutoff    1.25 Angstroem

   l    n(q)    QCUT    max X(q) W(low)/X(q) W(high)/X(q)  e(spline)
   0     10    13.489    65.336    0.91E-04    0.11E-03    0.34E-06
   0     10    13.489    52.220    0.89E-04    0.11E-03    0.34E-06
   1     10    13.489    36.409    0.22E-03    0.27E-03    0.14E-06
   1     10    13.489    21.334    0.21E-03    0.27E-03    0.14E-06
   2      9    13.489     4.673    0.11E-03    0.12E-03    0.19E-06
  PAW_PBE Ge 05Jan2001                  :

 POSCAR: Ge+Ge
  positions in direct lattice

 exchange-correlation table for PE
   RHO(1)=    0.500       N(1)  =     2000
   RHO(2)=  100.500       N(2)  =     4000

 ion  position               nearest neighbor table
   1  0.812  0.188  0.438-  11 2.45  43 2.45  31 2.45  68 2.48
   2  0.023  0.977  0.000-  73 1.27  55 1.68  21 2.45  44 2.45  32 2.45
   3  0.181  0.819  0.088-  22 2.45  45 2.45  33 2.45
   4  0.339  0.661  0.175-  23 2.45  46 2.45  34 2.45   8 2.45
   5  0.496  0.504  0.263-  24 2.45  47 2.45   9 2.45  35 2.45
   6  0.654  0.346  0.350-  19 2.45  10 2.45  48 2.45  36 2.45
   7  0.102  0.898  0.460-  18 2.45  25 2.45  37 2.45  51 2.46
   8  0.312  0.688  0.022-  79 1.27  38 2.45  26 2.45   4 2.45  61 2.48
   9  0.470  0.530  0.109-  14 2.45  39 2.45  27 2.45   5 2.45
  10  0.628  0.372  0.197-  15 2.45  40 2.45   6 2.45  28 2.45
  11  0.786  0.214  0.284-  16 2.45   1 2.45  41 2.45  29 2.45
  12  0.944  0.056  0.372-  17 2.45  42 2.45  30 2.45  50 2.46
  13  0.312  0.688  0.438-  23 2.45  43 2.45  31 2.45  56 2.48
  14  0.523  0.477  0.000-  85 1.27  67 1.68   9 2.45  44 2.45  32 2.45
  15  0.681  0.319  0.088-  10 2.45  45 2.45  33 2.45
  16  0.839  0.161  0.175-  11 2.45  20 2.45  46 2.45  34 2.45
  17  0.996  0.004  0.263-  12 2.45  47 2.45  21 2.45  35 2.45
  18  0.154  0.846  0.350-   7 2.45  22 2.45  48 2.45  36 2.45
  19  0.602  0.398  0.460-   6 2.45  37 2.45  25 2.45  63 2.46
  20  0.812  0.188  0.022-  91 1.27  16 2.45  38 2.45  26 2.45  49 2.48
  21  0.970  0.030  0.109-   2 2.45  39 2.45  27 2.45  17 2.45
  22  0.128  0.872  0.197-   3 2.45  18 2.45  40 2.45  28 2.45
  23  0.286  0.714  0.284-  13 2.45   4 2.45  41 2.45  29 2.45
  24  0.444  0.556  0.372-   5 2.45  42 2.45  30 2.45  62 2.46
  25  0.312  0.188  0.438-  35 2.45   7 2.45  19 2.45  80 2.48
  26  0.523  0.977  0.000-  61 1.27  91 1.68  45 2.45   8 2.45  20 2.45
  27  0.681  0.819  0.088-  46 2.45  21 2.45   9 2.45
  28  0.839  0.661  0.175-  47 2.45  32 2.45  22 2.45  10 2.45
  29  0.996  0.504  0.263-  48 2.45  33 2.45  23 2.45  11 2.45
  30  0.154  0.346  0.350-  43 2.45  34 2.45  24 2.45  12 2.45
  31  0.602  0.898  0.460-  42 2.45   1 2.45  13 2.45  87 2.46
  32  0.812  0.688  0.022-  67 1.27  28 2.45   2 2.45  14 2.45  73 2.48
  33  0.970  0.530  0.109-  38 2.45  29 2.45   3 2.45  15 2.45
  34  0.128  0.372  0.197-  39 2.45  30 2.45   4 2.45  16 2.45
  35  0.286  0.214  0.284-  40 2.45  25 2.45   5 2.45  17 2.45
  36  0.444  0.056  0.372-  41 2.45   6 2.45  18 2.45  86 2.46
  37  0.812  0.688  0.438-  19 2.45   7 2.45  47 2.45  92 2.48
  38  0.023  0.477  0.000-  49 1.27  79 1.68  33 2.45   8 2.45  20 2.45
  39  0.181  0.319  0.088-  34 2.45  21 2.45   9 2.45
  40  0.339  0.161  0.175-  35 2.45  10 2.45  22 2.45  44 2.45
  41  0.496  0.004  0.263-  36 2.45  45 2.45  11 2.45  23 2.45
  42  0.654  0.846  0.350-  31 2.45  46 2.45  24 2.45  12 2.45
  43  0.102  0.398  0.460-  30 2.45   1 2.45  13 2.45  75 2.46
  44  0.312  0.188  0.022-  55 1.27  40 2.45   2 2.45  14 2.45  85 2.48
  45  0.470  0.030  0.109-  26 2.45  41 2.45   3 2.45  15 2.45
  46  0.628  0.872  0.197-  27 2.45  42 2.45   4 2.45  16 2.45
  47  0.786  0.714  0.284-  28 2.45  17 2.45  37 2.45   5 2.45
  48  0.944  0.556  0.372-  29 2.45   6 2.45  18 2.45  74 2.46
  49  0.913  0.390  0.938-  38 1.27  59 2.45  79 2.45  91 2.45  20 2.48
  50  0.124  0.179  0.500-  69 2.45  80 2.45  92 2.45  12 2.46
  51  0.282  0.022  0.588-  70 2.45  81 2.45  93 2.45   7 2.46
  52  0.440  0.864  0.675-  71 2.45  82 2.45  56 2.45  94 2.45
  53  0.598  0.706  0.763-  72 2.45  83 2.45  95 2.45  57 2.45
  54  0.756  0.548  0.850-  67 2.45  84 2.45  58 2.45  96 2.45
  55  0.203  0.100  0.960-  44 1.27   2 1.68  66 2.45  73 2.45  85 2.45
  56  0.413  0.890  0.522-  74 2.45  86 2.45  52 2.45  13 2.48
  57  0.571  0.732  0.609-  62 2.45  75 2.45  87 2.45  53 2.45
  58  0.729  0.574  0.697-  63 2.45  76 2.45  88 2.45  54 2.45
  59  0.887  0.416  0.784-  64 2.45  77 2.45  49 2.45  89 2.45
  60  0.045  0.258  0.872-  65 2.45  78 2.45  90 2.45
[...]
  82  0.729  0.074  0.697-  87 2.45  52 2.45  78 2.45  64 2.45
  83  0.887  0.916  0.784-  88 2.45  73 2.45  53 2.45  65 2.45
  84  0.045  0.758  0.872-  89 2.45  66 2.45  54 2.45
  85  0.413  0.390  0.938-  14 1.27  95 2.45  67 2.45  55 2.45  44 2.48
  86  0.624  0.179  0.500-  81 2.45  56 2.45  68 2.45  36 2.46
  87  0.782  0.022  0.588-  82 2.45  57 2.45  69 2.45  31 2.46
  88  0.940  0.864  0.675-  92 2.45  83 2.45  58 2.45  70 2.45
  89  0.098  0.706  0.763-  84 2.45  93 2.45  71 2.45  59 2.45
  90  0.256  0.548  0.850-  79 2.45  94 2.45  60 2.45  72 2.45
  91  0.703  0.100  0.960-  20 1.27  26 1.68  78 2.45  49 2.45  61 2.45
  92  0.913  0.890  0.522-  88 2.45  50 2.45  62 2.45  37 2.48
  93  0.071  0.732  0.609-  74 2.45  89 2.45  51 2.45  63 2.45
  94  0.229  0.574  0.697-  75 2.45  90 2.45  52 2.45  64 2.45
  95  0.387  0.416  0.784-  76 2.45  85 2.45  53 2.45  65 2.45
  96  0.545  0.258  0.872-  77 2.45  54 2.45  66 2.45

  LATTYP: Found a base centered orthorhombic cell.
 ALAT       =     8.0013379485
 B/A-ratio  =     4.3588986951
 C/A-ratio  =     1.8532600386

  Lattice vectors:

 A1 = (  17.8915348050,   0.0000000000,   0.0000000000)
 A2 = ( -16.1023807530,   7.7987394330,   0.0000000000)
 A3 = (   0.0000003040,  -0.0000000700,  14.8285598750)

Analysis of symmetry for initial positions (statically):
 Subroutine PRICEL returns following result:

[...]

   4 primitive cells build up your supercell.

 Routine SETGRP: Setting up the symmetry group for a
 base centered orthorhombic supercell.

 Subroutine GETGRP returns: Found  2 space group operations
 (whereof  1 operations were pure point group operations)
 out of a pool of  8 trial point group operations.

The static configuration has the point symmetry C_1 .
 The point group associated with its full space group is S_2 .

Analysis of symmetry for dynamics (positions and initial velocities):
 Subroutine PRICEL returns following result:

[...]

The dynamic configuration has the point symmetry C_1 .
 The point group associated with its full space group is S_2 .

Analysis of structural, dynamic, and magnetic symmetry:
 Subroutine PRICEL returns following result:

  LATTYP: Found a base centered orthorhombic cell.
 ALAT       =     4.0006688542
 B/A-ratio  =     4.3588981459
 C/A-ratio  =     3.7065201883

  Lattice vectors:

 A1 = (   8.9457662753,  -0.0000000000,   0.0000000148)
 A2 = (  -8.0511887663,   3.8993694825,   0.0000000593)
 A3 = (   0.0000003040,  -0.0000000700,  14.8285598750)

   4 primitive cells build up your supercell.

 Routine SETGRP: Setting up the symmetry group for a
 base centered orthorhombic supercell.

 Subroutine GETGRP returns: Found  2 space group operations
 (whereof  1 operations were pure point group operations)
 out of a pool of  8 trial point group operations.

The overall configuration has the point symmetry C_1 .
 The point group associated with its full space group is S_2 .

 Subroutine INISYM returns: Found  2 space group operations
 (whereof  1 operations are pure point group operations),
 and found     4 'primitive' translations

                                     Primitive cell

  volume of cell :     517.2624

  direct lattice vectors                    reciprocal lattice vectors
     8.945766275 -0.000000000  0.000000015     0.111784722  0.230806520 -0.000000001
    -8.051188766  3.899369483  0.000000059    -0.000000000  0.256451717  0.000000001
     0.000000304 -0.000000070 14.828559875    -0.000000000 -0.000000001  0.067437432

  length of vectors
     8.945766275  8.945765641 14.828559875     0.256451699  0.256451717  0.067437432

  position of ions in fractional coordinates (direct lattice)
     0.624575057  0.375425123  0.437665251
     0.045626407  0.954373477  0.000000001
     0.361416311  0.638583698  0.087533045
     0.677206091  0.322794039  0.175066081
     0.992995870  0.007004308  0.262599138
     0.308785278  0.691214841  0.350132223
     0.203522495  0.796477724  0.459548648
     0.624574341  0.375425839  0.021883446
     0.940363883  0.059636258  0.109416446
     0.256153529  0.743846581  0.196949418
     0.571943308  0.428056832  0.284482476
     0.887733088  0.112267107  0.372015504
     0.826821698  0.779919553  0.937665338
     0.247873776  0.358867668  0.499999997
     0.563663436  0.043077949  0.587533055
     0.879452969  0.727288290  0.675066108
     0.195242743  0.411498661  0.762599167
     0.511032402  0.095708854  0.850132285
     0.405769738  0.200971616  0.959548710
     0.826821340  0.779920267  0.521883423
     0.142610993  0.464130548  0.609416482
     0.458400533  0.148340711  0.696949540
     0.774190187  0.832551172  0.784482474
[...]
     0.000000304 -0.000000070 14.828559875     0.000000000  0.000000000  0.067437432

  length of vectors
    17.891534805 17.891534385 14.828559875     0.128225848  0.128225851  0.067437432

 FORCES acting on ions
    electron-ion (+dipol)            ewald-force                    non-local-force                 convergence-correction
   -.192E+01 0.588E+01 0.469E+01   0.144E+01 -.590E+01 -.514E+01   0.151E+00 0.434E+00 0.951E-01   -.177E-05 0.117E-05 -.543E-05
   0.340E+02 -.743E+01 -.436E+02   -.141E+02 0.394E+02 0.105E+03   0.580E+01 0.137E+02 0.335E+02   0.384E-04 -.168E-04 -.345E-04
   0.224E+02 -.582E+01 0.236E+02   -.230E+02 0.536E+01 -.242E+02   0.135E+00 0.158E+00 -.683E+00   0.278E-04 -.654E-05 -.296E-04
   -.180E+02 0.305E+01 -.905E+01   0.176E+02 -.338E+01 0.873E+01   0.319E+00 0.370E+00 0.579E+00   -.378E-04 0.840E-05 -.664E-04
   0.487E+01 -.104E+01 0.934E+00   -.508E+01 0.945E+00 -.108E+01   0.268E+00 0.491E-01 0.189E+00   0.722E-05 -.117E-05 -.379E-04
   0.268E+01 -.228E+01 0.120E+02   -.326E+01 0.158E+01 -.120E+02   0.328E+00 0.789E+00 -.243E+00   0.554E-05 -.292E-05 -.923E-06
   0.148E+00 0.546E+01 0.563E+01   0.106E+00 -.565E+01 -.579E+01   0.193E+00 0.393E+00 -.619E-01   0.492E-05 0.502E-06 -.561E-06
   -.647E+02 -.628E+01 -.503E+02   0.102E+03 0.477E+02 0.106E+03   0.165E+02 0.197E+02 0.311E+02   -.684E-04 0.108E-04 -.609E-04
   0.310E+02 -.765E+01 -.850E+01   -.312E+02 0.843E+01 0.953E+01   -.146E+00 0.106E+00 0.906E-01   0.509E-04 -.134E-04 -.561E-04
   -.842E+01 0.220E+01 0.650E+01   0.857E+01 -.206E+01 -.620E+01   -.144E+00 0.608E-01 -.438E+00   -.118E-04 0.320E-05 -.334E-04
   -.255E+01 0.887E+00 0.654E+00   0.274E+01 -.803E+00 -.297E+00   -.110E+00 0.982E-01 -.400E+00   -.588E-05 0.142E-05 -.390E-04
   0.788E+01 0.544E+01 0.772E+01   -.752E+01 -.509E+01 -.809E+01   -.210E+00 -.254E-01 -.262E-01   0.295E-05 0.226E-05 -.720E-05
   -.192E+01 0.588E+01 0.469E+01   0.144E+01 -.590E+01 -.514E+01   0.151E+00 0.434E+00 0.951E-01   -.171E-05 0.137E-05 -.543E-05
   0.340E+02 -.743E+01 -.436E+02   -.141E+02 0.394E+02 0.105E+03   0.580E+01 0.137E+02 0.335E+02   0.384E-04 -.167E-04 -.345E-04
   0.224E+02 -.582E+01 0.236E+02   -.230E+02 0.536E+01 -.242E+02   0.135E+00 0.158E+00 -.683E+00   0.278E-04 -.662E-05 -.296E-04
   -.180E+02 0.305E+01 -.904E+01   0.176E+02 -.338E+01 0.873E+01   0.319E+00 0.370E+00 0.579E+00   -.378E-04 0.825E-05 -.664E-04
   0.487E+01 -.104E+01 0.934E+00   -.508E+01 0.945E+00 -.108E+01   0.268E+00 0.491E-01 0.189E+00   0.720E-05 -.130E-05 -.379E-04
   0.268E+01 -.228E+01 0.120E+02   -.326E+01 0.158E+01 -.120E+02   0.328E+00 0.789E+00 -.243E+00   0.556E-05 -.287E-05 -.945E-06
   0.148E+00 0.546E+01 0.563E+01   0.106E+00 -.565E+01 -.579E+01   0.193E+00 0.393E+00 -.619E-01   0.491E-05 0.490E-06 -.534E-06
   -.647E+02 -.628E+01 -.503E+02   0.102E+03 0.477E+02 0.106E+03   0.165E+02 0.197E+02 0.311E+02   -.684E-04 0.107E-04 -.609E-04
   0.310E+02 -.765E+01 -.850E+01   -.312E+02 0.843E+01 0.953E+01   -.146E+00 0.106E+00 0.906E-01   0.509E-04 -.135E-04 -.561E-04
   -.842E+01 0.220E+01 0.650E+01   0.857E+01 -.206E+01 -.620E+01   -.144E+00 0.608E-01 -.438E+00   -.118E-04 0.322E-05 -.334E-04
   -.255E+01 0.887E+00 0.654E+00   0.274E+01 -.803E+00 -.297E+00   -.110E+00 0.982E-01 -.400E+00   -.585E-05 0.157E-05 -.390E-04
   0.788E+01 0.544E+01 0.772E+01   -.752E+01 -.509E+01 -.809E+01   -.210E+00 -.254E-01 -.262E-01   0.299E-05 0.245E-05 -.716E-05
   -.192E+01 0.588E+01 0.469E+01   0.144E+01 -.590E+01 -.514E+01   0.151E+00 0.434E+00 0.951E-01   0.133E-05 0.584E-06 -.293E-05
   0.340E+02 -.743E+01 -.436E+02   -.141E+02 0.394E+02 0.105E+03   0.580E+01 0.137E+02 0.335E+02   0.378E-04 -.166E-04 -.320E-04
   0.224E+02 -.582E+01 0.236E+02   -.230E+02 0.536E+01 -.242E+02   0.135E+00 0.158E+00 -.683E+00   0.242E-04 -.569E-05 -.308E-04
   -.180E+02 0.305E+01 -.905E+01   0.176E+02 -.338E+01 0.873E+01   0.319E+00 0.370E+00 0.579E+00   -.336E-04 0.739E-05 -.655E-04
   0.487E+01 -.104E+01 0.934E+00   -.508E+01 0.945E+00 -.108E+01   0.268E+00 0.491E-01 0.189E+00   0.692E-05 -.115E-05 -.390E-04
   0.268E+01 -.228E+01 0.120E+02   -.326E+01 0.158E+01 -.120E+02   0.328E+00 0.789E+00 -.243E+00   0.245E-05 -.216E-05 -.142E-05
   0.147E+00 0.546E+01 0.563E+01   0.106E+00 -.565E+01 -.579E+01   0.193E+00 0.393E+00 -.619E-01   0.222E-05 0.107E-05 -.198E-05
   -.647E+02 -.628E+01 -.503E+02   0.102E+03 0.477E+02 0.106E+03   0.165E+02 0.197E+02 0.311E+02   -.661E-04 0.102E-04 -.626E-04
   0.310E+02 -.765E+01 -.850E+01   -.312E+02 0.843E+01 0.953E+01   -.146E+00 0.106E+00 0.906E-01   0.529E-04 -.139E-04 -.547E-04
   -.842E+01 0.220E+01 0.650E+01   0.857E+01 -.206E+01 -.620E+01   -.144E+00 0.608E-01 -.438E+00   -.165E-04 0.427E-05 -.346E-04
   -.255E+01 0.887E+00 0.654E+00   0.274E+01 -.803E+00 -.297E+00   -.110E+00 0.982E-01 -.400E+00   -.331E-05 0.896E-06 -.370E-04
   0.788E+01 0.544E+01 0.772E+01   -.752E+01 -.509E+01 -.809E+01   -.210E+00 -.254E-01 -.262E-01   0.436E-05 0.204E-05 -.816E-05
   -.192E+01 0.588E+01 0.469E+01   0.144E+01 -.590E+01 -.514E+01   0.151E+00 0.434E+00 0.951E-01   0.127E-05 0.561E-06 -.295E-05
   0.340E+02 -.743E+01 -.436E+02   -.141E+02 0.394E+02 0.105E+03   0.580E+01 0.137E+02 0.335E+02   0.378E-04 -.166E-04 -.320E-04
   0.224E+02 -.582E+01 0.236E+02   -.230E+02 0.536E+01 -.242E+02   0.135E+00 0.158E+00 -.683E+00   0.242E-04 -.580E-05 -.309E-04
   -.180E+02 0.305E+01 -.905E+01   0.176E+02 -.338E+01 0.873E+01   0.319E+00 0.370E+00 0.579E+00   -.335E-04 0.734E-05 -.655E-04
   0.487E+01 -.104E+01 0.934E+00   -.508E+01 0.945E+00 -.108E+01   0.268E+00 0.491E-01 0.189E+00   0.693E-05 -.119E-05 -.390E-04
   0.268E+01 -.228E+01 0.120E+02   -.326E+01 0.158E+01 -.120E+02   0.328E+00 0.789E+00 -.243E+00   0.243E-05 -.220E-05 -.140E-05
   0.148E+00 0.546E+01 0.563E+01   0.106E+00 -.565E+01 -.579E+01   0.193E+00 0.393E+00 -.619E-01   0.222E-05 0.115E-05 -.197E-05
   -.647E+02 -.628E+01 -.503E+02   0.102E+03 0.477E+02 0.106E+03   0.165E+02 0.197E+02 0.311E+02   -.661E-04 0.102E-04 -.627E-04
   0.310E+02 -.765E+01 -.850E+01   -.312E+02 0.843E+01 0.953E+01   -.146E+00 0.106E+00 0.906E-01   0.529E-04 -.140E-04 -.547E-04
   -.842E+01 0.220E+01 0.650E+01   0.857E+01 -.206E+01 -.620E+01   -.144E+00 0.608E-01 -.438E+00   -.165E-04 0.432E-05 -.345E-04
   -.255E+01 0.887E+00 0.654E+00   0.274E+01 -.803E+00 -.297E+00   -.110E+00 0.982E-01 -.400E+00   -.334E-05 0.924E-06 -.370E-04
   0.788E+01 0.544E+01 0.772E+01   -.752E+01 -.509E+01 -.809E+01   -.210E+00 -.254E-01 -.262E-01   0.433E-05 0.206E-05 -.817E-05
   0.647E+02 0.628E+01 0.503E+02   -.102E+03 -.477E+02 -.106E+03   -.165E+02 -.197E+02 -.311E+02   0.671E-04 -.105E-04 0.703E-04
   -.148E+00 -.546E+01 -.563E+01   -.106E+00 0.565E+01 0.579E+01   -.193E+00 -.393E+00 0.619E-01   -.304E-05 -.935E-06 -.470E-05
   -.788E+01 -.544E+01 -.772E+01   0.752E+01 0.509E+01 0.809E+01   0.210E+00 0.254E-01 0.262E-01   -.330E-05 -.224E-05 0.192E-05
   0.255E+01 -.887E+00 -.654E+00   -.274E+01 0.802E+00 0.297E+00   0.110E+00 -.982E-01 0.400E+00   0.401E-05 -.101E-05 0.356E-04
   0.842E+01 -.220E+01 -.650E+01   -.857E+01 0.206E+01 0.620E+01   0.144E+00 -.608E-01 0.438E+00   0.140E-04 -.368E-05 0.354E-04
   -.310E+02 0.765E+01 0.850E+01   0.312E+02 -.843E+01 -.953E+01   0.146E+00 -.106E+00 -.906E-01   -.510E-04 0.135E-04 0.593E-04
   -.340E+02 0.743E+01 0.436E+02   0.141E+02 -.394E+02 -.105E+03   -.580E+01 -.137E+02 -.335E+02   -.373E-04 0.165E-04 0.393E-04
   0.192E+01 -.588E+01 -.469E+01   -.144E+01 0.590E+01 0.514E+01   -.151E+00 -.434E+00 -.951E-01   -.699E-06 -.672E-06 -.402E-05
   -.268E+01 0.228E+01 -.120E+02   0.326E+01 -.158E+01 0.120E+02   -.328E+00 -.789E+00 0.243E+00   -.406E-05 0.258E-05 -.307E-05
   -.487E+01 0.104E+01 -.934E+00   0.508E+01 -.945E+00 0.108E+01   -.268E+00 -.491E-01 -.189E+00   -.623E-05 0.980E-06 0.363E-04
   0.180E+02 -.305E+01 0.905E+01   -.176E+02 0.338E+01 -.873E+01   -.319E+00 -.370E+00 -.579E+00   0.351E-04 -.777E-05 0.690E-04
   -.224E+02 0.582E+01 -.236E+02   0.230E+02 -.536E+01 0.242E+02   -.135E+00 -.158E+00 0.683E+00   -.268E-04 0.626E-05 0.360E-04
[...]
   0.180E+02 -.305E+01 0.904E+01   -.176E+02 0.338E+01 -.873E+01   -.319E+00 -.370E+00 -.579E+00   0.357E-04 -.788E-05 0.678E-04
   -.224E+02 0.582E+01 -.236E+02   0.230E+02 -.536E+01 0.242E+02   -.135E+00 -.158E+00 0.683E+00   -.252E-04 0.602E-05 0.354E-04
   0.647E+02 0.628E+01 0.503E+02   -.102E+03 -.477E+02 -.106E+03   -.165E+02 -.197E+02 -.311E+02   0.673E-04 -.105E-04 0.675E-04
   -.148E+00 -.546E+01 -.563E+01   -.106E+00 0.565E+01 0.579E+01   -.193E+00 -.393E+00 0.619E-01   -.419E-05 -.729E-06 -.689E-05
   -.788E+01 -.544E+01 -.772E+01   0.752E+01 0.509E+01 0.809E+01   0.210E+00 0.254E-01 0.262E-01   -.404E-05 -.220E-05 0.241E-05
   0.255E+01 -.887E+00 -.654E+00   -.274E+01 0.803E+00 0.297E+00   0.110E+00 -.982E-01 0.400E+00   0.553E-05 -.143E-05 0.354E-04
   0.842E+01 -.220E+01 -.650E+01   -.857E+01 0.206E+01 0.620E+01   0.144E+00 -.608E-01 0.438E+00   0.137E-04 -.359E-05 0.354E-04
   -.310E+02 0.765E+01 0.850E+01   0.312E+02 -.843E+01 -.953E+01   0.146E+00 -.106E+00 -.906E-01   -.524E-04 0.138E-04 0.612E-04
   -.340E+02 0.743E+01 0.436E+02   0.141E+02 -.394E+02 -.105E+03   -.580E+01 -.137E+02 -.335E+02   -.388E-04 0.168E-04 0.420E-04
   0.192E+01 -.588E+01 -.469E+01   -.144E+01 0.590E+01 0.514E+01   -.151E+00 -.434E+00 -.951E-01   0.140E-05 -.125E-05 -.168E-05
   -.268E+01 0.228E+01 -.120E+02   0.326E+01 -.158E+01 0.120E+02   -.328E+00 -.789E+00 0.243E+00   -.439E-05 0.267E-05 -.424E-05
   -.487E+01 0.104E+01 -.934E+00   0.508E+01 -.945E+00 0.108E+01   -.268E+00 -.491E-01 -.189E+00   -.724E-05 0.130E-05 0.373E-04
   0.180E+02 -.305E+01 0.905E+01   -.176E+02 0.338E+01 -.873E+01   -.319E+00 -.370E+00 -.579E+00   0.358E-04 -.787E-05 0.678E-04
   -.224E+02 0.582E+01 -.236E+02   0.230E+02 -.536E+01 0.242E+02   -.135E+00 -.158E+00 0.683E+00   -.252E-04 0.594E-05 0.353E-04
   -.120E-01 0.150E-02 -.463E-02   -.128E-12 0.143E-12 -.995E-13   -.758E-14 0.124E-13 0.751E-13   0.393E-06 -.668E-07 0.991E-06

 POSITION                                       TOTAL-FORCE (eV/Angst)
     11.51045      1.46392      6.48995        -0.333569      0.419049     -0.352588
    -15.32687      7.62082      0.00000        25.702832     45.622945     95.158854
     -9.95940      6.38944      1.29799        -0.456058     -0.298702     -1.238383
     -4.59194      5.15806      2.59598        -0.075489      0.039892      0.260506
      0.77552      3.92668      3.89397         0.059103     -0.046015      0.039909
      6.14299      2.69530      5.19196        -0.258883      0.083763     -0.234519
    -12.64312      7.00513      6.81444         0.446656      0.195170     -0.221384
     -5.48652      5.36329      0.32450        54.165839     61.196517     87.175410
     -0.11906      4.13191      1.62249        -0.298576      0.884489      1.116744
      5.24841      2.90053      2.92048         0.006605      0.207626     -0.134575
     10.61587      1.66915      4.21847         0.079754      0.182759     -0.042951
     15.98334      0.43777      5.51645         0.150714      0.324791     -0.391179
     -5.48651      5.36329      6.48994        -0.333569      0.419049     -0.352588
      1.67009      3.72145      0.00000        25.702832     45.622945     95.158854
      7.03755      2.49007      1.29799        -0.456058     -0.298702     -1.238383
     12.40502      1.25869      2.59598        -0.075489      0.039892      0.260506
     17.77248      0.02731      3.89397         0.059103     -0.046015      0.039909
    -10.85397      6.59467      5.19196        -0.258883      0.083763     -0.234519
      4.35384      3.10576      6.81444         0.446656      0.195170     -0.221384
     11.51044      1.46392      0.32450        54.165839     61.196517     87.175410
     16.87790      0.23254      1.62249        -0.298576      0.884489      1.116744
    -11.74855      6.79990      2.92048         0.006605      0.207626     -0.134575
     -6.38109      5.56852      4.21847         0.079754      0.182759     -0.042951
     -1.01362      4.33714      5.51646         0.150714      0.324791     -0.391179
      2.56468      1.46392      6.48995        -0.333569      0.419049     -0.352588
     -6.38110      7.62082      0.00000        25.702832     45.622945     95.158854
     -1.01364      6.38944      1.29799        -0.456058     -0.298702     -1.238383
      4.35383      5.15806      2.59598        -0.075489      0.039892      0.260506
      9.72129      3.92668      3.89397         0.059103     -0.046015      0.039909
     -2.80278      2.69530      5.19196        -0.258883      0.083763     -0.234519
     -3.69735      7.00513      6.81444         0.446656      0.195170     -0.221384
      3.45925      5.36329      0.32450        54.165839     61.196517     87.175410
      8.82672      4.13191      1.62249        -0.298576      0.884489      1.116744
     -3.69736      2.90053      2.92048         0.006605      0.207626     -0.134575
      1.67011      1.66915      4.21847         0.079754      0.182759     -0.042951
      7.03757      0.43777      5.51646         0.150714      0.324791     -0.391179
      3.45926      5.36329      6.48995        -0.333569      0.419049     -0.352588
     -7.27567      3.72145      0.00000        25.702832     45.622945     95.158854
     -1.90821      2.49007      1.29799        -0.456058     -0.298702     -1.238383
      3.45925      1.25869      2.59598        -0.075489      0.039892      0.260506
      8.82671      0.02731      3.89397         0.059103     -0.046015      0.039909
     -1.90820      6.59467      5.19196        -0.258883      0.083763     -0.234519
     -4.59193      3.10576      6.81444         0.446656      0.195170     -0.221384
      2.56467      1.46392      0.32450        54.165839     61.196517     87.175410
      7.93213      0.23254      1.62249        -0.298576      0.884489      1.116744
     -2.80278      6.79990      2.92048         0.006605      0.207626     -0.134575
      2.56468      5.56852      4.21847         0.079754      0.182759     -0.042951
      7.93214      4.33714      5.51646         0.150714      0.324791     -0.391179
     10.06304      3.04119     13.90423       -54.165839    -61.196517    -87.175410
     -0.67189      1.39936      7.41428        -0.446656     -0.195170      0.221384
      4.69557      0.16798      8.71227        -0.150714     -0.324791      0.391179
     -6.03935      6.73534     10.01026        -0.079754     -0.182759      0.042951
     -0.67188      5.50396     11.30825        -0.006605     -0.207626      0.134575
      4.69558      4.27257     12.60624         0.298576     -0.884489     -1.116744
      2.01185      0.78366     14.22872       -25.702832    -45.622945    -95.158854
     -6.93393      6.94057      7.73878         0.333569     -0.419049      0.352588
     -1.56646      5.70919      9.03677         0.258883     -0.083763      0.234519
      3.80100      4.47781     10.33476        -0.059103      0.046015     -0.039909
      9.16846      3.24642     11.63275         0.075489     -0.039892     -0.260506
     -3.35561      2.01504     12.93074         0.456058      0.298702      1.238383
[...]
     11.85219      0.57844     10.33476        -0.059103      0.046015     -0.039909
      1.11727      7.14579     11.63275         0.075489     -0.039892     -0.260506
    -11.40680      5.91441     12.93074         0.456058      0.298702      1.238383
      1.11727      3.04119     13.90422       -54.165839    -61.196517    -87.175410
      8.27388      1.39936      7.41428        -0.446656     -0.195170      0.221384
     13.64134      0.16798      8.71227        -0.150714     -0.324791      0.391179
      2.90642      6.73534     10.01026        -0.079754     -0.182759      0.042951
     -9.61765      5.50396     11.30825        -0.006605     -0.207626      0.134575
     -4.25019      4.27257     12.60624         0.298576     -0.884489     -1.116744
     10.95763      0.78366     14.22873       -25.702832    -45.622945    -95.158854
      2.01185      6.94057      7.73878         0.333569     -0.419049      0.352588
    -10.51223      5.70919      9.03677         0.258883     -0.083763      0.234519
     -5.14476      4.47780     10.33476        -0.059103      0.046015     -0.039909
      0.22270      3.24642     11.63275         0.075489     -0.039892     -0.260506
      5.59017      2.01504     12.93074         0.456058      0.298702      1.238383
    total drift:                               -0.012023      0.001497     -0.004627

  FREE ENERGIE OF THE ION-ELECTRON SYSTEM (eV)
  free  energy   TOTEN  =       -85.49238835 eV

  energy  without entropy=      -85.49109586  energy(sigma->0) =      -85.49174211