 vasp.6.4.3 19Mar24 (build Oct 22 2024 11:23:12) complex

 executed on             LinuxIFC date 2025.06.04  00:21:41

 INCAR:
   SYSTEM = Si and Ge interface calculation
   ISTART = 0
   ICHARG = 2
   LWAVE = .FALSE.
   LREAL = AUTO
   ENCUT = 700
   ENAUG = 900
   ADDGRID = .TRUE.
   LMAXMIX = 6
   LASPH = .TRUE.
   LMIXTAU = .TRUE.
   NCORE = 16
   NELM = 100
   NBANDS = 116
   EDIFF = 1d-7
   AMIX = 0.6
   ISMEAR = 0
   SIGMA = 0.01
   NELECT = 192
   ISPIN = 2
   NUPDOWN = 1
   LVTOT = .FALSE.
   LVHAR = .TRUE.

 POTCAR:    PAW_PBE Si 05Jan2001
|           W    W    AA    RRRRR   N    N  II  N    N   GGGG   !!!           |
|           W    W   A  A   R    R  NN   N  II  NN   N  G    G  !!!           |
|           W    W  A    A  R    R  N N  N  II  N N  N  G       !!!           |
|           W WW W  AAAAAA  RRRRR   N  N N  II  N  N N  G  GGG   !            |
|           WW  WW  A    A  R   R   N   NN  II  N   NN  G    G                |
|           W    W  A    A  R    R  N    N  II  N    N   GGGG   !!!           |
|     You use a magnetic or noncollinear calculation, but did not specify     |
|     the initial magnetic moment with the MAGMOM tag. Note that a            |
|     default of 0.021 will be used for all atoms. This ferromagnetic         |
|     setup may break the symmetry of the crystal, in particular it may       |
|     rule out finding an antiferromagnetic solution. Thence, we              |
|     recommend setting the initial magnetic moment manually or verifying     |
|     carefully that this magnetic setup is desired.                          |

 POTCAR:    PAW_PBE Si 05Jan2001
   VRHFIN =Si: s2p2

   TITEL  = PAW_PBE Si 05Jan2001
   POMASS =   28.085; ZVAL   =    4.000    mass and valenz
   ENMAX  =  245.345; ENMIN  =  184.009 eV

 Optimization of the real space projectors (new method)

 maximal supplied QI-value         = 19.84
 optimisation between [QCUT,QGAM] = [ 13.49, 26.99] = [ 50.98,203.92] Ry
 Optimized for a Real-space Cutoff    1.07 Angstroem

   l    n(q)    QCUT    max X(q) W(low)/X(q) W(high)/X(q)  e(spline)
   0      9    13.493   159.560    0.22E-03    0.15E-03    0.72E-07
   0      9    13.493   115.863    0.21E-03    0.15E-03    0.71E-07
   1      8    13.493    88.339    0.15E-03    0.11E-03    0.13E-06
   1      8    13.493    48.592    0.15E-03    0.10E-03    0.13E-06
  PAW_PBE Si 05Jan2001                  :

 POSCAR: Si+Si
  positions in direct lattice

 exchange-correlation table for PE
   RHO(1)=    0.500       N(1)  =     2000
   RHO(2)=  100.500       N(2)  =     4000

 ion  position               nearest neighbor table
   1  0.006  0.994  0.000-  37 2.29  34 2.35  10 2.35  47 2.35  46 2.67  15 2.97  30 2.97  43 3.01

   2  0.173  0.827  0.300-  16 2.35  35 2.35  11 2.35  34 2.35
   3  0.339  0.661  0.600-  17 2.35  36 2.35  12 2.35  35 2.35  38 2.84
   4  0.673  0.327  0.000-  42 1.16  28 2.35  13 2.35  45 2.86  18 2.97  33 2.97
   5  0.839  0.161  0.300-  10 2.35  29 2.35  28 2.35  14 2.35
   6  0.006  0.994  0.600-  37 1.40  11 2.35  15 2.35  29 2.35  30 2.35  46 2.67  43 3.01
   7  0.339  0.661  0.000-  44 1.93  38 2.19  48 2.26  31 2.35  16 2.35  41 2.59  45 2.65  39 2.85
                            12 2.97  36 2.97
   8  0.506  0.494  0.300-  13 2.35  32 2.35  31 2.35  17 2.35  48 2.76
   9  0.673  0.327  0.600-  14 2.35  33 2.35  32 2.35  18 2.35
  10  0.089  0.161  0.150-   5 2.35   1 2.35  23 2.35  22 2.35
  11  0.256  0.994  0.450-   6 2.35   2 2.35  24 2.35  23 2.35
  12  0.423  0.827  0.750-  44 1.40  40 1.70   3 2.35  24 2.35  38 2.43  41 2.80   7 2.97  19 2.97

  13  0.756  0.494  0.150-  42 2.03  45 2.19   8 2.35  25 2.35   4 2.35  26 2.35  48 2.59
  14  0.923  0.327  0.450-   9 2.35  27 2.35  26 2.35   5 2.35
  15  0.089  0.161  0.750-  46 1.94  37 2.17  27 2.35   6 2.35  43 2.39   1 2.97  22 2.97
  16  0.423  0.827  0.150-  44 2.29   2 2.35  19 2.35   7 2.35  20 2.35
  17  0.589  0.661  0.450-  20 2.35   3 2.35  21 2.35   8 2.35
  18  0.756  0.494  0.750-  42 2.03  21 2.35   9 2.35  45 2.84  25 2.97   4 2.97  41 3.00
  19  0.506  0.994  0.000-  40 2.29  28 2.35  16 2.35  44 2.35  43 2.67  33 2.97  12 2.97  46 3.01

[...]

  31  0.256  0.494  0.150-  39 2.03  48 2.19  26 2.35   7 2.35  22 2.35   8 2.35  45 2.59
  32  0.423  0.327  0.450-   8 2.35  23 2.35   9 2.35  27 2.35
  33  0.589  0.161  0.750-  43 1.94  40 2.17  24 2.35   9 2.35  46 2.39  19 2.97   4 2.97
  34  0.923  0.827  0.150-  47 2.29   1 2.35  20 2.35   2 2.35  25 2.35
  35  0.089  0.661  0.450-  21 2.35   2 2.35  26 2.35   3 2.35
  36  0.256  0.494  0.750-  39 2.03   3 2.35  27 2.35  48 2.84  22 2.97   7 2.97  38 3.00
  37  0.963  0.973  0.750-   6 1.40  30 1.70  15 2.17   1 2.29  46 2.35  43 2.35  47 2.35
  38  0.574  0.696  0.850-   7 2.19  47 2.35  44 2.35  48 2.35  12 2.43  25 2.59  30 2.80   3 2.84
                            36 3.00
  39  0.185  0.418  0.950-  22 1.16  31 2.03  36 2.03  48 2.35  45 2.35   7 2.85
  40  0.463  0.973  0.750-  24 1.40  12 1.70  33 2.17  19 2.29  43 2.35  46 2.35  44 2.35
  41  0.074  0.696  0.850-  25 2.19  44 2.35  47 2.35  45 2.35  30 2.43   7 2.59  12 2.80  21 2.84
                            18 3.00
  42  0.685  0.418  0.950-   4 1.16  13 2.03  18 2.03  45 2.35  48 2.35  25 2.85
  43  0.768  0.085  0.800-  33 1.94  40 2.35  37 2.35  15 2.39  24 2.67  19 2.67   1 3.01   6 3.01

  44  0.380  0.807  0.900-  12 1.40   7 1.93  16 2.29  41 2.35  38 2.35  40 2.35  19 2.35
  45  0.991  0.529  1.000-  13 2.19  25 2.26  42 2.35  39 2.35  41 2.35  31 2.59   7 2.65  26 2.76
                            18 2.84   4 2.86
  46  0.268  0.085  0.800-  15 1.94  37 2.35  40 2.35  33 2.39   6 2.67   1 2.67  19 3.01  24 3.01

  47  0.880  0.807  0.900-  30 1.40  25 1.93  34 2.29  38 2.35  41 2.35  37 2.35   1 2.35
  48  0.491  0.529  1.000-  31 2.19   7 2.26  39 2.35  42 2.35  38 2.35  13 2.59  25 2.65   8 2.76
                            36 2.84  22 2.86

  LATTYP: Found a base centered orthorhombic cell.
 ALAT       =     7.6805944440
 B/A-ratio  =     2.9999998761
 C/A-ratio  =     1.1785114073

  Lattice vectors:

 A1 = (   3.8402969840, -11.5208911900,   0.0000000000)
 A2 = (   3.8402974600,  11.5208911900,   0.0000000000)
 A3 = (   0.0000000000,   0.0000000000,   9.0516681670)

Analysis of symmetry for initial positions (statically):
 Subroutine PRICEL returns following result:

  LATTYP: Found a simple orthorhombic cell.
 ALAT       =     3.8402975369
 B/A-ratio  =     2.3570226213
 C/A-ratio  =     2.9999996301

[...]

   2 primitive cells build up your supercell.

 Routine SETGRP: Setting up the symmetry group for a
 base centered orthorhombic supercell.

 Subroutine GETGRP returns: Found  1 space group operations
 (whereof  1 operations were pure point group operations)
 out of a pool of  8 trial point group operations.

The static configuration has the point symmetry C_1 .

Analysis of symmetry for dynamics (positions and initial velocities):
 Subroutine PRICEL returns following result:

[...]

The dynamic configuration has the point symmetry C_1 .

Analysis of structural, dynamic, and magnetic symmetry:
 Subroutine PRICEL returns following result:

  LATTYP: Found a simple orthorhombic cell.
 ALAT       =     3.8402975369
 B/A-ratio  =     2.3570226213
 C/A-ratio  =     2.9999996301

  Lattice vectors:

 A1 = (  -3.8402975369,   0.0000000000,   0.0000000000)
 A2 = (   0.0000000000,   0.0000000000,   9.0516681670)
 A3 = (   0.0000005529,  11.5208911900,   0.0000000000)

   2 primitive cells build up your supercell.

 Routine SETGRP: Setting up the symmetry group for a
 base centered orthorhombic supercell.

 Subroutine GETGRP returns: Found  1 space group operations
 (whereof  1 operations were pure point group operations)
 out of a pool of  8 trial point group operations.

The overall configuration has the point symmetry C_1 .

 Subroutine INISYM returns: Found  1 space group operations
 (whereof  1 operations are pure point group operations),
 and found     2 'primitive' translations

                                     Primitive cell

  volume of cell :     400.4788

  direct lattice vectors                    reciprocal lattice vectors
    -3.840297537  0.000000000  0.000000000    -0.260396490  0.000000012  0.000000000
     0.000000000  0.000000000  9.051668167     0.000000000  0.000000000  0.110476874
     0.000000553 11.520891190  0.000000000     0.000000000  0.086798841  0.000000000

  length of vectors
     3.840297537  9.051668167 11.520891190     0.260396490  0.110476874  0.086798841

  position of ions in fractional coordinates (direct lattice)
     0.982203150  0.000000000  0.994067729
     0.482203064  0.299999923  0.827401042
     0.982202906  0.599999905  0.660734296
     0.982203124  0.000000000  0.327401042
     0.482203071  0.299999923  0.160734341
     0.982202770  0.599999905  0.994067669
     0.982203383  0.000000000  0.660734415
     0.482203038  0.299999923  0.494067699
     0.982203094  0.599999905  0.327400982
     0.982203067  0.149999976  0.160734370
     0.482203011  0.449999928  0.994067669
     0.982202800  0.749999881  0.827400923
     0.982203229  0.149999976  0.494067729
     0.482203157  0.449999928  0.327401042
     0.982202933  0.749999881  0.160734326
     0.982203396  0.149999976  0.827401161
     0.482203022  0.449999928  0.660734415
     0.982202953  0.749999881  0.494067729
     0.047768750  0.749999881  0.973461866
     0.547768903  0.849999845  0.695684075
     0.047769041  0.949999988  0.417906225
     0.547768867  0.799999893  0.084572941
     0.047769094  0.900000036  0.806795120
     0.547769232  0.999999940  0.529017210

  ion indices of the primitive-cell ions
   primitive index   ion index
                 1           1
                 2           2
                 3          21
                 4          22
                 5           5
                 6           6
                 7          25
                 8          26
                 9          27
                10          10
                11          29
                12          30
                13          31
                14          14
                15          15
                16          34
                17          35
                18          18
                19          37
                20          41
                21          39
                22          43
                23          47
                24          45

 KPOINTS: Automatic KPOINTS generated

Automatic generation of k-mesh.
 Grid dimensions read from file:
 generate k-points for:    4    3    3

 Generating k-lattice:

  Cartesian coordinates                     Fractional coordinates (reciprocal lattice)
     0.032549564  0.010849854  0.000000000     0.250000000  0.000000000  0.000000000
     0.000000000  0.028932947  0.000000000     0.000000000  0.333333333  0.000000000
     0.000000000  0.000000000  0.036825625     0.000000000  0.000000000  0.333333333

  Length of vectors
     0.034310253  0.028932947  0.036825625

  Shift w.r.t. Gamma in fractional coordinates (k-lattice)
     0.000000000  0.000000000  0.000000000

 WARNING: IBZKPT: internal override: KBLOWUP is changed to .FALSE.
[...]
     42       1.6526      1.00000
     43       1.7336      1.00000
     44       1.8250      1.00000
     45       1.8745      1.00000
     46       2.1358      1.00000
     47       2.1681      1.00000
     48       2.3125      1.00000
     49       2.4751      1.00000
     50       2.4967      1.00000
     51       2.7243      1.00000
     52       2.7634      1.00000
     53       3.0221      1.00000
     54       3.3271      1.00000
     55       3.5155      1.00000
     56       3.5458      1.00000
     57       3.6881      1.00000
     58       3.7273      1.00000
     59       3.8616      1.00000
     60       3.9642      1.00000
[...]
    102       8.6563      0.00000
    103       8.6769      0.00000
    104       8.7535      0.00000
    105       8.8927      0.00000
    106       8.9780      0.00000
    107       9.0300      0.00000
    108       9.3673      0.00000
    109       9.4416      0.00000
    110       9.5562      0.00000
    111       9.6464      0.00000
    112       9.7812      0.00000
    113       9.7930      0.00000
    114       9.8174      0.00000
    115       9.9555      0.00000
    116      10.0611      0.00000
 Fermi energy:         7.9966116659

 spin component 2

[...]

 k-point    19 :      -0.2500   -0.3333    0.3333
  band No.  band energies     occupation
      1      -7.8917      1.00000
      2      -7.3573      1.00000
      3      -7.1752      1.00000
      4      -6.3375      1.00000
      5      -6.1156      1.00000
      6      -5.4994      1.00000
      7      -4.3016      1.00000
      8      -3.8945      1.00000
      9      -3.5814      1.00000
     10      -3.5492      1.00000
     11      -3.3651      1.00000
     12      -3.1275      1.00000
     13      -2.7946      1.00000
     14      -2.6908      1.00000
     15      -2.5082      1.00000
     16      -2.4438      1.00000
     17      -2.2088      1.00000
     18      -2.0669      1.00000
     19      -1.9689      1.00000
     20      -1.7567      1.00000
     21      -1.6512      1.00000
     22      -1.4447      1.00000
     23      -1.3445      1.00000
     24      -1.2060      1.00000
     25      -1.0023      1.00000
     26      -0.8434      1.00000
     27      -0.8289      1.00000
     28      -0.6731      1.00000
     29      -0.3563      1.00000
     30      -0.3016      1.00000
     31      -0.0891      1.00000
     32       0.0958      1.00000
     33       0.6131      1.00000
     34       0.6899      1.00000
     35       0.8271      1.00000
     36       0.9980      1.00000
     37       1.0221      1.00000
     38       1.3306      1.00000
     39       1.5011      1.00000
     40       1.5264      1.00000
     41       1.6504      1.00000
     42       1.6796      1.00000
     43       1.7558      1.00000
     44       1.8503      1.00000
     45       1.9006      1.00000
     46       2.1661      1.00000
     47       2.1923      1.00000
     48       2.3383      1.00000
     49       2.4941      1.00000
     50       2.5202      1.00000
     51       2.7438      1.00000
     52       2.7884      1.00000
     53       3.0448      1.00000
     54       3.3494      1.00000
     55       3.5352      1.00000
     56       3.5685      1.00000
     57       3.7083      1.00000
     58       3.7467      1.00000
     59       3.8816      1.00000
     60       3.9869      1.00000
[...]
    102       8.6848      0.00000
    103       8.7099      0.00000
    104       8.7839      0.00000
    105       8.9210      0.00000
    106       9.0081      0.00000
    107       9.0613      0.00000
    108       9.3958      0.00000
    109       9.4656      0.00000
    110       9.5813      0.00000
    111       9.6769      0.00000
    112       9.8049      0.00000
    113       9.8197      0.00000
    114       9.8447      0.00000
    115       9.9760      0.00000
    116      10.0921      0.00000

 soft charge-density along one line, spin component           1
         0         1         2         3         4         5         6         7         8         9
 total charge-density along one line

 soft charge-density along one line, spin component           2
         0         1         2         3         4         5         6         7         8         9
 total charge-density along one line

------------------------ aborting loop because EDIFF is reached ----------------------------------------

  FORCE on cell =-STRESS in cart. coord.  units (eV):
  Direction    XX          YY          ZZ          XY          YZ          ZX
  Alpha Z    96.83391    96.83391    96.83391
  Ewald   -1864.99388 -1309.48759 -1855.53481   -86.54660  -452.49187   -36.38490
  Hartree   493.83232   401.52362   -12.39378     0.42493  -136.75487     3.35593
  E(xc)    -647.68845  -650.91364  -653.60332     1.03956     2.79225     1.31143
  Local   -1303.95165 -1491.76821  -556.41906    33.89184   461.38723    23.46739
  n-local  2048.98743  2110.36096  2177.85967   -15.64950   -45.38669   -25.50243
  augment  -314.46331  -300.03018  -303.52825    -2.52506    -5.64590     0.53479
  Kinetic  1594.46034  1540.98065  1543.43222     4.38090    10.17187     0.75094
  Fock        0.00000     0.00000     0.00000     0.00000     0.00000     0.00000
  Total     103.01671   397.49953   436.64658   -64.98393  -165.92799   -32.46684
  in kB     206.06714   795.12913   873.43605  -129.98913  -331.91027   -64.94430

 VOLUME and BASIS-vectors are now :
  energy-cutoff  :      700.00
  volume of cell :      800.96
      direct lattice vectors                 reciprocal lattice vectors
     7.680594444  0.000000000  0.000000000     0.130198256  0.043399418  0.000000000
    -3.840296984 11.520891190  0.000000000     0.000000000  0.086798841  0.000000000
     0.000000000  0.000000000  9.051668167     0.000000000  0.000000000  0.110476874

  length of vectors
     7.680594444 12.144085587  9.051668167     0.137241012  0.086798841  0.110476874

 FORCES acting on ions
    electron-ion (+dipol)            ewald-force                    non-local-force                 convergence-correction
   -.203E+01 -.462E+02 -.740E+02   0.153E+01 0.463E+02 0.738E+02   0.961E+00 0.179E+01 0.155E+01   0.479E-05 0.465E-04 0.230E-03
   -.422E+00 -.107E+02 -.135E+02   -.141E+00 0.107E+02 0.139E+02   0.520E+00 0.616E-01 -.252E+00   0.150E-04 -.147E-03 -.394E-04
   0.155E+01 0.273E+02 0.579E+02   -.163E+01 -.265E+02 -.585E+02   0.106E+00 -.862E+00 0.993E-01   0.625E-05 -.176E-03 0.107E-03
   -.193E+02 0.127E+03 -.358E+02   0.304E+02 -.179E+03 0.577E+02   0.140E+02 -.546E+02 0.248E+02   -.162E-04 0.379E-03 0.483E-05
   -.681E-01 -.437E+01 -.216E+01   -.226E-01 0.471E+01 0.218E+01   0.661E-01 -.307E+00 -.601E-01   -.697E-05 0.211E-03 -.663E-04
   -.137E+02 -.283E+02 0.145E+03   0.146E+02 0.303E+02 -.156E+03   0.101E+02 0.737E+01 -.474E+02   0.360E-04 0.197E-04 -.317E-03
   0.125E+02 0.162E+02 -.612E+02   -.113E+02 -.127E+02 0.598E+02   -.294E+01 -.958E+01 0.687E+01   0.102E-04 -.307E-03 -.221E-04
   -.467E+00 0.155E+02 -.463E+02   0.690E+00 -.157E+02 0.468E+02   -.242E+00 0.956E-02 -.677E-02   -.125E-04 -.586E-04 -.213E-03
   0.141E+00 -.237E+01 0.265E+02   -.165E-01 0.234E+01 -.260E+02   -.581E-01 0.192E-01 -.663E+00   -.153E-06 0.171E-03 0.569E-04
   0.543E-01 0.477E+00 -.256E+02   -.439E-01 -.838E-01 0.255E+02   0.486E-01 -.474E+00 0.108E+00   0.260E-05 0.280E-03 0.587E-04
   0.124E+01 -.128E+02 0.438E+02   -.689E+00 0.129E+02 -.436E+02   -.725E+00 -.695E-01 -.857E+00   0.503E-05 0.274E-04 -.222E-03
   -.196E+02 0.343E+02 0.115E+03   0.200E+02 -.308E+02 -.123E+03   0.132E+02 -.136E+02 -.509E+02   0.251E-04 -.536E-03 0.959E-04
   0.614E+01 0.145E+02 -.102E+03   -.530E+01 -.134E+02 0.101E+03   -.198E+01 0.456E-01 0.688E+01   -.150E-05 -.627E-04 -.243E-03
   -.195E+00 0.253E+01 0.371E+01   0.283E-01 -.283E+01 -.344E+01   0.119E+00 0.105E+00 -.270E+00   -.277E-05 0.113E-03 -.752E-04
   0.170E+02 -.880E+02 0.110E+02   -.140E+02 0.862E+02 -.105E+02   -.876E+01 0.907E+01 -.213E+01   0.596E-06 0.536E-03 0.773E-04
   -.165E+01 -.245E+02 -.701E+02   0.192E+01 0.249E+02 0.706E+02   0.516E-02 -.151E+00 0.910E+00   -.323E-05 -.274E-03 -.200E-04
   0.304E+00 0.113E+02 0.132E+02   0.160E+00 -.111E+02 -.127E+02   -.558E+00 -.283E+00 -.787E+00   -.140E-04 -.131E-03 -.158E-04
   -.178E+01 0.227E+02 0.773E+02   0.738E+00 -.256E+02 -.752E+02   0.185E+01 0.543E+01 -.672E+01   -.496E-06 -.164E-04 0.198E-03
   -.203E+01 -.462E+02 -.740E+02   0.153E+01 0.463E+02 0.738E+02   0.961E+00 0.179E+01 0.155E+01   -.702E-06 0.329E-04 0.223E-03
   -.422E+00 -.107E+02 -.135E+02   -.141E+00 0.107E+02 0.139E+02   0.520E+00 0.616E-01 -.252E+00   -.123E-04 -.150E-03 -.397E-04
   0.155E+01 0.273E+02 0.579E+02   -.163E+01 -.265E+02 -.585E+02   0.106E+00 -.862E+00 0.993E-01   0.502E-05 -.187E-03 0.965E-04
   -.193E+02 0.127E+03 -.358E+02   0.304E+02 -.179E+03 0.577E+02   0.140E+02 -.546E+02 0.248E+02   -.901E-05 0.378E-03 0.996E-05
   -.682E-01 -.437E+01 -.216E+01   -.226E-01 0.471E+01 0.218E+01   0.661E-01 -.307E+00 -.601E-01   0.394E-05 0.211E-03 -.648E-04
   -.137E+02 -.283E+02 0.145E+03   0.146E+02 0.303E+02 -.156E+03   0.101E+02 0.737E+01 -.474E+02   0.277E-04 0.130E-04 -.305E-03
   0.125E+02 0.162E+02 -.612E+02   -.113E+02 -.127E+02 0.598E+02   -.294E+01 -.958E+01 0.687E+01   0.843E-05 -.321E-03 -.163E-04
   -.467E+00 0.155E+02 -.463E+02   0.690E+00 -.157E+02 0.468E+02   -.242E+00 0.956E-02 -.677E-02   0.326E-06 -.599E-04 -.211E-03
   0.141E+00 -.237E+01 0.265E+02   -.165E-01 0.234E+01 -.260E+02   -.581E-01 0.192E-01 -.663E+00   0.128E-05 0.178E-03 0.546E-04
   0.543E-01 0.477E+00 -.256E+02   -.439E-01 -.838E-01 0.255E+02   0.486E-01 -.474E+00 0.108E+00   0.668E-06 0.274E-03 0.510E-04
   0.124E+01 -.128E+02 0.438E+02   -.689E+00 0.129E+02 -.436E+02   -.725E+00 -.695E-01 -.857E+00   -.180E-04 0.259E-04 -.225E-03
   -.196E+02 0.343E+02 0.115E+03   0.200E+02 -.308E+02 -.123E+03   0.132E+02 -.136E+02 -.509E+02   0.296E-04 -.535E-03 0.875E-04
   0.614E+01 0.145E+02 -.102E+03   -.530E+01 -.134E+02 0.101E+03   -.198E+01 0.456E-01 0.688E+01   0.649E-05 -.416E-04 -.238E-03
   -.195E+00 0.253E+01 0.371E+01   0.283E-01 -.283E+01 -.344E+01   0.119E+00 0.105E+00 -.270E+00   -.194E-05 0.113E-03 -.762E-04
   0.170E+02 -.880E+02 0.110E+02   -.140E+02 0.862E+02 -.105E+02   -.876E+01 0.907E+01 -.213E+01   -.295E-05 0.521E-03 0.802E-04
   -.165E+01 -.245E+02 -.701E+02   0.192E+01 0.249E+02 0.706E+02   0.516E-02 -.151E+00 0.910E+00   -.335E-05 -.273E-03 -.528E-05
   0.304E+00 0.113E+02 0.132E+02   0.160E+00 -.111E+02 -.127E+02   -.558E+00 -.283E+00 -.787E+00   0.795E-05 -.130E-03 -.135E-04
   -.178E+01 0.227E+02 0.773E+02   0.738E+00 -.256E+02 -.752E+02   0.185E+01 0.543E+01 -.672E+01   0.202E-05 0.392E-05 0.197E-03
   0.284E+02 -.368E+02 -.333E+02   -.312E+02 0.328E+02 0.432E+02   -.117E+02 0.965E+01 0.481E+02   -.206E-04 -.103E-03 0.700E-04
   -.198E+02 0.178E+02 0.392E+02   0.193E+02 -.179E+02 -.387E+02   0.241E+01 0.385E+00 -.205E+01   -.423E-04 -.328E-03 0.131E-03
   0.289E+02 0.115E+02 0.467E+02   -.428E+02 0.412E+02 -.720E+02   -.129E+02 0.474E+02 -.206E+02   0.322E-04 0.147E-03 0.128E-03
   0.284E+02 -.368E+02 -.333E+02   -.312E+02 0.328E+02 0.432E+02   -.117E+02 0.965E+01 0.481E+02   -.200E-04 -.109E-03 0.758E-04
   -.198E+02 0.178E+02 0.392E+02   0.193E+02 -.179E+02 -.387E+02   0.241E+01 0.385E+00 -.205E+01   0.987E-05 -.327E-03 0.130E-03
   0.289E+02 0.115E+02 0.467E+02   -.428E+02 0.412E+02 -.720E+02   -.129E+02 0.474E+02 -.206E+02   0.286E-04 0.123E-03 0.133E-03
   -.275E+02 -.498E+02 -.306E+02   0.250E+02 0.512E+02 0.275E+02   0.880E+01 -.407E+01 0.628E+01   0.106E-04 0.381E-03 0.137E-03
   0.259E+02 -.228E+02 -.771E+02   -.283E+02 0.162E+02 0.874E+02   -.978E+01 0.397E+01 0.421E+02   0.616E-05 -.485E-03 0.129E-03
   -.214E+02 0.225E+02 -.111E+02   0.211E+02 -.236E+02 0.109E+02   0.344E+01 0.192E+01 -.135E+01   -.166E-04 -.826E-04 0.159E-04
   -.275E+02 -.498E+02 -.306E+02   0.250E+02 0.512E+02 0.275E+02   0.880E+01 -.407E+01 0.628E+01   0.453E-04 0.380E-03 0.136E-03
   0.259E+02 -.228E+02 -.771E+02   -.283E+02 0.162E+02 0.874E+02   -.978E+01 0.397E+01 0.421E+02   -.464E-07 -.485E-03 0.128E-03
   -.214E+02 0.225E+02 -.111E+02   0.211E+02 -.236E+02 0.109E+02   0.344E+01 0.192E+01 -.135E+01   -.318E-04 -.790E-04 0.176E-04
   -.118E+02 -.628E+01 -.722E+01   0.142E-13 -.497E-13 0.568E-13   0.119E+02 0.624E+01 0.723E+01   0.942E-04 -.839E-03 0.434E-03

 POSITION                                       TOTAL-FORCE (eV/Angst)
     -3.77195     11.45255      0.00000         0.458007      1.931771      1.312093
     -1.85180      9.53240      2.71550        -0.044514      0.056919      0.103749
      0.06835      7.61225      5.43100         0.027968     -0.067249     -0.441160
      3.90864      3.77195      0.00000        25.052422   -107.070726     46.706742
      5.82879      1.85180      2.71550        -0.026094      0.042390     -0.036135
     -3.77195     11.45255      5.43100        10.934161      9.357570    -58.435392
      0.06835      7.61225      0.00000        -1.698497     -6.039902      5.417608
      1.98849      5.69210      2.71550        -0.020996     -0.253761      0.450778
      3.90864      3.77195      5.43100         0.064567     -0.010735     -0.195813
      0.06835      1.85180      1.35775         0.057647     -0.079509      0.027664
     -1.85180     11.45255      4.07325        -0.174993      0.061798     -0.653432
      0.06835      9.53240      6.78875        13.582454    -10.102416    -58.948589
      3.90864      5.69210      1.35775        -1.149057      1.099147      5.481417
      5.82879      3.77195      4.07325        -0.048981     -0.195677      0.000772
      0.06835      1.85180      6.78875        -5.785710      7.255814     -1.687927
      0.06835      9.53240      1.35775         0.279698      0.225358      1.384633
      1.98849      7.61225      4.07325        -0.095659     -0.124920     -0.287603
      3.90864      5.69210      6.78875         0.803343      2.476950     -4.621415
      0.06835     11.45255      0.00000         0.458007      1.931771      1.312093
      1.98849      9.53240      2.71550        -0.044514      0.056919      0.103749
      3.90864      7.61225      5.43100         0.027968     -0.067249     -0.441160
      0.06835      3.77195      0.00000        25.052422   -107.070726     46.706742
      1.98849      1.85180      2.71550        -0.026094      0.042390     -0.036135
      0.06835     11.45255      5.43100        10.934161      9.357570    -58.435392
      3.90864      7.61225      0.00000        -1.698497     -6.039902      5.417608
     -1.85180      5.69210      2.71550        -0.020996     -0.253761      0.450778
      0.06835      3.77195      5.43100         0.064567     -0.010735     -0.195813
      3.90864      1.85180      1.35775         0.057647     -0.079509      0.027664
      1.98850     11.45255      4.07325        -0.174993      0.061798     -0.653432
      3.90864      9.53240      6.78875        13.582454    -10.102416    -58.948589
      0.06835      5.69210      1.35775        -1.149057      1.099147      5.481417
      1.98849      3.77195      4.07325        -0.048981     -0.195677      0.000772
      3.90864      1.85180      6.78875        -5.785710      7.255814     -1.687927
      3.90864      9.53240      1.35775         0.279698      0.225358      1.384633
     -1.85180      7.61225      4.07325        -0.095659     -0.124920     -0.287603
      0.06835      5.69210      6.78875         0.803343      2.476950     -4.621415
      3.65685     11.21515      6.78875       -14.537491      5.654740     57.991212
      1.73670      8.01490      7.69392         1.885812      0.241565     -1.619111
     -0.18345      4.81465      8.59908       -26.787544    100.061281    -45.919018
     -0.18345     11.21515      6.78875       -14.537491      5.654740     57.991212
     -2.10360      8.01490      7.69392         1.885812      0.241565     -1.619111
      3.65685      4.81465      8.59908       -26.787544    100.061281    -45.919018
      5.57700      0.97436      7.24133         6.334882     -2.619504      3.164755
     -0.18345      9.29500      8.14650       -12.176854     -2.673640     52.354163
      5.57700      6.09475      9.05167         3.065430      0.772733     -1.549994
      1.73670      0.97436      7.24133         6.334882     -2.619504      3.164755
      3.65685      9.29500      8.14650       -12.176854     -2.673640     52.354163
      1.73670      6.09475      9.05167         3.065430      0.772733     -1.549994
    total drift:                                0.068295     -0.038765      0.001091

  FREE ENERGIE OF THE ION-ELECTRON SYSTEM (eV)
  free  energy   TOTEN  =       -78.33533239 eV

  energy  without entropy=      -78.33452694  energy(sigma->0) =      -78.33492966