 vasp.6.4.3 19Mar24 (build Oct 22 2024 11:23:12) complex

 executed on             LinuxIFC date 2025.06.09  18:59:53

 INCAR:
   SYSTEM = Si and Ge interface calculation
   ISTART = 0
   ICHARG = 2
   LWAVE = .FALSE.
   LREAL = AUTO
   ENCUT = 700
   ENAUG = 900
   ADDGRID = .TRUE.
   LMAXMIX = 6
   LASPH = .TRUE.
   LMIXTAU = .TRUE.
   NCORE = 16
   NELM = 100
   NBANDS = 634
   EDIFF = 1d-7
   AMIX = 0.6
   ISMEAR = 0
   SIGMA = 0.01
   NELECT = 1056
   ISPIN = 2
   NUPDOWN = 1
   LVTOT = .FALSE.
   LVHAR = .TRUE.

 POTCAR:    PAW_PBE Si 05Jan2001
 POTCAR:    PAW_PBE Sn 08Apr2002
|           W    W    AA    RRRRR   N    N  II  N    N   GGGG   !!!           |
|           W    W   A  A   R    R  NN   N  II  NN   N  G    G  !!!           |
|           W    W  A    A  R    R  N N  N  II  N N  N  G       !!!           |
|           W WW W  AAAAAA  RRRRR   N  N N  II  N  N N  G  GGG   !            |
|           WW  WW  A    A  R   R   N   NN  II  N   NN  G    G                |
|           W    W  A    A  R    R  N    N  II  N    N   GGGG   !!!           |
|     You use a magnetic or noncollinear calculation, but did not specify     |
|     the initial magnetic moment with the MAGMOM tag. Note that a            |
|     default of 3.788e-3 will be used for all atoms. This ferromagnetic      |
|     setup may break the symmetry of the crystal, in particular it may       |
|     rule out finding an antiferromagnetic solution. Thence, we              |
|     recommend setting the initial magnetic moment manually or verifying     |
|     carefully that this magnetic setup is desired.                          |

 POTCAR:    PAW_PBE Si 05Jan2001
   VRHFIN =Si: s2p2

   TITEL  = PAW_PBE Si 05Jan2001
   POMASS =   28.085; ZVAL   =    4.000    mass and valenz
   ENMAX  =  245.345; ENMIN  =  184.009 eV

 POTCAR:    PAW_PBE Sn 08Apr2002
   VRHFIN =Sn: s2p2

   TITEL  = PAW_PBE Sn 08Apr2002
   POMASS =  118.710; ZVAL   =    4.000    mass and valenz
   ENMAX  =  103.236; ENMIN  =   77.427 eV

 Optimization of the real space projectors (new method)

 maximal supplied QI-value         = 19.84
 optimisation between [QCUT,QGAM] = [ 13.49, 26.99] = [ 50.98,203.92] Ry
 Optimized for a Real-space Cutoff    1.07 Angstroem

   l    n(q)    QCUT    max X(q) W(low)/X(q) W(high)/X(q)  e(spline)
   0      9    13.493   159.560    0.22E-03    0.15E-03    0.72E-07
   0      9    13.493   115.863    0.21E-03    0.15E-03    0.71E-07
   1      8    13.493    88.339    0.15E-03    0.11E-03    0.13E-06
   1      8    13.493    48.592    0.15E-03    0.10E-03    0.13E-06
 Optimization of the real space projectors (new method)

 maximal supplied QI-value         = 12.47
 optimisation between [QCUT,QGAM] = [ 12.47, 27.06] = [ 43.56,205.12] Ry
 Optimized for a Real-space Cutoff    1.58 Angstroem

   l    n(q)    QCUT    max X(q) W(low)/X(q) W(high)/X(q)  e(spline)
   0     13    12.472    14.688    0.45E-04    0.45E-04    0.25E-05
   0     13    12.472     7.308    0.94E-04    0.11E-03    0.61E-05
   1     12    12.472    45.102    0.34E-03    0.14E-03    0.21E-05
   1     12    12.472    30.691    0.31E-03    0.13E-03    0.20E-05
   2     12    12.472     7.156    0.86E-04    0.11E-03    0.17E-05
 WARNING: PSMAXN for non-local potential too small
          PSMAXN should be >   13.5545592237991       NTYP=           2
  PAW_PBE Si 05Jan2001                  :
  PAW_PBE Sn 08Apr2002                  :

 POSCAR: Si+Sn
  positions in direct lattice

 exchange-correlation table for PE
   RHO(1)=    0.500       N(1)  =     2000
   RHO(2)=  100.500       N(2)  =     4000

 ion  position               nearest neighbor table
   1  0.477  0.901  0.091- 204 1.89  20 2.35 106 2.35  22 2.35 107 2.35 231 3.28
   2  0.881  0.920  0.182- 109 2.35 146 2.35  50 2.35 145 2.35
   3  0.765  0.843  0.364- 229 1.85  77 2.35  26 2.35   6 2.35 146 2.35 202 3.33
   4  0.073  0.382  0.000-  43 2.35 154 2.35 171 2.42 243 3.23 242 3.32 225 3.32 252 3.44
   5  0.995  0.000  0.456- 132 1.36  59 1.89  48 1.95 184 2.82 262 2.82
   6  0.669  0.863  0.456-   3 2.35 105 2.35 202 2.44  24 2.69 229 3.17 247 3.26 230 3.30
   7  0.054  0.286  0.273- 211 2.35 163 2.35  87 2.35  86 2.35 160 3.09
   8  0.111  0.074  0.182-  37 2.35 249 2.35 119 2.35  13 2.35
   9  0.284  0.940  0.456- 172 1.46  21 2.35  42 2.35 193 3.01 244 3.34
  10  0.688  0.959  0.182- 148 2.35  91 2.35  97 2.35 146 2.35 186 3.05
  11  0.034  0.690  0.182-  40 2.35 122 2.35 112 2.35  53 2.35
  12  0.919  0.613  0.364- 157 2.28  85 2.35 122 2.35 123 2.35  35 2.35 149 3.14
  13  0.131  0.170  0.091-  86 2.35  44 2.35 136 2.35   8 2.35 228 3.04 255 3.13
  14  0.188  0.459  0.182-  43 2.35 125 2.35  56 2.35 124 2.35 252 3.05
  15  0.162  0.833  0.456- 181 1.90  84 2.31  17 2.36 134 2.78 238 2.82 184 2.82  42 2.85  48 3.14

  16  0.457  0.305  0.000-  58 1.40 127 2.35 210 2.35 180 3.05 237 3.24
  17  0.246  0.747  0.456- 238 1.62  29 2.26 108 2.35 181 2.35  15 2.36
  18  0.746  0.247  0.456- 208 1.62 235 2.26 114 2.35 147 2.35 178 2.36
  19  0.611  0.074  0.000- 264 0.67 130 2.35  91 2.35 165 2.39 237 3.33
  20  0.496  0.997  0.182-   1 2.35 131 2.35  97 2.35 130 2.35
  21  0.381  0.920  0.364- 172 2.31  65 2.35  33 2.35   9 2.35 131 2.35 193 3.04 220 3.13
  22  0.381  0.920  0.000- 204 0.62 133 2.35   1 2.35 183 2.47 231 3.25
  23  0.265  0.843  0.182-  25 2.35 134 2.35  65 2.35 133 2.35
  24  0.662  0.000  0.456-  75 1.40  63 2.22   6 2.69 202 2.82 253 2.82  97 3.07
  25  0.246  0.747  0.091-  47 1.36  23 2.35 104 2.35  94 2.35  95 2.35
  26  0.861  0.824  0.456- 229 0.67   3 2.35  93 2.35 256 2.39 202 3.33
  27  0.162  0.500  0.456- 138 1.40  96 2.22  57 2.69 241 2.82 187 2.82 125 3.07 214 3.17 211 3.20

[...]

 124  0.207  0.555  0.091-  95 2.35  71 2.35 118 2.35  14 2.35 198 2.92 252 3.12 225 3.29
 125  0.092  0.478  0.273-  96 2.35  14 2.35  83 2.35 211 2.35  27 3.07
 126  0.804  0.536  0.182- 201 0.00  70 2.35  85 2.35 152 2.35 151 2.35 189 3.09
 127  0.361  0.324  0.091-  58 2.22  98 2.35  41 2.35  16 2.35  66 2.35 180 3.05 252 3.21
 128  0.246  0.247  0.273-  99 2.35  66 2.35  86 2.35 156 2.35
 129  0.131  0.170  0.456- 217 0.62  87 2.35 156 2.35 190 2.47 244 3.25
 130  0.515  0.093  0.091- 264 1.85 101 2.35  19 2.35  88 2.35  20 2.35 237 3.33
 131  0.400  0.016  0.273- 102 2.35  20 2.35  89 2.35  21 2.35 172 3.07
 132  0.996  0.997  0.364-   5 1.36  50 2.35  48 2.35  59 2.35 119 2.35
 133  0.284  0.940  0.091-  89 2.35  22 2.35  61 2.35  23 2.35 204 2.87 255 3.22 183 3.32
 134  0.169  0.863  0.273-  42 2.35  23 2.35 181 2.35  92 2.35  15 2.78
 135  0.881  0.420  0.364- 149 2.31 155 2.35  90 2.35  38 2.35  85 2.35 259 3.04 160 3.13
 136  0.034  0.190  0.000-  73 2.35  13 2.35 228 3.01 246 3.18 171 3.34
 137  0.323  0.632  0.273- 108 2.35  95 2.35  51 2.35 214 2.35  29 2.80
 138  0.207  0.555  0.456-  27 1.40  96 2.35 214 2.35 187 3.05 241 3.24
 139  0.592  0.478  0.091-  74 1.83 110 2.35  28 2.35  62 2.35 166 2.35
 140  0.477  0.401  0.273- 111 2.35 166 2.35  98 2.35  45 2.35 223 3.35
 141  0.361  0.324  0.456- 169 0.67  45 2.35  99 2.35 199 2.39 241 3.33
 142  0.746  0.247  0.091- 192 1.36  31 2.35 113 2.35 100 2.35  32 2.35
 143  0.631  0.170  0.273- 101 2.35 114 2.35  32 2.35  63 2.35
 144  0.515  0.093  0.456- 226 1.49 253 2.05  63 2.35 102 2.35
 145  0.900  0.016  0.091- 246 1.90  64 2.35  80 2.35 103 2.35   2 2.35
 146  0.784  0.940  0.273-  78 2.35   2 2.35  10 2.35   3 2.35
 147  0.842  0.228  0.364- 235 1.83 261 2.35  30 2.35 155 2.35  18 2.35
 148  0.669  0.863  0.091- 186 2.28  10 2.35  34 2.35 106 2.35  54 2.35 258 3.14
 149  0.828  0.500  0.456-  90 1.46 135 2.31 123 2.58 259 2.82 205 2.82  85 3.07  12 3.14
 150  0.438  0.709  0.456-  29 2.30 108 2.35  36 2.35 220 2.68 196 2.99 247 3.29
 151  0.823  0.632  0.091- 189 2.25 116 2.35  49 2.35 126 2.35 201 2.35  76 2.35
 152  0.707  0.555  0.273- 117 2.35 126 2.35 201 2.35  39 2.35 110 2.35
 153  0.592  0.478  0.456- 223 1.95 250 2.04 111 2.35  39 2.35 178 3.14
 154  0.977  0.401  0.091- 243 1.89  83 2.35 121 2.35   4 2.35 163 2.35 171 3.28
 155  0.861  0.324  0.273- 135 2.35 113 2.35 163 2.35 147 2.35
 156  0.227  0.151  0.364- 217 1.89 249 2.35  60 2.35 129 2.35 128 2.35 244 3.28
 157  0.995  0.667  0.456-  35 1.49  12 2.28  84 2.60 187 2.82 256 2.82 122 3.05  93 3.12  96 3.21
                           123 3.44
 158  0.828  0.667  0.673- 205 2.82 188 2.82 256 2.82 257 2.82 123 3.32
 159  0.662  0.667  0.891-  76 2.08 206 2.82 257 2.82 189 2.82 258 2.82  52 3.01  67 3.04
 160  0.995  0.333  0.456-  38 1.38 211 2.25  30 2.68 190 2.82 259 2.82   7 3.09 135 3.13  87 3.22

[...]

 184  0.078  0.917  0.564-  48 2.04 173 2.82   5 2.82  15 2.82 212 2.82  84 3.07
 185  0.912  0.917  0.782- 174 2.82 164 2.82 212 2.82 213 2.82
 186  0.745  0.917  0.000-  34 1.49 148 2.28 103 2.60 165 2.82 213 2.82  10 3.05  91 3.12 109 3.21
                           106 3.44
 187  0.078  0.583  0.564-  35 2.05 167 2.82 157 2.82  27 2.82 215 2.82 138 3.05  96 3.05
 188  0.912  0.583  0.782- 168 2.82 158 2.82 215 2.82 216 2.82  49 3.30
 189  0.745  0.583  0.000-  76 1.38 151 2.25  28 2.68 159 2.82 216 2.82 201 3.09 126 3.09  67 3.13
                            70 3.22
 190  0.078  0.250  0.564- 129 2.47 170 2.82 217 2.82 160 2.82 218 2.82  57 3.26  30 3.29  87 3.32

[...]

 248  0.412  0.750  0.782- 176 2.82 231 2.82 221 2.82 177 2.82
 249  0.207  0.055  0.273- 156 2.35   8 2.35  89 2.35  42 2.35 217 3.60
 250  0.578  0.417  0.564- 153 2.04 223 2.82 233 2.82 178 2.82 179 2.82  72 3.07
 251  0.412  0.417  0.782- 179 2.82 234 2.82 224 2.82 180 2.82
 252  0.245  0.417  0.000-  41 1.49  43 2.28 118 2.60 225 2.82 180 2.82  14 3.05 124 3.12 127 3.21
                             4 3.44
 253  0.578  0.083  0.564- 144 2.05  24 2.82 226 2.82 236 2.82 182 2.82  75 3.05  63 3.05
 254  0.412  0.083  0.782- 182 2.82 237 2.82 227 2.82 183 2.82  88 3.30
 255  0.245  0.083  0.000-  44 1.38 207 2.25  61 2.68 183 2.82 228 2.82  89 3.09  13 3.13 133 3.22

[...]

 259  0.912  0.417  0.564-  38 2.08 149 2.82 215 2.82 161 2.82 160 2.82  90 3.01 135 3.04
 260  0.745  0.417  0.782- 233 2.82 216 2.82 162 2.82 161 2.82
 261  0.823  0.132  0.273- 147 2.35  80 2.35  32 2.35  78 2.35 235 2.80
 262  0.912  0.083  0.564-  59 2.10 235 2.82 218 2.82 164 2.82   5 2.82  30 2.99
 263  0.745  0.083  0.782- 236 2.82 165 2.82 164 2.82 219 2.82
 264  0.578  0.083  0.000-  19 0.67 130 1.85 237 2.82 165 2.82  91 2.92  88 3.17

  LATTYP: Found a simple tetragonal cell.
 ALAT       =    19.5817508700
 C/A-ratio  =     0.7609253398

  Lattice vectors:

 A1 = (  19.5817508700,   0.0000000000,   0.0000000000)
 A2 = (   0.0000000000,  19.5817489620,   0.0000000000)
 A3 = (   0.0000000000,   0.0000000000,  14.9002504350)

Analysis of symmetry for initial positions (statically):
 Subroutine PRICEL returns:
 Original cell was already a primitive cell.

 Routine SETGRP: Setting up the symmetry group for a
 simple tetragonal supercell.

 Subroutine GETGRP returns: Found  1 space group operations
 (whereof  1 operations were pure point group operations)
 out of a pool of 16 trial point group operations.

The static configuration has the point symmetry C_1 .

[...]
     0.000000000  0.000000000 14.900250435     0.000000000  0.000000000  0.067112966

  length of vectors
    19.581750870 19.581748962 14.900250435     0.051067956  0.051067961  0.067112966

 FORCES acting on ions
    electron-ion (+dipol)            ewald-force                    non-local-force                 convergence-correction
   -.322E+02 0.187E+01 0.899E+01   0.308E+02 -.172E+01 -.982E+01   0.152E+02 -.341E+01 0.162E+02   0.369E+00 0.412E-01 -.435E-01
   -.405E+01 -.578E+01 0.133E+02   0.428E+01 0.518E+01 -.124E+02   0.178E+00 0.325E+00 -.265E+00   -.147E+00 0.164E+00 -.265E+00
   0.354E+02 -.655E+01 -.797E+01   -.343E+02 0.627E+01 0.867E+01   -.161E+02 0.238E+01 -.179E+02   -.851E+00 0.445E+00 -.461E+00
   -.200E+02 0.183E+02 0.919E+02   0.185E+02 -.175E+02 -.922E+02   0.261E+01 0.293E+00 0.179E+01   0.156E+00 0.654E-01 0.321E-01
   -.496E+01 -.781E+01 -.170E+03   0.424E+01 0.780E+01 0.187E+03   0.182E+01 0.227E+01 0.521E+02   0.402E-01 0.382E+00 -.992E-01
   0.140E+02 0.123E+02 -.920E+02   -.133E+02 -.137E+02 0.917E+02   -.196E+01 0.377E+00 -.990E+00   -.281E+00 0.397E+00 -.400E-02
   -.730E+01 0.612E+01 0.385E+01   0.701E+01 -.654E+01 -.451E+01   0.228E+01 -.245E+01 -.276E+00   -.168E+00 -.244E+00 0.219E+00
   0.270E+01 -.753E+01 0.182E+02   -.267E+01 0.822E+01 -.179E+02   -.206E+01 -.926E-01 -.171E+01   -.204E+00 0.505E-01 0.176E+00
   0.325E+02 0.380E+02 -.104E+03   -.582E+02 -.722E+02 0.104E+03   -.200E+02 -.292E+02 -.771E+00   0.124E-01 0.180E+00 0.264E-01
   0.354E+01 -.433E+01 0.616E+01   -.294E+01 0.399E+01 -.613E+01   -.535E+00 0.515E+00 0.721E+00   0.832E-02 0.733E-01 -.810E-01
   -.861E+01 -.652E+01 0.101E+02   0.799E+01 0.585E+01 -.104E+02   0.418E+00 0.608E+00 0.106E+01   -.281E-01 -.115E-01 -.210E+00
   0.322E+01 0.435E+01 -.416E+02   -.518E+01 -.467E+01 0.399E+02   -.152E+01 -.193E+01 -.146E+01   0.564E-01 -.151E+00 0.799E-01
   0.135E+02 -.133E+02 0.488E+02   -.138E+02 0.136E+02 -.488E+02   -.827E-01 0.271E+00 0.656E+00   -.237E+00 -.389E-01 0.139E+00
   0.425E+01 0.521E+01 0.986E+01   -.363E+01 -.508E+01 -.914E+01   -.429E+00 -.416E-01 0.786E-01   -.236E+00 0.803E-01 -.174E+00
   -.737E+01 -.371E+02 -.115E+03   0.875E+01 0.400E+02 0.119E+03   0.110E+01 0.111E+02 0.956E+01   -.944E-01 0.146E+00 0.995E-02
   -.586E+02 -.732E+02 0.105E+03   0.638E+02 0.775E+02 -.105E+03   0.316E+02 0.430E+02 -.140E+01   0.358E+00 -.166E-01 -.868E-01
   0.336E+01 -.187E+01 -.560E+02   -.244E+01 0.734E+00 0.391E+02   0.147E+01 -.525E+00 -.297E+02   -.701E-01 0.123E+00 0.361E-01
   0.114E+01 0.305E+01 -.573E+02   -.142E+01 -.332E+01 0.402E+02   -.536E+00 -.219E+00 -.314E+02   0.741E-01 -.109E+00 -.338E-01
   -.618E+01 -.122E+02 0.936E+02   0.482E+03 -.123E+03 -.954E+02   0.713E+01 0.159E+01 0.163E+01   0.262E+00 -.223E-03 -.781E-01
   0.122E+01 -.165E+01 0.823E+01   -.156E+01 0.145E+01 -.866E+01   0.322E-01 0.168E+00 0.824E+00   0.330E+00 0.192E-01 0.378E-01
   -.303E+00 0.119E+02 -.247E+02   0.269E+01 -.128E+02 0.234E+02   -.781E+00 -.185E+01 -.221E+01   0.187E+00 0.114E+00 0.350E-01
   0.109E+02 0.120E+02 0.963E+02   -.595E+03 0.616E+02 -.971E+02   -.737E+01 -.385E+01 0.125E-01   0.287E+00 0.170E-01 -.225E-01
   -.508E+00 -.638E+01 0.851E+01   0.475E+00 0.611E+01 -.904E+01   0.420E+00 0.346E+00 0.104E+01   -.417E-01 -.316E-01 -.187E-01
   0.466E+02 0.731E+02 -.998E+02   -.506E+02 -.796E+02 0.997E+02   -.343E+02 -.415E+02 0.130E+01   0.335E-01 0.112E+00 -.149E-01
   -.579E+00 0.282E+01 -.462E+02   0.109E+01 -.335E+01 0.636E+02   0.344E+00 -.204E+01 0.512E+02   -.113E+00 -.536E-01 -.132E+00
   -.829E+01 -.153E+02 -.943E+02   0.484E+03 -.119E+03 0.966E+02   0.688E+01 0.133E+01 -.205E+01   -.152E-01 0.820E-01 -.702E-02
   0.454E+02 0.766E+02 -.999E+02   -.491E+02 -.833E+02 0.999E+02   -.341E+02 -.413E+02 0.145E+01   -.318E+00 0.106E+00 0.494E-02
   -.617E+01 0.397E+01 0.112E+03   0.742E+01 -.386E+01 -.112E+03   -.238E+00 -.453E-01 -.436E+00   -.400E+00 -.741E-01 -.290E-01
   0.864E+01 0.458E+02 -.124E+03   -.918E+01 -.433E+02 0.123E+03   -.906E+00 -.115E+02 0.110E+02   0.244E-01 0.103E+00 0.421E-01
   -.165E+02 -.116E+01 -.101E+03   0.181E+02 0.191E+01 0.102E+03   0.257E+01 0.104E+01 -.759E+00   -.964E-01 -.563E-01 -.542E-01
   -.506E+02 -.162E+02 0.794E+02   0.549E+02 0.157E+02 -.800E+02   0.119E+02 0.477E+01 0.883E+01   -.198E+00 -.484E+00 0.486E-01
   -.130E+01 0.500E+01 0.919E+01   0.826E+00 -.530E+01 -.100E+02   -.215E+01 0.873E+00 -.514E+00   -.138E-01 -.993E-01 0.447E-01
   -.135E+02 -.405E+02 -.824E+02   -.485E+01 0.992E+02 0.830E+02   -.138E+01 0.304E+02 -.762E+01   0.297E+00 0.124E+00 -.217E-01
   0.142E+02 0.394E+02 0.824E+02   -.225E+01 -.761E+02 -.822E+02   0.120E+01 -.319E+02 0.811E+01   -.360E-01 0.143E+00 -.183E-01
   0.959E+01 0.447E+02 -.838E+02   0.207E+01 -.812E+02 0.837E+02   0.158E+01 -.317E+02 -.815E+01   -.101E+00 -.101E+00 0.221E-01
   0.166E+02 0.198E+01 -.367E+02   -.137E+02 -.360E+01 0.385E+02   -.235E+01 -.164E+01 0.153E+00   0.172E+00 0.189E+00 -.214E-01
   -.894E+01 -.381E+02 0.146E+02   0.104E+02 0.423E+02 -.965E+01   0.239E+01 0.117E+02 0.138E+02   -.275E+00 0.435E-01 0.528E-01
   -.196E+02 -.338E+02 -.849E+02   0.156E+01 0.929E+02 0.852E+02   -.375E+01 0.312E+02 -.557E+01   -.215E+00 -.219E+00 0.175E-01
   0.107E+02 0.195E-01 -.494E+02   -.986E+01 0.812E+00 0.492E+02   -.118E+01 -.131E+00 -.474E+00   0.765E-01 -.225E+00 0.130E+00
   0.233E+02 -.997E+00 0.112E+02   -.237E+02 0.956E+00 -.111E+02   -.161E+02 0.248E+01 0.179E+02   0.313E+00 0.178E+00 -.219E+00
   0.259E+02 0.511E+02 0.811E+02   -.142E+02 -.878E+02 -.810E+02   0.148E+01 -.318E+02 0.823E+01   -.659E-01 -.713E-02 -.589E-01
   0.294E+01 -.106E+02 -.384E+02   -.211E+01 0.104E+02 0.385E+02   -.147E+01 -.244E+01 0.961E+00   -.117E+00 0.214E+00 0.454E-01
   0.235E+02 0.270E+02 0.417E+02   -.260E+02 -.270E+02 -.404E+02   -.896E+00 -.264E+01 0.174E+01   -.170E+00 0.183E-01 -.319E-01
   0.515E-01 -.484E+02 0.825E+02   -.184E+02 0.107E+03 -.829E+02   -.397E+01 0.313E+02 0.569E+01   -.914E-01 0.191E-02 -.137E-01
   -.105E+02 -.321E+01 -.347E+02   0.596E+01 0.473E+01 0.368E+02   0.191E+01 -.328E+00 -.108E+01   0.128E+01 -.390E+00 -.642E+00
   -.372E+01 -.341E+02 0.115E+03   0.486E+01 0.372E+02 -.120E+03   0.115E+01 0.110E+02 -.969E+01   0.206E+00 0.476E-01 -.308E-01
   -.282E+01 -.573E+01 0.170E+03   0.242E+01 0.630E+01 -.187E+03   0.173E+01 0.216E+01 -.520E+02   -.117E+00 -.955E-01 0.120E+00
   -.457E+02 -.215E+02 -.774E+02   0.450E+02 0.213E+02 0.783E+02   0.822E+01 0.545E+01 -.931E+01   -.176E+00 0.315E+00 -.218E-01
   0.126E+01 0.120E+02 0.101E+03   -.211E+01 -.128E+02 -.101E+03   -.650E+00 -.212E+00 0.985E+00   0.161E+00 0.412E+00 -.612E-01
   -.125E+01 -.611E+00 -.767E+01   0.123E+01 0.473E+00 0.856E+01   -.326E+00 -.201E+00 -.116E+01   0.137E-01 0.280E+00 -.219E+00
   0.187E+01 -.280E+01 0.192E+01   -.208E+01 0.321E+01 -.885E+00   0.394E+00 0.219E+01 0.152E+01   0.148E+00 0.780E-01 -.164E+00
   0.348E+02 0.380E+02 0.105E+03   -.610E+02 -.722E+02 -.106E+03   -.197E+02 -.291E+02 0.118E+01   0.266E+00 0.101E+00 -.262E-01
   -.481E+01 -.182E+01 -.125E+02   0.492E+01 0.963E+00 0.117E+02   -.166E+00 -.120E+01 -.778E+00   -.143E+00 0.143E-01 -.159E+00
   -.726E+00 -.865E+01 0.682E+01   0.108E+01 0.791E+01 -.619E+01   0.240E+01 -.487E-01 -.135E+01   0.106E-01 0.216E+00 -.234E+00
   0.428E+02 0.685E+02 0.102E+03   -.466E+02 -.752E+02 -.103E+03   -.342E+02 -.415E+02 -.117E+01   -.916E-01 0.230E+00 -.780E-02
   0.226E+00 -.120E+01 -.733E+01   -.679E+00 -.319E+00 0.819E+01   0.269E-01 -.114E+01 -.262E+01   -.260E+00 0.261E+00 -.399E+00
   0.139E+02 0.182E+02 -.903E+02   -.124E+02 -.192E+02 0.904E+02   0.196E+00 0.724E-01 0.253E+00   -.734E+00 -.136E+00 -.132E-01
   0.518E+02 0.759E+02 0.999E+02   -.558E+02 -.820E+02 -.997E+02   -.345E+02 -.417E+02 -.155E+01   0.242E+00 -.119E+00 -.896E-01
   0.471E+02 0.156E+02 -.808E+02   -.457E+02 -.162E+02 0.820E+02   -.102E+02 -.452E+01 -.760E+01   0.319E-01 0.477E+00 -.375E-01
   -.119E+02 -.182E+02 -.911E+02   0.113E+02 0.195E+02 0.904E+02   0.261E+01 0.115E+01 -.863E+00   -.144E+00 -.550E+00 0.327E-01
[...]
   0.395E+01 0.236E+01 0.386E+02   -.387E+01 -.200E+01 -.387E+02   -.204E+00 -.153E+00 -.154E+00   0.226E+00 0.280E-02 0.213E+00
   0.112E+02 -.407E+02 0.976E+02   -.176E+02 0.704E+02 -.987E+02   -.960E+01 0.420E+02 -.179E+01   -.125E+00 0.525E-01 -.350E-01
   -.135E+02 0.305E+00 -.130E+03   0.142E+02 -.165E+01 0.130E+03   0.557E+01 -.966E+00 0.974E+01   0.267E+00 -.787E-01 -.528E-01
   0.320E+01 0.290E+00 0.413E+02   -.292E+01 0.109E+00 -.414E+02   -.445E+00 -.475E+00 -.394E+00   0.225E+00 -.330E-01 -.197E-01
   0.207E+01 0.432E+02 0.960E+02   0.749E+01 -.916E+02 -.985E+02   0.821E+01 -.472E+02 -.407E+01   -.430E-01 -.183E-01 -.221E-01
   -.928E+01 0.120E+02 -.118E+03   0.753E+01 -.935E+01 0.115E+03   0.197E+01 -.325E+01 0.414E+01   0.237E+00 -.388E+00 0.467E+00
   0.123E+00 -.262E+01 0.415E+02   -.581E-01 0.245E+01 -.416E+02   -.410E-01 0.911E-02 -.642E+00   -.627E-01 0.145E+00 0.215E+00
   -.192E+02 -.465E+02 0.989E+02   0.379E+02 0.746E+02 -.988E+02   0.243E+02 0.366E+02 -.225E+01   0.203E+00 0.101E+00 -.244E-01
   0.926E+01 0.171E+01 -.131E+03   -.993E+01 -.961E-01 0.131E+03   -.504E+01 0.134E+01 0.823E+01   -.108E+00 -.168E+00 -.193E+00
   -.649E+00 0.565E+01 0.427E+02   0.172E+01 -.457E+01 -.424E+02   -.732E+00 -.913E+00 -.140E+00   -.249E+00 -.106E+00 -.182E+00
   -.188E+01 0.424E+01 -.618E+00   0.208E+01 -.429E+01 -.345E+00   -.104E+00 -.375E+00 -.150E+01   -.875E-01 0.102E-01 0.105E+00
   -.572E+01 -.175E+02 -.124E+03   0.502E+01 0.171E+02 0.124E+03   0.227E+01 0.539E+01 0.707E+01   -.107E+00 0.142E+00 -.102E+00
   -.209E+01 -.278E+01 0.400E+02   0.140E+01 0.193E+01 -.399E+02   0.709E+00 0.853E+00 -.123E+00   -.481E-01 -.367E-01 0.193E-01
   0.192E+02 -.958E+01 0.115E+03   -.457E+03 0.131E+03 -.115E+03   -.286E+02 0.106E+02 -.146E+02   0.278E+00 -.157E-02 -.709E-01
   -.138E+02 -.181E+02 -.377E+01   0.682E-12 -.284E-12 -.105E-11   0.141E+02 0.180E+02 0.630E+01   -.427E+00 0.191E+00 -.248E+01

 POSITION                                       TOTAL-FORCE (eV/Angst)
      9.33388     17.64527      1.35775        14.147202     -3.215365     15.371689
     17.24190     18.02184      2.71550         0.253322     -0.113290      0.288055
     14.98246     16.51556      5.43100       -15.882554      2.550525    -17.644812
      1.42587      7.47783      0.00000         1.252538      1.128049      1.570532
     19.48453      0.00000      6.78875         1.152770      2.645011     68.921633
     13.09960     16.89213      6.78875        -1.520890     -0.591069     -1.271925
      1.04929      5.59497      4.07325         1.820244     -3.112097     -0.714326
      2.17901      1.45267      2.71550        -2.239591      0.643335     -1.274487
      5.56816     18.39841      6.78875       -45.581225    -63.237451     -0.364065
     13.47617     18.77499      2.71550         0.078544      0.249594      0.666432
      0.67272     13.50298      2.71550        -0.224885     -0.082984      0.534224
     17.99504     11.99669      5.43100        -3.424535     -2.394112     -3.045570
      2.55558      3.33553      1.35775        -0.626686      0.492493      0.788528
      3.68530      8.98411      2.71550        -0.045767      0.171897      0.620030
      3.16640     16.31812      6.78875         2.376670     14.101955     14.025040
      8.95731      5.97154      0.00000        37.119448     47.323317     -1.236854
      4.81502     14.63270      6.78875         2.317324     -1.539062    -46.567025
     14.60589      4.84182      6.78875        -0.741118     -0.594936    -48.531334
     11.96989      1.45267      0.00000       482.831047   -133.422742     -0.249496
      9.71045     19.52813      2.71550         0.019865     -0.022242      0.431939
      7.45102     18.02184      5.43100         1.798131     -2.676707     -3.488248
      7.45102     18.02185      0.00000      -591.160397     69.711437     -0.774456
      5.19159     16.51556      2.71550         0.346117      0.044315      0.488010
     12.95728      0.00000      6.78875       -38.208861    -47.966140      1.167340
      4.81502     14.63270      1.35775         0.738514     -2.625186     68.445435
     16.86532     16.13898      6.78875       482.129879   -133.344870      0.229584
      3.16640      9.79087      6.78875       -38.202222    -47.819156      1.411899
     13.47617      8.98412      0.00000         0.618042     -0.009038     -0.684784
      6.43003     13.05450      6.78875        -1.425177     -8.962613      9.621272
     18.37161      4.08868      6.78875         4.102583      1.734497      0.294735
     16.48875      4.46525      0.00000        16.034245      3.791826      8.227679
     14.22932      2.95896      2.71550        -2.638355      0.472317     -1.287801
      9.33388     17.64527      6.78875       -19.471150     89.287498     -7.050913
     14.98247     16.51556      0.00000        13.085342    -68.438521      8.233438
      0.29615     11.62012      6.78875        13.142473    -68.379441     -8.183614
     10.46360     13.50298      5.43100         0.690839     -3.071642      1.967512
      1.80244     19.15156      1.35775         3.614846     15.897740     18.760030
     19.12476      7.85440      6.78875       -22.049879     90.164694     -5.190195
     13.47617      8.98411      5.43100        -0.277573      0.476303     -0.573418
      0.29615     11.62012      1.35775       -16.120082      2.616369     17.777877
      5.19159      6.72468      0.00000        13.170324    -68.495672      8.240940
      3.68530     18.77499      5.43100        -0.755584     -2.400318      1.123242
      3.30873      7.10126      1.35775        -3.650687     -2.568468      3.054305
      4.43844      2.95896      0.00000       -22.371894     90.268557      5.266289
      8.95731      5.97154      5.43100        -1.368334      0.808930      0.331877
      8.06184     11.42269      0.00000         2.503880     14.167364    -14.046348
      4.79822     14.68631      0.00000         1.214585      2.632058    -68.941341
      1.80244     19.15156      6.78875         7.381802      5.597531     -8.448507
     17.99504     11.99669      0.00000        -1.339644     -0.596930      1.042001
     19.12476     17.64527      4.07325        -0.332622     -0.060217     -0.489652
      8.20416     11.99669      2.71550         0.338326      2.681874      2.395650
     10.46360     13.50298      0.00000       -45.659477    -63.216694      0.421036
      2.55558     13.12641      4.07325        -0.198149     -2.049877     -1.715540
     12.72303     15.00927      2.71550         2.767345     -0.566077     -0.953792
     17.85272     14.68631      0.00000       -38.127124    -47.887675     -1.261682
      5.56816      8.60754      4.07325        -0.685423     -2.393616     -2.159235
      3.30873      7.10125      6.78875         0.942912     -1.038034      0.345047
      8.06184      4.89544      0.00000       -38.271057    -47.864586     -1.419588
     17.61847      0.32296      6.78875        -8.762982     -4.696350     -6.410466
      6.32130      2.58239      6.78875         1.926675      1.887302     -1.579216
[...]
     11.32547      8.15906      8.41105        -1.315447     -6.749747      9.997799
      8.06184      8.15906     11.65565         0.100887      0.210481     -0.089477
      4.79822      8.15906      0.00000       -16.115713     71.801826     -2.911396
     11.32547      1.63181      8.41105         6.473658     -2.393905      9.416933
      8.06184      1.63181     11.65565         0.063055     -0.108947     -0.501759
      4.79822      1.63181      0.00000        17.718764    -95.648463     -6.642549
     17.85272     14.68631      8.41105         0.458472     -1.011219      1.650051
     14.58909     14.68631     11.65565        -0.038166     -0.025325     -0.496622
     11.32547     14.68631      0.00000        43.183189     64.749887     -2.192077
     17.85272      8.15906      8.41105        -5.815990      2.786951      8.227900
     14.58909      8.15906     11.65565         0.086004      0.060448     -0.058341
     16.11218      2.58239      4.07325         0.014448     -0.410908     -2.356252
     17.85272      1.63181      8.41105         1.465116      5.131407      6.980719
     14.58909      1.63181     11.65565        -0.026299     -0.029167     -0.015881
     11.32547      1.63181      0.00000      -466.265522    131.685230    -15.238427
    total drift:                               -0.120789      0.076037      0.055215

  FREE ENERGIE OF THE ION-ELECTRON SYSTEM (eV)
  free  energy   TOTEN  =      1082.98086897 eV

  energy  without entropy=     1082.98561965  energy(sigma->0) =     1082.98324431