 vasp.6.4.3 19Mar24 (build Oct 22 2024 11:23:12) complex

 executed on             LinuxIFC date 2025.06.04  03:44:43

 INCAR:
   SYSTEM = Si and Ge interface calculation
   ISTART = 0
   ICHARG = 2
   LWAVE = .FALSE.
   LREAL = AUTO
   ENCUT = 700
   ENAUG = 900
   ADDGRID = .TRUE.
   LMAXMIX = 6
   LASPH = .TRUE.
   LMIXTAU = .TRUE.
   NCORE = 16
   NELM = 100
   NBANDS = 202
   EDIFF = 1d-7
   AMIX = 0.6
   ISMEAR = 0
   SIGMA = 0.01
   NELECT = 336
   ISPIN = 2
   NUPDOWN = 1
   LVTOT = .FALSE.
   LVHAR = .TRUE.

 POTCAR:    PAW_PBE Ge 05Jan2001
 POTCAR:    PAW_PBE Si 05Jan2001
|           W    W    AA    RRRRR   N    N  II  N    N   GGGG   !!!           |
|           W    W   A  A   R    R  NN   N  II  NN   N  G    G  !!!           |
|           W    W  A    A  R    R  N N  N  II  N N  N  G       !!!           |
|           W WW W  AAAAAA  RRRRR   N  N N  II  N  N N  G  GGG   !            |
|           WW  WW  A    A  R   R   N   NN  II  N   NN  G    G                |
|           W    W  A    A  R    R  N    N  II  N    N   GGGG   !!!           |
|     You use a magnetic or noncollinear calculation, but did not specify     |
|     the initial magnetic moment with the MAGMOM tag. Note that a            |
|     default of 0.012 will be used for all atoms. This ferromagnetic         |
|     setup may break the symmetry of the crystal, in particular it may       |
|     rule out finding an antiferromagnetic solution. Thence, we              |
|     recommend setting the initial magnetic moment manually or verifying     |
|     carefully that this magnetic setup is desired.                          |

 POTCAR:    PAW_PBE Ge 05Jan2001
   VRHFIN =Ge: s2p2

   TITEL  = PAW_PBE Ge 05Jan2001
   POMASS =   72.610; ZVAL   =    4.000    mass and valenz
   ENMAX  =  173.807; ENMIN  =  130.355 eV

 POTCAR:    PAW_PBE Si 05Jan2001
   VRHFIN =Si: s2p2

   TITEL  = PAW_PBE Si 05Jan2001
   POMASS =   28.085; ZVAL   =    4.000    mass and valenz
   ENMAX  =  245.345; ENMIN  =  184.009 eV

 Optimization of the real space projectors (new method)

 maximal supplied QI-value         = 16.25
 optimisation between [QCUT,QGAM] = [ 13.49, 26.98] = [ 50.95,203.80] Ry
 Optimized for a Real-space Cutoff    1.25 Angstroem

   l    n(q)    QCUT    max X(q) W(low)/X(q) W(high)/X(q)  e(spline)
   0     10    13.489    65.336    0.91E-04    0.11E-03    0.34E-06
   0     10    13.489    52.220    0.89E-04    0.11E-03    0.34E-06
   1     10    13.489    36.409    0.22E-03    0.27E-03    0.14E-06
   1     10    13.489    21.334    0.21E-03    0.27E-03    0.14E-06
   2      9    13.489     4.673    0.11E-03    0.12E-03    0.19E-06
 Optimization of the real space projectors (new method)

 maximal supplied QI-value         = 19.84
 optimisation between [QCUT,QGAM] = [ 13.49, 26.99] = [ 50.98,203.92] Ry
 Optimized for a Real-space Cutoff    1.07 Angstroem

   l    n(q)    QCUT    max X(q) W(low)/X(q) W(high)/X(q)  e(spline)
   0      9    13.493   159.560    0.22E-03    0.15E-03    0.72E-07
   0      9    13.493   115.863    0.21E-03    0.15E-03    0.71E-07
   1      8    13.493    88.339    0.15E-03    0.11E-03    0.13E-06
   1      8    13.493    48.592    0.15E-03    0.10E-03    0.13E-06
  PAW_PBE Ge 05Jan2001                  :
  PAW_PBE Si 05Jan2001                  :

 POSCAR: Ge+Si
  positions in direct lattice

 exchange-correlation table for PE
   RHO(1)=    0.500       N(1)  =     2000
   RHO(2)=  100.500       N(2)  =     4000

 ion  position               nearest neighbor table
   1  0.059  0.456  0.000-  81 1.76  63 2.36  54 2.40  38 2.45  43 2.45  25 2.45  72 3.01  80 3.03

   2  0.559  0.081  0.119-  84 2.32  31 2.45  39 2.45  44 2.45  26 2.45
   3  0.059  0.706  0.238-  40 2.45  27 2.45  45 2.45  32 2.45
   4  0.559  0.331  0.357-  28 2.45  46 2.45  33 2.45  41 2.45
   5  0.059  0.956  0.477-  55 2.13  42 2.45  34 2.45  47 2.45  29 2.45
   6  0.559  0.581  0.596-  70 1.32  61 2.13  35 2.45  30 2.45  48 2.45  49 2.94
   7  0.059  0.956  0.000-  60 1.34  57 1.55  37 2.45  44 2.45  31 2.45  84 2.62
   8  0.559  0.581  0.119-  38 2.45  45 2.45  25 2.45  32 2.45  63 2.59
   9  0.059  0.206  0.238-  39 2.45  33 2.45  46 2.45  26 2.45
  10  0.559  0.831  0.357-  34 2.45  40 2.45  27 2.45  47 2.45
  11  0.059  0.456  0.477-  41 2.45  48 2.45  28 2.45  35 2.45  52 2.81
  12  0.559  0.081  0.596-  73 1.39  82 1.80  36 2.45  29 2.45  42 2.45  55 2.90  56 3.02
  13  0.059  0.706  0.000-  51 1.51  78 1.79  63 2.29  25 2.45  32 2.45  37 2.45
  14  0.559  0.331  0.119-  43 2.45  26 2.45  33 2.45  38 2.45  81 2.70  66 2.90
  15  0.059  0.956  0.238-  44 2.45  27 2.45  34 2.45  39 2.45
  16  0.559  0.581  0.357-  28 2.45  40 2.45  35 2.45  45 2.45
  17  0.059  0.206  0.477-  36 2.45  46 2.45  29 2.45  41 2.45  52 2.86
  18  0.559  0.831  0.596-  67 0.23  76 2.22  47 2.45  30 2.45  42 2.45  58 2.54
  19  0.059  0.206  0.000-  66 1.38  26 2.45  43 2.45  31 2.45  54 2.46  84 2.56  75 3.00
  20  0.559  0.831  0.119-  37 2.45  27 2.45  32 2.45  44 2.45  78 2.66  60 2.93
  21  0.059  0.456  0.238-  28 2.45  33 2.45  45 2.45  38 2.45
  22  0.559  0.081  0.357-  34 2.45  46 2.45  39 2.45  29 2.45
  23  0.059  0.706  0.477-  49 2.11  47 2.45  40 2.45  30 2.45  35 2.45
  24  0.559  0.331  0.596-  79 2.26  41 2.45  48 2.45  36 2.45  64 2.50  52 2.60  73 2.64  70 2.71
                            53 2.73
  25  0.809  0.581  0.000-  51 2.26  13 2.45   8 2.45   1 2.45  72 2.50  63 2.60  81 2.64  78 2.71
                            62 2.73
  26  0.309  0.206  0.119-  66 2.13  19 2.45  14 2.45   9 2.45   2 2.45
  27  0.809  0.831  0.238-  15 2.45   3 2.45  20 2.45  10 2.45
  28  0.309  0.456  0.357-  21 2.45   4 2.45  16 2.45  11 2.45
  29  0.809  0.081  0.477-  12 2.45  17 2.45   5 2.45  22 2.45  55 2.66  73 2.93
  30  0.309  0.706  0.596-  49 1.76  67 2.36  61 2.40  23 2.45   6 2.45  18 2.45  76 3.01  50 3.03

  31  0.809  0.081  0.000-  84 0.23  57 2.22   2 2.45  19 2.45   7 2.45  75 2.54
  32  0.309  0.706  0.119-  13 2.45   3 2.45  20 2.45   8 2.45  63 2.81
  33  0.809  0.331  0.238-   9 2.45  21 2.45  14 2.45   4 2.45
  34  0.309  0.956  0.357-  10 2.45   5 2.45  22 2.45  15 2.45
  35  0.809  0.581  0.477-  23 2.45   6 2.45  16 2.45  11 2.45  49 2.70  70 2.90
  36  0.309  0.206  0.596-  73 1.34  64 1.55  17 2.45  12 2.45  24 2.45  52 2.62
  37  0.809  0.831  0.000-  78 1.32  69 2.13   7 2.45  20 2.45  13 2.45  60 2.94
  38  0.309  0.456  0.119-   8 2.45   1 2.45  21 2.45  14 2.45  63 2.86
  39  0.809  0.081  0.238-   9 2.45   2 2.45  15 2.45  22 2.45
  40  0.309  0.706  0.357-   3 2.45  23 2.45  10 2.45  16 2.45
  41  0.809  0.331  0.477-  52 2.32  11 2.45  24 2.45  17 2.45   4 2.45
  42  0.309  0.956  0.596-  58 1.51  55 1.79  67 2.29   5 2.45  12 2.45  18 2.45
  43  0.809  0.331  0.000-  81 1.39  54 1.80  14 2.45  19 2.45   1 2.45  66 2.90  65 3.02
  44  0.309  0.956  0.119-  60 2.11  15 2.45   7 2.45  20 2.45   2 2.45
  45  0.809  0.581  0.238-  21 2.45   3 2.45   8 2.45  16 2.45
  46  0.309  0.206  0.357-  17 2.45  22 2.45   4 2.45   9 2.45
  47  0.809  0.831  0.477-  23 2.45   5 2.45  18 2.45  10 2.45  67 2.59
  48  0.309  0.456  0.596-  70 1.38  11 2.45  24 2.45   6 2.45  61 2.46  52 2.56  79 3.00
  49  0.018  0.667  0.596-  30 1.76  23 2.11  76 2.37  61 2.37  35 2.70   6 2.94
  50  0.518  0.667  0.757-  77 2.37  62 2.37  61 2.37  76 2.37  30 3.03
  51  0.018  0.667  0.919-  13 1.51  25 2.26  78 2.37  62 2.37  77 2.37  63 2.37
  52  0.018  0.333  0.596-  41 2.32  79 2.37  64 2.37  48 2.56  24 2.60  36 2.62  11 2.81  17 2.86

[...]

  64  0.268  0.250  0.677-  36 1.55  73 2.37  52 2.37  74 2.37  53 2.37  24 2.50
  65  0.768  0.250  0.838-  74 2.37  75 2.37  53 2.37  54 2.37  43 3.02
  66  0.268  0.250  0.000-  19 1.38  26 2.13  75 2.37  54 2.37  14 2.90  43 2.90
  67  0.518  0.833  0.596-  18 0.23  42 2.29  30 2.36  76 2.37  58 2.37  47 2.59
  68  0.018  0.833  0.757-  77 2.37  59 2.37  76 2.37  58 2.37
  69  0.518  0.833  0.919-  37 2.13  78 2.37  77 2.37  59 2.37  60 2.37
  70  0.518  0.500  0.596-   6 1.32  48 1.38  79 2.37  61 2.37  24 2.71  35 2.90
  71  0.018  0.500  0.757-  80 2.37  62 2.37  79 2.37  61 2.37
  72  0.518  0.500  0.919-  81 2.37  80 2.37  62 2.37  63 2.37  25 2.50   1 3.01
  73  0.518  0.167  0.596-  36 1.34  12 1.39  64 2.37  82 2.37  24 2.64  29 2.93
  74  0.018  0.167  0.757-  65 2.37  83 2.37  64 2.37  82 2.37
  75  0.518  0.167  0.919-  65 2.37  66 2.37  84 2.37  83 2.37  31 2.54  19 3.00
  76  0.768  0.750  0.677-  18 2.22  67 2.37  49 2.37  68 2.37  50 2.37  30 3.01
  77  0.268  0.750  0.838-  68 2.37  50 2.37  69 2.37  51 2.37
  78  0.768  0.750  0.000-  37 1.32  13 1.79  69 2.37  51 2.37  20 2.66  25 2.71
  79  0.768  0.417  0.677-  24 2.26  52 2.37  70 2.37  71 2.37  53 2.37  48 3.00
  80  0.268  0.417  0.838-  71 2.37  53 2.37  54 2.37  72 2.37   1 3.03
  81  0.768  0.417  0.000-  43 1.39   1 1.76  54 2.37  72 2.37  25 2.64  14 2.70
  82  0.768  0.083  0.677-  12 1.80  55 2.37  73 2.37  74 2.37  56 2.37
  83  0.268  0.083  0.838-  74 2.37  56 2.37  57 2.37  75 2.37
  84  0.768  0.083  0.000-  31 0.23   2 2.32  57 2.37  75 2.37  19 2.56   7 2.62

  LATTYP: Found a simple orthorhombic cell.
 ALAT       =     5.6578001980
 B/A-ratio  =     2.8284272067
 C/A-ratio  =     2.9676594718

  Lattice vectors:

 A1 = (   5.6578001980,   0.0000000000,   0.0000000000)
 A2 = (   0.0000000000,  16.0026760100,   0.0000000000)
 A3 = (   0.0000000000,   0.0000000000,  16.7904243470)

Analysis of symmetry for initial positions (statically):
 Subroutine PRICEL returns:
 Original cell was already a primitive cell.

 Routine SETGRP: Setting up the symmetry group for a
 simple orthorhombic supercell.

 Subroutine GETGRP returns: Found  1 space group operations
 (whereof  1 operations were pure point group operations)
 out of a pool of  8 trial point group operations.

The static configuration has the point symmetry C_1 .

Analysis of symmetry for dynamics (positions and initial velocities):
 Subroutine PRICEL returns:
 Original cell was already a primitive cell.

[...]

The dynamic configuration has the point symmetry C_1 .

Analysis of structural, dynamic, and magnetic symmetry:
 Subroutine PRICEL returns:
 Original cell was already a primitive cell.

 Routine SETGRP: Setting up the symmetry group for a
 simple orthorhombic supercell.

 Subroutine GETGRP returns: Found  1 space group operations
 (whereof  1 operations were pure point group operations)
 out of a pool of  8 trial point group operations.

The overall configuration has the point symmetry C_1 .

 Subroutine INISYM returns: Found  1 space group operations
 (whereof  1 operations are pure point group operations),
 and found     1 'primitive' translations

                                     Primitive cell

  volume of cell :    1520.2041

  direct lattice vectors                    reciprocal lattice vectors
     5.657800198  0.000000000  0.000000000     0.176747139  0.000000000  0.000000000
     0.000000000 16.002676010  0.000000000     0.000000000  0.062489549  0.000000000
     0.000000000  0.000000000 16.790424347     0.000000000  0.000000000  0.059557756

  length of vectors
[...]
     0.000000000  0.000000000 16.790424347     0.000000000  0.000000000  0.059557756

  length of vectors
     5.657800198 16.002676010 16.790424347     0.176747139  0.062489549  0.059557756

 FORCES acting on ions
    electron-ion (+dipol)            ewald-force                    non-local-force                 convergence-correction
   -.462E+02 -.140E+02 -.546E+02   0.521E+02 0.174E+02 0.540E+02   0.127E+02 0.437E+01 0.149E+01   -.905E-05 0.144E-03 0.159E-04
   0.143E+02 0.154E+01 -.101E+03   -.122E+02 -.140E+01 0.976E+02   -.114E+01 -.156E+00 0.205E+01   0.707E-04 -.738E-04 0.288E-04
   -.406E+00 -.124E+00 -.323E+02   0.393E+00 0.107E+00 0.322E+02   -.172E+00 0.420E-01 0.220E+00   0.338E-05 0.316E-04 0.457E-04
   0.258E+00 0.227E+00 0.319E+02   0.451E-01 0.680E-03 -.317E+02   -.505E+00 -.648E-01 -.500E+00   -.266E-05 0.291E-04 0.955E-04
   -.235E+01 0.889E+01 0.105E+03   0.845E+00 -.973E+01 -.106E+03   0.100E+01 -.104E+01 -.309E+01   0.127E-04 -.475E-04 0.113E-03
   -.419E+02 -.520E+02 0.598E+02   0.530E+02 0.107E+03 -.604E+02   0.990E+01 0.357E+02 -.246E+01   -.484E-05 0.141E-03 -.111E-04
   0.191E+02 0.647E+01 -.874E+02   -.620E+02 0.849E+01 0.106E+03   -.252E+02 0.688E+01 0.179E+02   -.399E-04 -.496E-04 -.555E-04
   -.662E+01 -.717E+00 -.905E+02   0.720E+01 0.117E+01 0.906E+02   -.316E+00 -.389E+00 0.839E+00   0.425E-05 0.111E-03 0.182E-04
   -.290E+00 0.160E+00 -.320E+02   -.154E+00 -.136E+00 0.323E+02   0.129E+00 0.115E+00 -.348E+00   -.661E-05 -.713E-04 0.847E-04
   -.760E-01 -.614E-01 0.329E+02   0.244E+00 -.340E-02 -.329E+02   -.153E+00 -.516E-02 -.134E+00   -.824E-06 -.439E-05 0.763E-04
   0.142E+01 -.543E+01 0.858E+02   -.129E+01 0.568E+01 -.865E+02   -.348E+00 0.218E+00 -.616E-01   0.108E-04 0.952E-04 0.416E-04
   0.664E+01 0.522E+02 0.743E+02   -.325E+01 -.939E+02 -.787E+02   0.867E-01 -.297E+02 -.749E+01   -.102E-04 -.979E-04 0.140E-06
   -.516E+02 -.222E+02 -.907E+02   0.609E+02 0.303E+02 0.113E+03   0.143E+02 0.654E+01 0.212E+02   -.457E-04 0.729E-04 -.748E-04
   0.180E+01 0.189E+01 -.888E+02   -.200E+01 -.246E+01 0.901E+02   -.773E-01 0.111E+00 0.152E+00   0.895E-05 0.339E-04 0.802E-04
   -.432E+00 -.225E+00 -.321E+02   -.157E+00 0.417E-01 0.324E+02   0.139E+00 -.504E-01 -.133E+00   0.111E-05 -.462E-04 0.575E-04
   0.114E-01 -.654E+00 0.323E+02   0.207E+00 0.414E+00 -.323E+02   -.291E+00 0.151E+00 -.163E+00   -.700E-05 0.571E-04 0.988E-04
   0.249E+01 0.576E+01 0.860E+02   -.298E+01 -.549E+01 -.865E+02   -.681E-01 -.230E+00 -.323E+00   0.592E-05 -.669E-04 0.674E-04
   -.308E+02 -.409E+01 0.600E+02   0.415E+04 -.663E+03 -.582E+02   -.127E+02 0.402E+01 -.236E+01   -.603E-04 -.224E-04 0.102E-03
   0.268E+02 0.299E+02 -.522E+02   -.649E+02 -.545E+02 0.512E+02   -.289E+02 -.181E+02 0.112E+01   -.748E-04 -.176E-03 -.293E-04
   0.173E+01 -.327E+01 -.921E+02   -.226E+01 0.269E+01 0.936E+02   0.269E+00 0.417E+00 -.202E+00   0.760E-05 -.520E-04 0.168E-05
   -.315E+00 -.221E-01 -.317E+02   0.396E+00 -.135E-01 0.321E+02   -.109E+00 -.750E-02 -.135E+00   0.875E-05 0.877E-04 0.848E-04
   -.158E+00 0.479E+00 0.320E+02   0.815E-01 -.411E+00 -.322E+02   0.850E-01 -.114E+00 0.932E-01   -.688E-05 -.737E-04 0.840E-04
   -.384E+01 -.910E+01 0.105E+03   0.261E+01 0.956E+01 -.107E+03   0.120E+01 0.900E+00 -.350E+01   0.138E-04 0.209E-04 0.932E-04
   -.743E+01 0.533E+01 0.670E+02   0.834E+01 -.509E+01 -.666E+02   0.455E-01 -.849E+00 -.242E+01   -.111E-04 -.914E-05 -.606E-04
   0.211E+02 0.516E+01 -.670E+02   -.226E+02 -.509E+01 0.666E+02   -.156E+01 -.114E+01 0.284E+01   0.957E-05 0.176E-03 -.377E-04
   -.172E+01 0.910E+01 -.105E+03   0.341E+01 -.973E+01 0.106E+03   -.780E+00 -.700E+00 0.321E+01   0.126E-04 -.973E-04 0.985E-04
   0.204E+00 -.514E+00 -.318E+02   -.575E-01 0.414E+00 0.323E+02   -.900E-01 0.135E+00 -.273E+00   -.414E-05 -.190E-04 0.454E-04
   0.303E+00 0.971E-01 0.320E+02   -.418E+00 -.136E+00 -.323E+02   0.131E+00 0.807E-01 0.922E-01   -.598E-06 0.810E-04 0.915E-04
   0.167E+00 -.252E+01 0.926E+02   0.304E+00 0.269E+01 -.936E+02   -.340E+00 0.274E+00 -.415E+00   -.276E-05 -.957E-04 0.109E-03
   -.145E+02 -.113E+02 0.546E+02   0.211E+02 0.174E+02 -.540E+02   0.118E+02 0.411E+01 -.111E+01   0.368E-04 0.107E-03 0.434E-04
   -.235E+01 -.311E+01 -.592E+02   0.412E+04 -.663E+03 0.582E+02   -.108E+02 0.231E+01 0.170E+01   0.730E-04 -.172E-04 0.291E-04
   -.963E+00 -.593E+01 -.859E+02   0.127E+01 0.568E+01 0.865E+02   -.550E-01 0.329E+00 -.173E-01   -.892E-05 0.462E-04 -.150E-04
   0.837E-02 0.634E+00 -.323E+02   -.183E+00 -.411E+00 0.322E+02   0.254E+00 -.124E+00 0.166E+00   0.445E-05 0.238E-04 0.985E-04
   0.335E+00 -.148E+00 0.322E+02   0.129E+00 0.107E+00 -.322E+02   0.183E-01 0.135E+00 -.180E+00   -.515E-05 -.480E-04 0.980E-04
   -.264E+00 0.258E+01 0.889E+02   0.561E+00 -.246E+01 -.901E+02   0.785E-01 -.855E-01 -.125E+00   -.844E-05 0.732E-04 0.734E-04
   0.495E+02 0.585E+01 0.863E+02   -.929E+02 0.849E+01 -.106E+03   -.262E+02 0.603E+01 -.173E+02   0.333E-04 -.120E-03 -.241E-04
   -.123E+02 -.515E+02 -.604E+02   0.221E+02 0.107E+03 0.604E+02   0.592E+01 0.336E+02 0.230E+01   0.163E-04 -.122E-03 -.853E-04
   0.744E-01 0.550E+01 -.860E+02   -.417E+00 -.549E+01 0.865E+02   0.453E+00 -.356E+00 0.803E-01   -.157E-04 0.113E-03 0.628E-04
   -.258E-01 0.253E+00 -.327E+02   -.199E-01 -.337E-02 0.329E+02   -.650E-02 -.203E+00 -.708E-01   -.357E-05 -.775E-04 0.521E-04
   0.350E+00 0.704E-01 0.316E+02   0.132E+00 -.135E-01 -.321E+02   -.234E+00 -.834E-01 0.372E+00   -.710E-05 0.142E-04 0.874E-04
   0.947E+01 0.770E+00 0.973E+02   -.965E+01 -.140E+01 -.976E+02   -.387E+00 0.366E+00 -.173E+01   -.112E-04 0.175E-04 0.331E-04
   -.195E+02 -.241E+02 0.904E+02   0.300E+02 0.303E+02 -.113E+03   0.121E+02 0.617E+01 -.205E+02   0.119E-04 -.983E-04 0.192E-04
   0.366E+02 0.527E+02 -.749E+02   -.342E+02 -.939E+02 0.787E+02   -.375E+01 -.305E+02 0.851E+01   -.177E-04 0.331E-04 -.286E-05
   -.333E+01 -.846E+01 -.105E+03   0.517E+01 0.956E+01 0.107E+03   -.461E+00 0.774E+00 0.318E+01   -.206E-04 -.754E-04 0.603E-04
   -.230E-01 -.179E+00 -.320E+02   -.219E+00 0.635E-03 0.317E+02   0.312E+00 0.931E-01 0.413E+00   0.566E-05 0.708E-04 0.685E-04
   0.481E+00 0.509E-01 0.325E+02   -.421E+00 0.418E-01 -.324E+02   0.124E+00 -.104E+00 -.257E+00   0.858E-05 -.527E-04 0.894E-04
   -.110E+02 -.770E+00 0.918E+02   0.976E+01 0.117E+01 -.906E+02   -.235E+00 -.322E+00 0.114E+00   0.144E-04 0.662E-05 0.107E-03
   0.582E+02 0.307E+02 0.508E+02   -.958E+02 -.545E+02 -.512E+02   -.301E+02 -.173E+02 -.826E+00   -.849E-05 0.115E-03 -.509E-04
   0.475E+02 0.211E+02 0.329E+02   -.482E+02 -.195E+02 -.300E+02   -.173E+02 -.953E+01 0.194E+01   0.267E-05 0.707E-04 0.286E-04
   -.383E+01 -.980E+00 -.211E+02   0.377E+01 0.792E+00 0.204E+02   0.240E+00 0.497E+00 0.135E+01   0.177E-04 0.120E-03 -.100E-03
   -.643E+01 0.176E+02 0.719E+02   0.543E+01 -.219E+02 -.851E+02   -.450E+01 -.138E+02 -.321E+02   -.278E-04 0.134E-03 -.500E-04
   0.331E+01 0.145E+01 0.397E+02   -.365E+01 -.828E+00 -.383E+02   0.124E+01 -.180E+00 0.525E+00   0.511E-05 0.690E-05 -.499E-04
   -.102E+01 0.823E+00 -.219E+02   0.194E+01 0.714E-01 0.225E+02   -.678E+00 -.724E+00 -.193E-01   -.921E-05 0.587E-07 -.100E-03
   -.325E+02 -.600E+00 0.510E+02   0.343E+02 -.380E+00 -.533E+02   0.870E+01 0.110E+01 -.117E+02   -.433E-05 0.175E-04 -.777E-04
   0.435E+02 -.185E+02 0.319E+02   -.446E+02 0.202E+02 -.308E+02   -.144E+02 0.556E+01 0.259E+01   -.119E-04 -.932E-04 0.217E-04
   -.383E+01 0.126E+01 -.203E+02   0.365E+01 -.863E+00 0.205E+02   0.424E+00 -.171E+00 0.886E+00   -.101E-04 -.125E-03 -.139E-03
   -.134E+02 -.132E+02 0.714E+02   0.735E+01 0.219E+02 -.809E+02   -.112E+01 0.118E+02 -.284E+02   -.296E-04 -.673E-04 -.684E-04
   0.305E+02 0.191E+02 -.652E+02   -.305E+02 -.269E+02 0.782E+02   -.582E+01 -.139E+02 0.297E+02   -.144E-05 -.112E-03 -.493E-04
   0.601E+01 -.141E+01 0.168E+02   -.564E+01 0.132E+01 -.166E+02   -.619E+00 -.739E-01 -.905E+00   0.412E-04 -.118E-03 -.145E-03
   -.695E+02 0.346E+02 -.354E+02   0.101E+03 -.532E+02 0.346E+02   0.424E+02 -.215E+02 -.292E+01   -.745E-04 -.121E-03 -.467E-04
[...]
   0.391E+01 0.221E+00 -.554E+01   -.354E+01 0.669E+00 0.456E+01   -.302E+00 -.763E+00 0.120E+01   0.113E-05 0.160E-03 -.107E-03
   0.137E+02 0.483E+01 0.886E+01   -.125E+02 -.483E+01 -.817E+01   -.193E+01 0.691E-01 -.182E+01   0.108E-06 0.165E-03 -.681E-04
   -.563E+02 -.307E+02 0.618E+02   0.812E+02 0.388E+02 -.647E+02   0.371E+02 0.231E+02 0.283E+01   -.367E-05 -.136E-03 -.151E-04
   0.407E+01 0.137E+01 -.496E+01   -.364E+01 -.628E+00 0.463E+01   -.666E+00 -.570E+00 0.569E+00   -.803E-06 -.130E-03 -.116E-03
   0.141E+02 -.629E+01 0.929E+01   -.118E+02 0.444E+01 -.773E+01   -.782E+00 0.371E+00 -.618E+00   0.547E-04 -.111E-03 -.711E-04
   -.274E+02 0.132E+02 -.179E+02   0.251E+02 -.104E+02 0.157E+02   0.263E+01 -.245E+01 0.258E+01   -.403E-04 0.656E-04 -.362E-04
   -.664E+01 -.229E+01 0.871E+01   0.570E+01 0.123E+01 -.833E+01   0.119E+01 0.878E+00 -.903E+00   -.642E-05 0.434E-04 -.977E-04
   0.613E+02 0.451E+02 -.592E+02   -.684E+02 -.875E+02 0.596E+02   -.235E+02 -.403E+02 -.693E+00   0.295E-04 0.700E-05 -.863E-04
   -.253E+02 -.978E+01 -.158E+02   0.242E+02 0.948E+01 0.147E+02   0.311E+01 0.122E+01 0.380E+01   0.168E-05 0.102E-03 -.877E-04
   -.604E+01 0.452E+00 0.910E+01   0.577E+01 -.116E+01 -.847E+01   0.162E+00 0.453E+00 -.985E+00   0.210E-04 0.992E-04 -.115E-03
   0.635E+02 -.467E+02 -.620E+02   -.683E+02 0.726E+02 0.601E+02   -.241E+02 0.388E+02 0.114E+01   0.358E-05 0.114E-03 0.866E-05
   -.412E+02 -.353E+01 -.344E+02   0.421E+02 0.930E+00 0.356E+02   0.990E+01 0.192E+01 0.118E+02   -.162E-04 -.131E-03 -.102E-03
   -.410E+01 -.445E+00 0.719E+01   0.466E+01 -.760E-01 -.648E+01   -.282E+00 0.201E+00 -.926E+00   -.280E-04 -.126E-03 -.145E-03
   0.290E+02 -.358E+00 -.521E+02   -.415E+04 0.669E+03 0.522E+02   0.175E+02 -.457E+01 -.126E+01   0.148E-03 -.114E-04 0.332E-04
   -.359E+02 0.369E+01 -.556E+01   0.455E-11 0.114E-12 -.163E-12   0.358E+02 -.372E+01 0.587E+01   0.455E-04 0.111E-03 -.384E-03

 POSITION                                       TOTAL-FORCE (eV/Angst)
      0.33197      7.29713      0.00000        18.566311      7.780114      0.865075
      3.16087      1.29612      2.00033         0.901065     -0.012279     -0.987990
      0.33197     11.29780      4.00067        -0.184605      0.026210      0.116667
      3.16087      5.29679      6.00100        -0.202051      0.163054     -0.343004
      0.33197     15.29846      8.00134        -0.503843     -1.879639     -4.161556
      3.16087      9.29746     10.00167        21.020276     91.000714     -3.017677
      0.33197     15.29846      0.00000       -68.082191     21.848709     36.221638
      3.16087      9.29746      2.00034         0.266180      0.065114      0.925550
      0.33197      3.29646      4.00067        -0.314814      0.139637     -0.049097
      3.16087     13.29813      6.00100         0.015082     -0.069600     -0.056819
      0.33197      7.29713      8.00134        -0.212832      0.466442     -0.726531
      3.16087      1.29612     10.00167         3.481591    -71.389896    -11.850942
      0.33197     11.29780      0.00000        23.657131     14.640996     43.113288
      3.16087      5.29679      2.00033        -0.278582     -0.458871      1.369564
      0.33197     15.29846      4.00067        -0.449533     -0.232927      0.116389
      3.16087      9.29746      6.00100        -0.072920     -0.088472     -0.118213
      0.33197      3.29646      8.00134        -0.559986      0.041702     -0.875501
      3.16087     13.29813     10.00167      4106.638702   -662.793609     -0.564213
      0.33197      3.29646      0.00000       -66.931650    -42.732004      0.175986
      3.16087     13.29813      2.00033        -0.255535     -0.169353      1.264830
      0.33197      7.29713      4.00067        -0.028016     -0.042700      0.305945
      3.16087      1.29612      6.00100         0.008426     -0.046126     -0.114878
      0.33197     11.29780      8.00134        -0.026240      1.363183     -5.321282
      3.16087      5.29679     10.00167         0.958574     -0.607889     -2.073792
      4.57532      9.29746      0.00000        -3.059333     -1.068319      2.405421
      1.74642      3.29646      2.00033         0.904108     -1.333864      4.730359
      4.57532     13.29813      4.00067         0.056918      0.035676      0.183896
      1.74642      7.29713      6.00100         0.016386      0.042714     -0.232057
      4.57532      1.29612      8.00134         0.130958      0.446500     -1.347533
      1.74642     11.29780     10.00167        18.397038     10.191491     -0.496822
      4.57532      1.29612      0.00000      4106.038228   -663.544512      0.706387
      1.74642     11.29780      2.00033         0.253706      0.081414      0.576131
      4.57532      5.29679      4.00067         0.079282      0.099554      0.141490
      1.74642     15.29847      6.00100         0.482663      0.095125     -0.158232
      4.57532      9.29746      8.00134         0.375518      0.034144     -1.282147
      1.74642      3.29646     10.00167       -69.599741     20.369586    -36.694723
      4.57532     13.29813      0.00000        15.727199     89.273299      2.261588
      1.74642      7.29713      2.00033         0.111084     -0.346439      0.622510
      4.57532      1.29612      4.00067        -0.052095      0.047082      0.073185
      1.74642     11.29780      6.00100         0.248239     -0.026064     -0.080941
      4.57532      5.29679      8.00134        -0.565625     -0.261631     -2.079871
      1.74642     15.29846     10.00167        22.608590     12.352749    -42.667377
      4.57532      5.29679      0.00000        -1.323827    -71.775957     12.254675
      1.74642     15.29846      2.00034         1.377034      1.873827      4.943764
      4.57532      9.29746      4.00067         0.070325     -0.085314      0.189160
      1.74642      3.29646      6.00100         0.184286     -0.010901     -0.086498
      4.57532     13.29813      8.00134        -1.482017      0.078551      1.386024
      1.74642      7.29713     10.00167       -67.746401    -41.095963     -1.298732
      0.10069     10.66845     10.00167       -17.946255     -7.985082      4.814852
      2.92959     10.66845     12.71718         0.176359      0.309382      0.668508
      0.10069     10.66845     15.43267        -5.503884    -18.098440    -45.368065
      0.10069      5.33423     10.00167         0.894669      0.444439      2.012149
      2.92959      5.33423     12.71718         0.239010      0.171297      0.493629
      0.10069      5.33423     15.43267        10.532967      0.125091    -14.070725
      0.10069      0.00000     10.00167       -15.433423      7.262245      3.678542
      2.92959      0.00000     12.71718         0.246440      0.224691      1.088073
      0.10069      0.00000     15.43267        -7.182605     20.436977    -37.964932
      1.51514     14.66912     11.35942        -5.766125    -21.831061     42.605195
      4.34404     14.66912     14.07492        -0.249218     -0.158706     -0.750106
      1.51514     14.66912      0.00000        74.109901    -40.141689     -3.674511
[...]
      2.92959      8.00134     10.00167        48.618997    -50.566004      1.113168
      0.10069      8.00134     12.71718         0.069708      0.127484      0.224292
      2.92959      8.00134     15.43267        -0.785543      0.069723     -1.137254
      2.92959      2.66711     10.00167        62.042722     31.292540     -0.094287
      0.10069      2.66711     12.71718        -0.231981      0.170056      0.233881
      2.92959      2.66711     15.43267         1.542172     -1.478985      0.941759
      4.34404     12.00201     11.35942         0.280110      0.407719      0.354589
      1.51514     12.00201     14.07492         0.252703     -0.173210     -0.527432
      4.34404     12.00201      0.00000       -30.599359    -82.686374     -0.223551
      4.34404      6.66778     11.35942         1.959602      0.924348      2.661268
      1.51514      6.66778     14.07492        -0.105303     -0.253022     -0.355950
      4.34404      6.66778      0.00000       -28.859880     64.595924     -0.742798
      4.34404      1.33356     11.35942        10.848821     -0.678048     12.949400
      1.51514      1.33356     14.07492         0.278900     -0.319597     -0.217575
      4.34404      1.33356      0.00000     -4105.645058    664.387115     -1.148248
    total drift:                               -0.004471     -0.032595      0.311588

  FREE ENERGIE OF THE ION-ELECTRON SYSTEM (eV)
  free  energy   TOTEN  =      1478.92440292 eV

  energy  without entropy=     1478.92639141  energy(sigma->0) =     1478.92539717