 vasp.6.4.3 19Mar24 (build Oct 22 2024 11:23:12) complex

 executed on             LinuxIFC date 2025.06.04  01:19:47

 INCAR:
   SYSTEM = Si and Ge interface calculation
   ISTART = 0
   ICHARG = 2
   LWAVE = .FALSE.
   LREAL = AUTO
   ENCUT = 700
   ENAUG = 900
   ADDGRID = .TRUE.
   LMAXMIX = 6
   LASPH = .TRUE.
   LMIXTAU = .TRUE.
   NCORE = 16
   NELM = 100
   NBANDS = 144
   EDIFF = 1d-7
   AMIX = 0.6
   ISMEAR = 0
   SIGMA = 0.01
   NELECT = 240
   ISPIN = 2
   NUPDOWN = 1
   LVTOT = .FALSE.
   LVHAR = .TRUE.

 POTCAR:    PAW_PBE Si 05Jan2001
 POTCAR:    PAW_PBE Ge 05Jan2001
|           W    W    AA    RRRRR   N    N  II  N    N   GGGG   !!!           |
|           W    W   A  A   R    R  NN   N  II  NN   N  G    G  !!!           |
|           W    W  A    A  R    R  N N  N  II  N N  N  G       !!!           |
|           W WW W  AAAAAA  RRRRR   N  N N  II  N  N N  G  GGG   !            |
|           WW  WW  A    A  R   R   N   NN  II  N   NN  G    G                |
|           W    W  A    A  R    R  N    N  II  N    N   GGGG   !!!           |
|     You use a magnetic or noncollinear calculation, but did not specify     |
|     the initial magnetic moment with the MAGMOM tag. Note that a            |
|     default of 0.017 will be used for all atoms. This ferromagnetic         |
|     setup may break the symmetry of the crystal, in particular it may       |
|     rule out finding an antiferromagnetic solution. Thence, we              |
|     recommend setting the initial magnetic moment manually or verifying     |
|     carefully that this magnetic setup is desired.                          |

 POTCAR:    PAW_PBE Si 05Jan2001
   VRHFIN =Si: s2p2

   TITEL  = PAW_PBE Si 05Jan2001
   POMASS =   28.085; ZVAL   =    4.000    mass and valenz
   ENMAX  =  245.345; ENMIN  =  184.009 eV

 POTCAR:    PAW_PBE Ge 05Jan2001
   VRHFIN =Ge: s2p2

   TITEL  = PAW_PBE Ge 05Jan2001
   POMASS =   72.610; ZVAL   =    4.000    mass and valenz
   ENMAX  =  173.807; ENMIN  =  130.355 eV

 Optimization of the real space projectors (new method)

 maximal supplied QI-value         = 19.84
 optimisation between [QCUT,QGAM] = [ 13.49, 26.99] = [ 50.98,203.92] Ry
 Optimized for a Real-space Cutoff    1.07 Angstroem

   l    n(q)    QCUT    max X(q) W(low)/X(q) W(high)/X(q)  e(spline)
   0      9    13.493   159.560    0.22E-03    0.15E-03    0.72E-07
   0      9    13.493   115.863    0.21E-03    0.15E-03    0.71E-07
   1      8    13.493    88.339    0.15E-03    0.11E-03    0.13E-06
   1      8    13.493    48.592    0.15E-03    0.10E-03    0.13E-06
 Optimization of the real space projectors (new method)

 maximal supplied QI-value         = 16.25
 optimisation between [QCUT,QGAM] = [ 13.49, 26.98] = [ 50.95,203.80] Ry
 Optimized for a Real-space Cutoff    1.25 Angstroem

   l    n(q)    QCUT    max X(q) W(low)/X(q) W(high)/X(q)  e(spline)
   0     10    13.489    65.336    0.91E-04    0.11E-03    0.34E-06
   0     10    13.489    52.220    0.89E-04    0.11E-03    0.34E-06
   1     10    13.489    36.409    0.22E-03    0.27E-03    0.14E-06
   1     10    13.489    21.334    0.21E-03    0.27E-03    0.14E-06
   2      9    13.489     4.673    0.11E-03    0.12E-03    0.19E-06
  PAW_PBE Si 05Jan2001                  :
  PAW_PBE Ge 05Jan2001                  :

 POSCAR: Si+Ge
  positions in direct lattice

 exchange-correlation table for PE
   RHO(1)=    0.500       N(1)  =     2000
   RHO(2)=  100.500       N(2)  =     4000

 ion  position               nearest neighbor table
   1  0.109  0.924  0.000-  30 1.95  54 1.96  21 2.35   8 2.35  39 2.75  35 2.94
   2  0.609  0.574  0.076-  60 1.15  22 2.35   9 2.35  19 2.35  51 2.72
   3  0.109  0.224  0.151-   7 2.35  23 2.35  20 2.35  10 2.35  57 2.62
   4  0.609  0.874  0.227-  49 1.98   8 2.35  24 2.35  21 2.35  11 2.35  54 2.76
   5  0.109  0.524  0.302-  46 2.35   9 2.35  22 2.35  12 2.35  31 2.58
   6  0.609  0.174  0.378-  43 0.63  52 2.01  10 2.35  23 2.35  34 2.92
   7  0.859  0.174  0.000-  57 1.35   3 2.35  14 2.35  48 2.42  39 2.69
   8  0.359  0.824  0.076-  36 1.72   4 2.35   1 2.35  15 2.35  45 2.40  54 2.74
   9  0.859  0.474  0.151-   5 2.35  13 2.35  16 2.35   2 2.35  60 2.55  42 2.94
  10  0.359  0.124  0.227-  43 1.99  14 2.35   6 2.35  17 2.35   3 2.35  39 2.76
  11  0.859  0.774  0.302-  31 2.25  49 2.32  18 2.35  15 2.35   4 2.35
  12  0.359  0.424  0.378-  46 1.43  37 1.55  16 2.35   5 2.35  28 2.55
  13  0.109  0.424  0.000-  42 0.80  33 2.25   9 2.35  20 2.35  51 2.82
  14  0.609  0.074  0.076-  39 2.13  10 2.35  21 2.35   7 2.35  48 2.79  54 3.02
  15  0.109  0.724  0.151-  36 1.91  19 2.35  11 2.35   8 2.35  22 2.35  31 2.85
  16  0.609  0.374  0.227-  12 2.35  20 2.35   9 2.35  23 2.35  46 2.75  28 2.84
  17  0.109  0.024  0.302-  25 1.16  21 2.35  24 2.35  10 2.35  34 2.57
  18  0.609  0.674  0.378-  31 2.14  55 2.31  11 2.35  22 2.35  40 2.70  49 2.71  50 2.90
  19  0.859  0.674  0.000-  27 1.62  60 1.75  15 2.35   2 2.35  36 2.45
  20  0.359  0.324  0.076-  42 1.82  16 2.35  13 2.35   3 2.35  57 2.67  33 3.00
  21  0.859  0.974  0.151-  54 2.11  17 2.35   1 2.35  14 2.35   4 2.35  25 2.71
  22  0.359  0.624  0.227-  18 2.35   2 2.35   5 2.35  15 2.35  31 2.68  46 2.91
  23  0.859  0.274  0.302-  28 1.48   6 2.35   3 2.35  16 2.35  52 2.40  43 2.88
  24  0.359  0.924  0.378-  49 1.82  25 2.29   4 2.35  17 2.35  58 2.56
  25  0.000  0.994  0.378-  17 1.16  24 2.29  58 2.43  34 2.43  21 2.71
  26  0.000  0.828  0.627-  58 2.43  35 2.43  40 2.43  59 2.43
  27  0.000  0.661  0.876-  19 1.62  41 2.43  59 2.43  36 2.43  60 2.43
  28  0.000  0.328  0.378-  23 1.48  37 2.43  52 2.43  12 2.55  16 2.84
  29  0.000  0.161  0.627-  34 2.43  52 2.43  38 2.43  53 2.43
  30  0.000  0.994  0.876-   1 1.95  35 2.43  53 2.43  39 2.43  54 2.43
  31  0.000  0.661  0.378-  18 2.14  11 2.25  55 2.43  40 2.43   5 2.58  22 2.68  15 2.85
  32  0.000  0.494  0.627-  37 2.43  41 2.43  56 2.43  55 2.43
  33  0.000  0.328  0.876-  13 2.25  38 2.43  57 2.43  42 2.43  56 2.43  20 3.00
  34  0.250  0.078  0.502-  29 2.43  44 2.43  43 2.43  25 2.43  17 2.57   6 2.92
  35  0.250  0.911  0.751-  26 2.43  45 2.43  30 2.43  44 2.43   1 2.94
  36  0.250  0.744  0.000-   8 1.72  15 1.91  45 2.43  27 2.43  19 2.45
  37  0.250  0.411  0.502-  12 1.55  28 2.43  47 2.43  32 2.43  46 2.43
  38  0.250  0.244  0.751-  29 2.43  48 2.43  33 2.43  47 2.43
  39  0.250  0.078  0.000-  14 2.13  30 2.43  48 2.43   7 2.69   1 2.75  10 2.76
  40  0.250  0.744  0.502-  50 2.43  26 2.43  49 2.43  31 2.43  18 2.70
  41  0.250  0.578  0.751-  51 2.43  32 2.43  27 2.43  50 2.43
  42  0.250  0.411  0.000-  13 0.80  20 1.82  33 2.43  51 2.43   9 2.94
  43  0.500  0.161  0.378-   6 0.63  10 1.99  34 2.43  52 2.43  23 2.88
  44  0.500  0.994  0.627-  58 2.43  34 2.43  53 2.43  35 2.43
  45  0.500  0.828  0.876-   8 2.40  35 2.43  59 2.43  36 2.43  54 2.43
  46  0.500  0.494  0.378-  12 1.43   5 2.35  37 2.43  55 2.43  16 2.75  22 2.91
  47  0.500  0.328  0.627-  52 2.43  37 2.43  38 2.43  56 2.43
  48  0.500  0.161  0.876-   7 2.42  53 2.43  38 2.43  39 2.43  57 2.43  14 2.79
  49  0.500  0.828  0.378-  24 1.82   4 1.98  11 2.32  58 2.43  40 2.43  18 2.71
  50  0.500  0.661  0.627-  55 2.43  40 2.43  41 2.43  59 2.43  18 2.90
  51  0.500  0.494  0.876-  41 2.43  56 2.43  60 2.43  42 2.43   2 2.72  13 2.82
  52  0.750  0.244  0.502-   6 2.01  23 2.40  47 2.43  29 2.43  43 2.43  28 2.43
  53  0.750  0.078  0.751-  48 2.43  44 2.43  30 2.43  29 2.43
  54  0.750  0.911  0.000-   1 1.96  21 2.11  30 2.43  45 2.43   8 2.74   4 2.76  14 3.02
  55  0.750  0.578  0.502-  18 2.31  50 2.43  31 2.43  32 2.43  46 2.43
  56  0.750  0.411  0.751-  51 2.43  32 2.43  33 2.43  47 2.43
  57  0.750  0.244  0.000-   7 1.35  33 2.43  48 2.43   3 2.62  20 2.67
  58  0.750  0.911  0.502-  26 2.43  44 2.43  25 2.43  49 2.43  24 2.56
  59  0.750  0.744  0.751-  45 2.43  27 2.43  26 2.43  50 2.43
  60  0.750  0.578  0.000-   2 1.15  19 1.75  51 2.43  27 2.43   9 2.55

  LATTYP: Found a simple orthorhombic cell.
 ALAT       =     5.4310002330
 B/A-ratio  =     2.0927708557
 C/A-ratio  =     3.1622778362

  Lattice vectors:

 A1 = (  -5.4310002330,   0.0000000000,   0.0000000000)
 A2 = (   0.0000000000,   0.0000002760,  11.3658390050)
 A3 = (   0.0000000000,  17.1743316650,   0.0000000000)

Analysis of symmetry for initial positions (statically):
 Subroutine PRICEL returns:
 Original cell was already a primitive cell.

 Routine SETGRP: Setting up the symmetry group for a
 simple orthorhombic supercell.

 Subroutine GETGRP returns: Found  1 space group operations
 (whereof  1 operations were pure point group operations)
 out of a pool of  8 trial point group operations.

The static configuration has the point symmetry C_1 .

Analysis of symmetry for dynamics (positions and initial velocities):
 Subroutine PRICEL returns:
 Original cell was already a primitive cell.

[...]

The dynamic configuration has the point symmetry C_1 .

Analysis of structural, dynamic, and magnetic symmetry:
 Subroutine PRICEL returns:
 Original cell was already a primitive cell.

 Routine SETGRP: Setting up the symmetry group for a
 simple orthorhombic supercell.

 Subroutine GETGRP returns: Found  1 space group operations
 (whereof  1 operations were pure point group operations)
 out of a pool of  8 trial point group operations.

The overall configuration has the point symmetry C_1 .

 Subroutine INISYM returns: Found  1 space group operations
 (whereof  1 operations are pure point group operations),
 and found     1 'primitive' translations

                                     Primitive cell

  volume of cell :    1060.1350

  direct lattice vectors                    reciprocal lattice vectors
     5.431000233  0.000000000  0.000000000     0.184128145  0.000000000  0.000000000
     0.000000000 17.174331665  0.000000000     0.000000000  0.058226429 -0.000000001
     0.000000000  0.000000276 11.365839005     0.000000000  0.000000000  0.087982946

  length of vectors
     5.431000233 17.174331665 11.365839005     0.184128145  0.058226429  0.087982946

  position of ions in fractional coordinates (direct lattice)
     0.108862542  0.923796177  0.000000000
     0.608862519  0.573796093  0.075552478
     0.108862400  0.223796010  0.151104987
     0.608862519  0.873795867  0.226657510
     0.108862638  0.523795724  0.302210033
     0.608862638  0.173795700  0.377762467
     0.858862579  0.173796192  0.000000012
     0.358862519  0.823796093  0.075552508
     0.858862400  0.473796010  0.151105016
     0.358862638  0.123795867  0.226657480
     0.858862400  0.773795724  0.302210033
     0.358862638  0.423795581  0.377762526
     0.108862542  0.423796177  0.000000025
     0.608862519  0.073796093  0.075552516
     0.108862400  0.723796010  0.151105016
     0.608862519  0.373795927  0.226657525
     0.108862638  0.023795724  0.302210033
     0.608862638  0.673795700  0.377762496
     0.858862579  0.673796177  0.000000039
     0.358862519  0.323796093  0.075552516
     0.858862400  0.973796010  0.151105016
     0.358862638  0.623795867  0.226657555
     0.858862400  0.273795784  0.302210033
     0.358862638  0.923795700  0.377762556
[...]
     38      -1.9351      1.00000
     39      -1.7840      1.00000
     40      -1.6377      1.00000
     41      -1.5599      1.00000
     42      -1.3783      1.00000
     43      -1.2599      1.00000
     44      -1.0831      1.00000
     45      -1.0371      1.00000
     46      -0.9683      1.00000
     47      -0.7186      1.00000
     48      -0.5975      1.00000
     49      -0.4504      1.00000
     50      -0.3261      1.00000
     51      -0.2369      1.00000
     52      -0.1749      1.00000
     53      -0.0170      1.00000
     54       0.0766      1.00000
     55       0.1514      1.00000
     56       0.4180      1.00000
     57       0.5094      1.00000
     58       0.5910      1.00000
     59       0.6932      1.00000
     60       0.8315      1.00000
[...]
    130       7.4534      0.00000
    131       7.5053      0.00000
    132       7.5553      0.00000
    133       7.5887      0.00000
    134       7.6638      0.00000
    135       7.7988      0.00000
    136       7.9129      0.00000
    137       7.9705      0.00000
    138       8.0563      0.00000
    139       8.0821      0.00000
    140       8.1311      0.00000
    141       8.1624      0.00000
    142       8.3122      0.00000
    143       8.3532      0.00000
    144       8.4503      0.00000

 soft charge-density along one line, spin component           1
         0         1         2         3         4         5         6         7         8         9
 total charge-density along one line

 soft charge-density along one line, spin component           2
         0         1         2         3         4         5         6         7         8         9
 total charge-density along one line

------------------------ aborting loop because EDIFF is reached ----------------------------------------

  FORCE on cell =-STRESS in cart. coord.  units (eV):
  Direction    XX          YY          ZZ          XY          YZ          ZX
  Alpha Z   435.15280   435.15280   435.15280
  Ewald   -1702.92911 -1928.80842 -2484.14546   339.68165   -98.05086  -115.08698
  Hartree   410.80841   465.16403   -37.26572    64.57176   -24.25197    -0.87091
  E(xc)    -859.36918  -859.63391  -859.07244    -1.64497     0.07520     1.22534
  Local   -1260.78129 -1565.25425  -515.32511  -285.10710    84.27115    -7.83252
  n-local  1943.12622  2011.10609  2002.34219    18.61983     0.67086    -6.77646
  augment   -93.89365  -105.48005  -103.64197     5.66562    -3.32187   -12.02681
  Kinetic  2028.64121  2033.80402  2042.47755   -14.86733     6.63144     6.42115
  Fock        0.00000     0.00000     0.00000     0.00000     0.00000     0.00000
  Total     900.75542   486.05032   480.52185   126.91946   -33.97605  -134.94720
  in kB    1361.30769   734.56570   726.21055   191.81282   -51.34785  -203.94510

 VOLUME and BASIS-vectors are now :
  energy-cutoff  :      700.00
  volume of cell :     1060.13
      direct lattice vectors                 reciprocal lattice vectors
     5.431000233  0.000000000  0.000000000     0.184128145  0.000000000  0.000000000
     0.000000000 17.174331665  0.000000000     0.000000000  0.058226429 -0.000000001
     0.000000000  0.000000276 11.365839005     0.000000000  0.000000000  0.087982946

  length of vectors
     5.431000233 17.174331665 11.365839005     0.184128145  0.058226429  0.087982946

 FORCES acting on ions
    electron-ion (+dipol)            ewald-force                    non-local-force                 convergence-correction
   -.426E+02 0.125E+02 0.185E+02   0.412E+02 -.142E+02 -.176E+02   0.116E+02 -.318E+01 0.590E+01   0.284E-04 -.164E-03 0.780E-04
   0.549E+02 0.478E+01 -.233E+02   -.118E+03 -.105E+02 0.926E+02   -.281E+02 -.247E+01 0.336E+02   -.352E-04 -.130E-03 -.296E-04
   -.979E+01 0.207E+00 -.206E+01   0.857E+01 -.137E+01 0.356E+01   0.206E+01 0.103E+01 -.108E+01   -.397E-04 0.312E-03 -.147E-03
   -.552E+01 -.108E+02 0.214E+02   0.694E+01 0.106E+02 -.223E+02   0.937E+00 0.375E+01 -.668E+01   -.113E-04 -.163E-03 -.426E-04
   0.252E+02 -.377E+01 -.139E+02   -.266E+02 0.432E+01 0.138E+02   -.981E-01 0.343E-01 -.884E+00   -.721E-05 -.133E-03 -.182E-03
   -.164E+02 0.229E+02 -.221E+02   0.522E+03 0.170E+03 0.257E+02   0.620E+01 -.580E+01 -.876E+01   0.145E-03 0.190E-03 -.117E-03
   -.384E+02 0.531E+02 0.392E+02   0.530E+02 -.824E+02 -.382E+02   0.224E+02 -.458E+02 0.138E-01   -.432E-04 0.421E-03 0.704E-04
   -.207E+02 -.306E+02 -.120E+02   0.207E+02 0.325E+02 0.142E+02   0.736E+01 0.159E+02 0.101E+02   0.295E-04 -.381E-04 0.107E-03
   -.953E+00 0.537E+01 -.644E+01   0.167E+01 -.704E+01 0.660E+01   -.973E+00 0.505E+00 0.721E+00   0.838E-04 -.302E-03 -.243E-03
   0.134E+02 0.938E+01 0.247E+02   -.116E+02 -.765E+01 -.220E+02   -.364E+01 -.330E+01 -.762E+01   -.416E-04 0.173E-03 -.251E-03
   -.200E+02 -.166E+02 -.109E+02   0.211E+02 0.179E+02 0.112E+02   -.558E-01 0.629E+00 -.202E+01   -.113E-04 0.181E-04 -.131E-03
   0.582E+01 0.523E+02 0.107E+02   -.111E+02 -.676E+02 -.179E+02   -.115E+02 -.315E+02 -.317E+02   0.422E-04 -.169E-03 -.173E-03
   0.346E+02 -.308E+02 0.356E+02   -.333E+03 0.119E+03 -.340E+02   -.221E+02 0.550E+01 -.773E+00   0.137E-03 -.293E-03 0.534E-04
   -.856E+01 0.138E+02 0.109E+02   0.893E+01 -.133E+02 -.993E+01   0.320E+01 -.126E+01 0.141E+01   0.239E-04 0.210E-03 0.302E-04
   0.140E+02 0.273E+00 -.275E+02   -.147E+02 -.175E+01 0.279E+02   -.326E+01 -.565E+00 0.892E+01   -.135E-04 0.634E-04 0.492E-04
   -.568E-01 0.393E+01 0.353E+01   -.479E+00 -.496E+01 -.410E+01   0.612E-01 0.390E+00 -.112E+00   -.136E-04 -.152E-03 -.254E-03
   -.161E+02 -.289E+02 0.260E+02   0.583E+02 0.688E+02 -.933E+02   0.268E+02 0.202E+02 -.349E+02   0.390E-04 0.443E-04 -.148E-03
   0.203E+02 -.276E+00 -.296E+02   -.208E+02 0.186E+00 0.285E+02   -.414E+01 0.151E+01 -.735E+00   0.799E-05 0.122E-03 -.131E-03
   0.266E+02 -.551E+02 -.535E+01   -.272E+02 0.587E+02 0.843E+01   -.934E+01 0.175E+02 0.246E+02   -.161E-04 0.325E-04 0.128E-03
   -.276E+02 0.438E+02 0.149E+01   0.282E+02 -.421E+02 -.160E+01   0.460E+01 -.129E+02 0.658E+01   -.117E-03 0.204E-03 -.132E-03
   -.138E+01 -.129E+02 -.156E+02   0.117E+01 0.136E+02 0.145E+02   0.695E+00 0.173E+01 0.427E+01   -.466E-04 -.101E-03 0.156E-04
   -.422E+01 0.438E+00 0.345E+01   0.448E+01 -.344E+00 -.455E+01   0.397E+00 -.319E+00 0.789E+00   -.113E-05 0.777E-04 -.135E-03
   0.134E+02 0.292E+02 0.242E+02   -.197E+02 -.374E+02 -.345E+02   -.212E+02 -.253E+02 -.219E+02   0.596E-04 0.190E-03 -.284E-03
   0.161E+02 -.212E+02 -.370E+02   -.137E+02 0.207E+02 0.391E+02   -.685E+01 0.132E+02 -.212E+01   0.828E-04 -.142E-03 -.892E-04
   0.450E+02 0.109E+02 -.671E+02   -.977E+02 -.535E+02 0.139E+03   -.199E+02 -.167E+02 0.289E+02   -.125E-03 -.914E-04 0.103E-04
   0.326E+00 0.839E+00 -.197E+02   -.463E+00 -.645E+00 0.194E+02   0.597E-01 -.609E-01 0.387E+00   0.196E-04 -.502E-04 -.242E-04
   -.299E+02 0.795E+01 0.937E+02   0.361E+02 -.953E+01 -.105E+03   0.872E+01 -.259E+01 -.173E+02   0.496E-04 -.296E-04 0.537E-04
   -.286E+02 -.265E+02 -.571E+02   0.430E+02 0.437E+02 0.720E+02   0.139E+02 0.166E+02 0.160E+02   -.105E-04 -.245E-04 -.207E-03
   -.299E+01 0.851E+00 -.197E+02   0.290E+01 -.529E+00 0.198E+02   0.106E+00 -.251E+00 0.134E+00   -.123E-04 0.148E-03 0.544E-04
   0.853E+01 -.220E+02 0.746E+02   -.875E+01 0.234E+02 -.767E+02   -.187E+01 0.432E+01 -.538E+01   0.633E-05 -.164E-06 0.324E-04
   -.217E+02 0.117E+02 -.406E+02   0.227E+02 -.119E+02 0.401E+02   0.380E+01 -.213E+01 0.118E+01   -.159E-04 0.122E-03 -.120E-03
   0.238E+01 -.129E+01 -.201E+02   -.290E+01 0.118E+01 0.205E+02   0.595E+00 -.140E+00 -.365E-01   -.112E-04 -.117E-03 0.882E-04
   0.117E+02 0.144E+02 0.657E+02   -.122E+02 -.137E+02 -.658E+02   -.991E+00 -.167E+01 -.218E+01   0.772E-04 0.116E-03 0.348E-03
   0.527E+01 -.591E+01 -.629E+02   -.475E+01 0.648E+01 0.639E+02   0.567E+00 0.576E+00 0.324E+00   0.244E-04 0.805E-04 0.669E-04
   -.344E+01 0.479E+00 0.268E+02   0.310E+01 -.258E+00 -.271E+02   0.209E+00 -.272E+00 -.354E+00   -.187E-04 -.822E-04 0.514E-04
   -.144E+02 0.253E+02 0.746E+02   0.131E+02 -.320E+02 -.807E+02   -.421E+00 -.855E+01 -.130E+02   0.260E-04 0.144E-04 0.860E-04
   0.233E+02 0.127E+02 -.979E+02   -.309E+02 -.161E+02 0.117E+03   -.913E+01 -.403E+01 0.212E+02   0.482E-05 -.140E-03 -.547E-04
   -.131E+01 0.790E-01 0.210E+02   0.162E+01 -.497E+00 -.212E+02   -.381E-01 0.442E+00 -.124E+00   -.306E-05 0.146E-03 0.176E-03
   0.976E+01 0.221E+01 0.387E+02   -.109E+02 -.163E+01 -.382E+02   -.246E+01 0.630E-01 -.154E+01   -.728E-05 0.203E-03 0.347E-04
   0.863E+01 -.367E+01 -.516E+02   -.837E+01 0.355E+01 0.521E+02   -.602E+00 -.433E+00 0.283E+00   -.829E-05 0.456E-04 -.958E-04
   -.899E+00 -.336E+00 0.193E+02   0.119E+01 0.560E+00 -.195E+02   -.354E+00 0.227E-01 0.261E+00   -.842E-05 -.739E-04 0.147E-03
   -.306E+02 -.231E+02 0.406E+02   0.326E+03 -.579E+02 -.409E+02   0.214E+02 0.513E+00 -.444E+01   -.155E-03 -.213E-03 0.845E-04
   0.245E+02 0.480E+01 -.474E+02   -.522E+03 -.191E+03 0.479E+02   -.143E+02 -.349E+01 0.499E+01   -.106E-03 0.103E-03 -.817E-04
   -.274E+01 -.257E+01 -.251E+02   0.310E+01 0.232E+01 0.249E+02   -.245E+00 0.146E+00 0.299E+00   0.308E-04 0.413E-04 -.438E-04
   -.112E+02 0.296E+01 0.611E+02   0.118E+02 -.245E+01 -.622E+02   0.131E+00 -.252E+00 -.760E+00   0.265E-05 -.854E-04 0.124E-03
   -.480E+02 -.452E+02 -.325E+02   0.675E+02 0.731E+02 0.325E+02   0.165E+02 0.263E+02 -.527E+00   0.311E-04 -.162E-03 -.113E-03
   -.344E+00 0.124E+01 -.234E+02   0.634E+00 -.135E+01 0.237E+02   -.335E+00 0.184E+00 0.169E-01   -.300E-04 -.526E-04 0.813E-04
   0.173E+02 -.309E+01 0.605E+02   -.186E+02 0.255E+01 -.610E+02   -.513E+00 0.397E+00 -.160E+01   0.373E-04 0.313E-03 0.115E-03
   0.118E+02 0.353E+02 -.515E+02   -.110E+02 -.400E+02 0.538E+02   0.905E+00 -.115E+02 0.501E+01   0.359E-05 -.753E-04 -.157E-03
   0.332E+01 0.119E+01 -.283E+02   -.339E+01 -.995E+00 0.284E+02   -.673E-01 -.159E+00 0.598E+00   -.387E-05 0.189E-04 0.344E-04
   -.237E+01 -.585E+00 0.553E+02   0.222E+01 -.376E+00 -.560E+02   0.333E-01 0.114E+00 -.441E+00   -.110E-03 -.264E-03 0.243E-03
   -.137E+02 -.197E+02 -.856E+02   0.124E+02 0.184E+02 0.857E+02   0.286E+01 0.458E+01 0.654E+01   0.589E-04 0.195E-03 0.888E-04
   0.973E+00 0.310E+01 0.240E+02   -.126E+01 -.316E+01 -.244E+02   0.172E+00 0.209E+00 0.455E-01   0.466E-05 0.165E-03 0.198E-04
   0.360E+02 0.177E+02 0.505E+02   -.373E+02 -.185E+02 -.504E+02   -.766E+01 -.273E+01 -.343E+01   -.191E-04 -.183E-03 0.825E-04
   -.878E+01 0.158E+02 -.578E+02   0.826E+01 -.165E+02 0.584E+02   0.794E+00 -.758E+00 0.122E+01   -.982E-05 -.200E-04 -.226E-04
   0.240E+01 0.621E+00 0.212E+02   -.263E+01 -.545E+00 -.211E+02   0.207E+00 -.141E+00 -.534E+00   0.485E-04 -.140E-03 0.240E-03
   0.294E+02 -.549E+02 0.287E+02   -.511E+02 0.986E+02 -.277E+02   -.151E+02 0.317E+02 -.796E+00   0.525E-04 0.198E-03 0.631E-04
   -.113E+02 -.107E+01 -.555E+02   0.123E+02 0.186E+01 0.564E+02   0.159E-01 -.237E+00 0.120E+00   -.767E-05 -.594E-04 -.984E-04
   0.221E+01 -.435E+01 0.230E+02   -.190E+01 0.391E+01 -.234E+02   -.148E+00 0.286E+00 -.306E+00   -.458E-05 -.824E-05 0.859E-04
   -.138E+02 0.325E+02 0.640E+02   0.788E+02 -.324E+02 -.140E+03   0.195E+02 -.893E+01 -.260E+02   0.246E-04 -.180E-03 0.566E-04
   0.852E+01 0.292E+02 0.136E+02   -.270E-12 0.639E-13 -.171E-12   -.845E+01 -.291E+02 -.136E+02   0.117E-03 0.130E-03 -.506E-03

 POSITION                                       TOTAL-FORCE (eV/Angst)
      0.59123     15.86558      0.00000        10.244432     -4.861848      6.798818
      3.30673      9.85456      0.85872       -91.309915     -8.158587    102.947575
      0.59123      3.84355      1.71743         0.843065     -0.126421      0.422286
      3.30673     15.00686      2.57615         2.358436      3.523801     -7.583557
      0.59123      8.99584      3.43487        -1.551738      0.573904     -0.931587
      3.30673      2.98483      4.29359       512.157693    187.357773     -5.158384
      4.66448      2.98483      0.00000        37.039149    -75.095881      1.066265
      1.94898     14.14815      0.85872         7.400838     17.727653     12.296625
      4.66448      8.13713      1.71744        -0.254934     -1.171799      0.869687
      1.94898      2.12611      2.57615        -1.857305     -1.562508     -4.883754
      4.66448     13.28942      3.43487         1.074980      1.868107     -1.669936
      1.94898      7.27841      4.29359       -16.795603    -46.814024    -38.850084
      0.59123      7.27842      0.00000      -320.417448     93.545368      0.876566
      3.30673      1.26740      0.85872         3.563072     -0.806885      2.378041
      0.59123     12.43071      1.71744        -4.023764     -2.045591      9.290897
      3.30673      6.41970      2.57615        -0.475503     -0.642180     -0.686773
      0.59123      0.40868      3.43487        69.086695     60.073537   -102.152549
      3.30673     11.57199      4.29359        -4.640546      1.423085     -1.793349
      4.66448     11.57200      0.00000        -9.972185     21.031742     27.688387
      1.94898      5.56098      0.85872         5.123890    -11.232875      6.463008
      4.66448     16.72430      1.71744         0.486264      2.362644      3.242437
      1.94898     10.71328      2.57615         0.659103     -0.226820     -0.306979
      4.66448      4.70226      3.43487       -27.537174    -33.480818    -32.286078
      1.94898     15.86557      4.29359        -4.529698     12.727861     -0.022050
      0.00000     17.07653      4.29359       -72.619212    -59.302778    100.636596
      0.00000     14.21414      7.12249        -0.078875      0.130776      0.127128
      0.00000     11.35175      9.95139        14.937970     -4.176911    -29.062092
      0.00000      5.62698      4.29359        28.246938     33.866618     31.010652
      0.00000      2.76459      7.12249         0.019079      0.069869      0.261842
      0.00000     17.07653      9.95139        -2.092200      5.694152     -7.548072
      0.00000     11.35175      4.29359         4.798089     -2.410737      0.648107
      0.00000      8.48937      7.12249         0.075682     -0.243345      0.333079
      0.00000      5.62698      9.95139        -1.507160     -0.941610     -2.255459
      1.35775      1.33340      5.70804         1.085571      1.146689      1.333130
      1.35775     15.64534      8.53694        -0.133995     -0.053286     -0.656301
      1.35775     12.78295      0.00000        -1.744927    -15.272036    -19.106935
      1.35775      7.05817      5.70804       -16.776586     -7.436566     40.002404
      1.35775      4.19578      8.53694         0.273621      0.022643     -0.269537
      1.35775      1.33339      0.00000        -3.599105      0.637054     -1.033619
      1.35775     12.78295      5.70804        -0.343418     -0.556930      0.804363
      1.35775      9.92056      8.53694        -0.063301      0.245153      0.112172
      1.35775      7.05817      0.00000       316.854216    -80.475093     -4.770583
      2.71550      2.76459      4.29359      -512.162323   -189.379697      5.477601
      2.71550     17.07653      7.12249         0.107773     -0.108681      0.126723
      2.71550     14.21414      9.95139         0.791477      0.251334     -1.857104
      2.71550      8.48937      4.29359        36.049432     54.127349     -0.446645
      2.71550      5.62698      7.12249        -0.045680      0.074644      0.390860
      2.71550      2.76459      9.95139        -1.803615     -0.141926     -2.159393
      2.71550     14.21414      4.29359         1.679671    -16.220023      7.251142
      2.71550     11.35175      7.12249        -0.144759      0.039635      0.660533
      2.71550      8.48937      9.95139        -0.113856     -0.848541     -1.184610
      4.07325      4.19578      5.70804         1.577615      3.222281      6.683569
      4.07325      1.33339      8.53694        -0.115516      0.145749     -0.316298
      4.07325     15.64534      0.00000        -9.010343     -3.590743     -3.373181
      4.07325      9.92056      5.70804         0.276056     -1.419347      1.782904
      4.07325      7.05817      8.53694        -0.024814     -0.066842     -0.458882
      4.07325      4.19578      0.00000       -36.707425     75.385723      0.229060
      4.07325     15.64534      5.70804         0.980639      0.553044      1.000125
      4.07325     12.78295      8.53694         0.163181     -0.153253     -0.627122
      4.07325      9.92056      0.00000        84.498295     -8.803603   -101.761670
    total drift:                                0.069479      0.093578      0.081704

  FREE ENERGIE OF THE ION-ELECTRON SYSTEM (eV)
  free  energy   TOTEN  =       248.56516032 eV

  energy  without entropy=      248.56613157  energy(sigma->0) =      248.56564595