 vasp.6.4.3 19Mar24 (build Nov 20 2024 16:33:01) complex
 executed on             LinuxGNU date 2025.06.03  23:01:23

 INCAR:
   SYSTEM = Si and Ge interface calculation
   ISTART = 0
   ICHARG = 2
   LWAVE = .FALSE.
   LREAL = AUTO
   ENCUT = 700
   ENAUG = 900
   ADDGRID = .TRUE.
   LMAXMIX = 6
   LASPH = .TRUE.
   LMIXTAU = .TRUE.
   NCORE = 16
   NELM = 100
   NBANDS = 20
   EDIFF = 1d-7
   AMIX = 0.6
   ISMEAR = 0
   SIGMA = 0.01
   NELECT = 32
   ISPIN = 2
   NUPDOWN = 1
   LVTOT = .FALSE.
   LVHAR = .TRUE.

 POTCAR:    PAW_PBE Si 05Jan2001
|           W    W    AA    RRRRR   N    N  II  N    N   GGGG   !!!           |
|           W    W   A  A   R    R  NN   N  II  NN   N  G    G  !!!           |
|           W    W  A    A  R    R  N N  N  II  N N  N  G       !!!           |
|           W WW W  AAAAAA  RRRRR   N  N N  II  N  N N  G  GGG   !            |
|           WW  WW  A    A  R   R   N   NN  II  N   NN  G    G                |
|           W    W  A    A  R    R  N    N  II  N    N   GGGG   !!!           |
|     You use a magnetic or noncollinear calculation, but did not specify     |
|     the initial magnetic moment with the MAGMOM tag. Note that a            |
|     default of 0.125 will be used for all atoms. This ferromagnetic         |
|     setup may break the symmetry of the crystal, in particular it may       |
|     rule out finding an antiferromagnetic solution. Thence, we              |
|     recommend setting the initial magnetic moment manually or verifying     |
|     carefully that this magnetic setup is desired.                          |

 POTCAR:    PAW_PBE Si 05Jan2001
   VRHFIN =Si: s2p2

   TITEL  = PAW_PBE Si 05Jan2001
   POMASS =   28.085; ZVAL   =    4.000    mass and valenz
   ENMAX  =  245.345; ENMIN  =  184.009 eV

 Optimization of the real space projectors (new method)

 maximal supplied QI-value         = 19.84
 optimisation between [QCUT,QGAM] = [ 13.49, 26.99] = [ 50.98,203.92] Ry
 Optimized for a Real-space Cutoff    1.07 Angstroem

   l    n(q)    QCUT    max X(q) W(low)/X(q) W(high)/X(q)  e(spline)
   0      9    13.493   159.560    0.22E-03    0.15E-03    0.72E-07
   0      9    13.493   115.863    0.21E-03    0.15E-03    0.71E-07
   1      8    13.493    88.339    0.15E-03    0.11E-03    0.13E-06
   1      8    13.493    48.592    0.15E-03    0.10E-03    0.13E-06
  PAW_PBE Si 05Jan2001                  :

 POSCAR: Si
  positions in direct lattice

 exchange-correlation table for PE
   RHO(1)=    0.500       N(1)  =     2000
   RHO(2)=  100.500       N(2)  =     4000

 ion  position               nearest neighbor table
   1  0.000  0.000  0.000-   2 2.35   4 2.35   6 2.35   8 2.35
   2  0.250  0.250  0.250-   1 2.35   3 2.35   5 2.35   7 2.35
   3  0.000  0.500  0.500-   2 2.35   4 2.35   6 2.35   8 2.35
   4  0.250  0.750  0.750-   1 2.35   3 2.35   5 2.35   7 2.35
   5  0.500  0.000  0.500-   2 2.35   4 2.35   6 2.35   8 2.35
   6  0.750  0.250  0.750-   1 2.35   3 2.35   5 2.35   7 2.35
   7  0.500  0.500  0.000-   2 2.35   4 2.35   6 2.35   8 2.35
   8  0.750  0.750  0.250-   1 2.35   3 2.35   5 2.35   7 2.35

  LATTYP: Found a simple cubic cell.
 ALAT       =     5.4300000000

  Lattice vectors:

 A1 = (   5.4300000000,   0.0000000000,   0.0000000000)
 A2 = (   0.0000000000,   5.4300000000,   0.0000000000)
 A3 = (   0.0000000000,   0.0000000000,   5.4300000000)

Analysis of symmetry for initial positions (statically):
 Subroutine PRICEL returns following result:

  LATTYP: Found a face centered cubic cell.
 ALAT       =     5.4300000000

[...]

   4 primitive cells build up your supercell.

 Routine SETGRP: Setting up the symmetry group for a
 simple cubic supercell.

 Subroutine GETGRP returns: Found 48 space group operations
 (whereof 24 operations were pure point group operations)
 out of a pool of 48 trial point group operations.

The static configuration has the point symmetry T_d .
 The point group associated with its full space group is O_h .

Analysis of symmetry for dynamics (positions and initial velocities):
 Subroutine PRICEL returns following result:

[...]

The dynamic configuration has the point symmetry T_d .
 The point group associated with its full space group is O_h .

Analysis of structural, dynamic, and magnetic symmetry:
 Subroutine PRICEL returns following result:

  LATTYP: Found a face centered cubic cell.
 ALAT       =     5.4300000000

  Lattice vectors:

 A1 = (   2.7150000000,  -2.7150000000,   0.0000000000)
 A2 = (   2.7150000000,   0.0000000000,   2.7150000000)
 A3 = (   0.0000000000,  -2.7150000000,   2.7150000000)

   4 primitive cells build up your supercell.

 Routine SETGRP: Setting up the symmetry group for a
 simple cubic supercell.

 Subroutine GETGRP returns: Found 48 space group operations
 (whereof 24 operations were pure point group operations)
 out of a pool of 48 trial point group operations.

The overall configuration has the point symmetry T_d .
 The point group associated with its full space group is O_h .

 Subroutine INISYM returns: Found 48 space group operations
 (whereof 24 operations are pure point group operations),
 and found     4 'primitive' translations

                                     Primitive cell

  volume of cell :      40.0258

  direct lattice vectors                    reciprocal lattice vectors
     2.715000000 -2.715000000  0.000000000     0.184162063 -0.184162063 -0.184162063
     2.715000000  0.000000000  2.715000000     0.184162063  0.184162063  0.184162063
     0.000000000 -2.715000000  2.715000000    -0.184162063 -0.184162063  0.184162063

  length of vectors
     3.839589822  3.839589822  3.839589822     0.318978049  0.318978049  0.318978049

  position of ions in fractional coordinates (direct lattice)
     0.000000000  0.000000000  0.000000000
     0.750000000  0.750000000  0.750000000

  ion indices of the primitive-cell ions
   primitive index   ion index
                 1           1
                 2           2

 KPOINTS: Automatic KPOINTS generated

Automatic generation of k-mesh.
 Grid dimensions read from file:
 generate k-points for:    6    6    6

 Generating k-lattice:

  Cartesian coordinates                     Fractional coordinates (reciprocal lattice)
     0.030693677  0.000000000  0.000000000     0.166666667  0.000000000  0.000000000
     0.000000000  0.030693677  0.000000000     0.000000000  0.166666667  0.000000000
     0.000000000  0.000000000  0.030693677     0.000000000  0.000000000  0.166666667

  Length of vectors
     0.030693677  0.030693677  0.030693677

  Shift w.r.t. Gamma in fractional coordinates (k-lattice)
     0.000000000  0.000000000  0.000000000

 Subroutine IBZKPT returns following result:

 Found     20 irreducible k-points:

 Following reciprocal coordinates:
            Coordinates               Weight
  0.000000  0.000000  0.000000      1.000000
  0.166667  0.000000  0.000000      6.000000
  0.333333  0.000000  0.000000      6.000000
  0.500000  0.000000  0.000000      3.000000
  0.166667  0.166667  0.000000     12.000000
  0.333333  0.166667  0.000000     24.000000
  0.500000  0.166667  0.000000     12.000000
  0.333333  0.333333  0.000000     12.000000
  0.500000  0.333333  0.000000     12.000000
  0.500000  0.500000  0.000000      3.000000
  0.166667  0.166667  0.166667      8.000000
  0.333333  0.166667  0.166667     24.000000
  0.500000  0.166667  0.166667     12.000000
  0.333333  0.333333  0.166667     24.000000
  0.500000  0.333333  0.166667     24.000000
  0.500000  0.500000  0.166667      6.000000
  0.333333  0.333333  0.333333      8.000000
  0.500000  0.333333  0.333333     12.000000
  0.500000  0.500000  0.333333      6.000000
  0.500000  0.500000  0.500000      1.000000

 Following cartesian coordinates:
            Coordinates               Weight
  0.000000  0.000000  0.000000      1.000000
  0.030694  0.000000  0.000000      6.000000
  0.061387  0.000000  0.000000      6.000000
  0.092081  0.000000  0.000000      3.000000
  0.030694  0.030694  0.000000     12.000000
  0.061387  0.030694  0.000000     24.000000
  0.092081  0.030694  0.000000     12.000000
  0.061387  0.061387  0.000000     12.000000
  0.092081  0.061387  0.000000     12.000000
  0.092081  0.092081  0.000000      3.000000
  0.030694  0.030694  0.030694      8.000000
  0.061387  0.030694  0.030694     24.000000
  0.092081  0.030694  0.030694     12.000000
  0.061387  0.061387  0.030694     24.000000
  0.092081  0.061387  0.030694     24.000000
  0.092081  0.092081  0.030694      6.000000
  0.061387  0.061387  0.061387      8.000000
  0.092081  0.061387  0.061387     12.000000
  0.092081  0.092081  0.061387      6.000000
  0.092081  0.092081  0.092081      1.000000

 SYSTEM =  Si and Ge interface calculation
 POSCAR =  Si

 Startparameter for this run:
   NWRITE =      2    write-flag & timer
   PREC   = normal    normal or accurate (medium, high low for compatibility)
   ISTART =      0    job   : 0-new  1-cont  2-samecut
   ICHARG =      2    charge: 1-file 2-atom 10-const
   ISPIN  =      2    spin polarized calculation?
   LNONCOLLINEAR =      F non collinear calculations
   LSORBIT =      F    spin-orbit coupling
   INIWAV =      1    electr: 0-lowe 1-rand  2-diag
   LASPH  =      T    aspherical Exc in radial PAW
 Electronic Relaxation 1
   ENCUT  =  700.0 eV  51.45 Ry    7.17 a.u.  11.71 11.71 11.71*2*pi/ulx,y,z
   ENINI  =  700.0     initial cutoff
   ENAUG  =  900.0 eV  augmentation charge cutoff
   NELM   =    100;   NELMIN=  2; NELMDL= -5     # of ELM steps
   EDIFF  = 0.1E-06   stopping-criterion for ELM
   LREAL  =      T    real-space projection
   NLSPLINE    = F    spline interpolate recip. space projectors
   LCOMPAT=      F    compatible to vasp.4.4
   GGA_COMPAT  = T    GGA compatible to vasp.4.4-vasp.4.6
   LMAXPAW     = -100 max onsite density
   LMAXMIX     =    6 max onsite mixed and CHGCAR
   VOSKOWN=      0    Vosko Wilk Nusair interpolation
   ROPT   =   -0.00050
 Ionic relaxation
   EDIFFG = 0.1E-05   stopping-criterion for IOM
   NSW    =      0    number of steps for IOM
   NBLOCK =      1;   KBLOCK =      1    inner block; outer block
   IBRION =     -1    ionic relax: 0-MD 1-quasi-New 2-CG
   NFREE  =      0    steps in history (QN), initial steepest desc. (CG)
   ISIF   =      2    stress and relaxation
   IWAVPR =     10    prediction:  0-non 1-charg 2-wave 3-comb
   ISYM   =      2    0-nonsym 1-usesym 2-fastsym
   LCORR  =      T    Harris-Foulkes like correction to forces

   POTIM  = 0.5000    time-step for ionic-motion
   TEIN   =    0.0    initial temperature
   TEBEG  =    0.0;   TEEND  =   0.0 temperature during run
   SMASS  =  -3.00    Nose mass-parameter (am)
   estimated Nose-frequenzy (Omega)   =  0.10E-29 period in steps = 0.13E+47 mass=  -0.674E-27a.u.
   SCALEE = 1.0000    scale energy and forces
   NPACO  =    256;   APACO  = 10.0  distance and # of slots for P.C.
   PSTRESS=    0.0 pullay stress

  Mass of Ions in am
   POMASS =  28.09
  Ionic Valenz
   ZVAL   =   4.00
  Atomic Wigner-Seitz radii
  virtual crystal weights
   VCA    =   1.00
   NELECT =      32.0000    total number of electrons
   NUPDOWN=       1.0000    fix difference up-down

 DOS related values:
[...]

 Random number generation:
   RANDOM_GENERATOR = DEFAULT
   PCG_SEED         = not used

 Static calculation
 charge density and potential will be updated during run
 spin polarized calculation
 Variant of blocked Davidson
 Davidson routine will perform the subspace rotation
 perform sub-space diagonalisation
    after iterative eigenvector-optimisation
 modified Broyden-mixing scheme, WC =      100.0
 initial mixing is a Kerker type mixing with AMIX =  0.6000 and BMIX =      1.0000
 Hartree-type preconditioning will be used
 using additional bands            4
 real space projection scheme for non local part
 use partial core corrections
 calculate Harris-corrections to forces   (improved forces if not selfconsistent)
 use gradient corrections
 use of overlap-Matrix (Vanderbilt PP)
 Gauss-broadening in eV      SIGMA  =   0.01

  energy-cutoff  :      700.00
  volume of cell :      160.10
      direct lattice vectors                 reciprocal lattice vectors
     5.430000000  0.000000000  0.000000000     0.184162063  0.000000000  0.000000000
     0.000000000  5.430000000  0.000000000     0.000000000  0.184162063  0.000000000
     0.000000000  0.000000000  5.430000000     0.000000000  0.000000000  0.184162063

[...]

 k-points in units of 2pi/SCALE and weight: Automatic KPOINTS generated
   0.00000000  0.00000000  0.00000000       0.005
   0.03069368  0.00000000  0.00000000       0.028
   0.06138735  0.00000000  0.00000000       0.028
   0.09208103  0.00000000  0.00000000       0.014
   0.03069368  0.03069368  0.00000000       0.056
   0.06138735  0.03069368  0.00000000       0.111
   0.09208103  0.03069368  0.00000000       0.056
   0.06138735  0.06138735  0.00000000       0.056
   0.09208103  0.06138735  0.00000000       0.056
   0.09208103  0.09208103  0.00000000       0.014
   0.03069368  0.03069368  0.03069368       0.037
   0.06138735  0.03069368  0.03069368       0.111
   0.09208103  0.03069368  0.03069368       0.056
   0.06138735  0.06138735  0.03069368       0.111
   0.09208103  0.06138735  0.03069368       0.111
   0.09208103  0.09208103  0.03069368       0.028
   0.06138735  0.06138735  0.06138735       0.037
   0.09208103  0.06138735  0.06138735       0.056
   0.09208103  0.09208103  0.06138735       0.028
   0.09208103  0.09208103  0.09208103       0.005

 k-points in reciprocal lattice and weights: Automatic KPOINTS generated
   0.00000000  0.00000000  0.00000000       0.005
   0.16666667  0.00000000  0.00000000       0.028
   0.33333333  0.00000000  0.00000000       0.028
   0.50000000  0.00000000  0.00000000       0.014
   0.16666667  0.16666667  0.00000000       0.056
   0.33333333  0.16666667  0.00000000       0.111
   0.50000000  0.16666667  0.00000000       0.056
   0.33333333  0.33333333  0.00000000       0.056
   0.50000000  0.33333333  0.00000000       0.056
   0.50000000  0.50000000  0.00000000       0.014
   0.16666667  0.16666667  0.16666667       0.037
   0.33333333  0.16666667  0.16666667       0.111
   0.50000000  0.16666667  0.16666667       0.056
   0.33333333  0.33333333  0.16666667       0.111
   0.50000000  0.33333333  0.16666667       0.111
   0.50000000  0.50000000  0.16666667       0.028
   0.33333333  0.33333333  0.33333333       0.037
   0.50000000  0.33333333  0.33333333       0.056
   0.50000000  0.50000000  0.33333333       0.028
   0.50000000  0.50000000  0.50000000       0.005

 position of ions in fractional coordinates (direct lattice)
   0.00000000  0.00000000  0.00000000
   0.25000000  0.25000000  0.25000000
   0.00000000  0.50000000  0.50000000
   0.25000000  0.75000000  0.75000000
   0.50000000  0.00000000  0.50000000
   0.75000000  0.25000000  0.75000000
   0.50000000  0.50000000  0.00000000
   0.75000000  0.75000000  0.25000000

 position of ions in cartesian coordinates  (Angst):
   0.00000000  0.00000000  0.00000000
   1.35750000  1.35750000  1.35750000
   0.00000000  2.71500000  2.71500000
   1.35750000  4.07250000  4.07250000
   2.71500000  0.00000000  2.71500000
   4.07250000  1.35750000  4.07250000
   2.71500000  2.71500000  0.00000000
   4.07250000  4.07250000  1.35750000

 k-point     1 :   0.0000 0.0000 0.0000  plane waves:    6763
 k-point     2 :   0.1667 0.0000 0.0000  plane waves:    6751
 k-point     3 :   0.3333 0.0000 0.0000  plane waves:    6736
 k-point     4 :   0.5000 0.0000 0.0000  plane waves:    6696
 k-point     5 :   0.1667 0.1667 0.0000  plane waves:    6753
 k-point     6 :   0.3333 0.1667 0.0000  plane waves:    6730
 k-point     7 :   0.5000 0.1667 0.0000  plane waves:    6714
 k-point     8 :   0.3333 0.3333 0.0000  plane waves:    6716
 k-point     9 :   0.5000 0.3333 0.0000  plane waves:    6726
 k-point    10 :   0.5000 0.5000 0.0000  plane waves:    6728
 k-point    11 :   0.1667 0.1667 0.1667  plane waves:    6736
 k-point    12 :   0.3333 0.1667 0.1667  plane waves:    6738
 k-point    13 :   0.5000 0.1667 0.1667  plane waves:    6736
 k-point    14 :   0.3333 0.3333 0.1667  plane waves:    6716
 k-point    15 :   0.5000 0.3333 0.1667  plane waves:    6734
 k-point    16 :   0.5000 0.5000 0.1667  plane waves:    6760
 k-point    17 :   0.3333 0.3333 0.3333  plane waves:    6737
 k-point    18 :   0.5000 0.3333 0.3333  plane waves:    6738
 k-point    19 :   0.5000 0.5000 0.3333  plane waves:    6728
 k-point    20 :   0.5000 0.5000 0.5000  plane waves:    6776

 maximum and minimum number of plane-waves per node :      6776     6696

 maximum number of plane-waves:      6776
 maximum index in each direction:
   IXMAX=   11   IYMAX=   11   IZMAX=   11
   IXMIN=  -12   IYMIN=  -12   IZMIN=  -12

 serial   3D FFT for wavefunctions
 parallel 3D FFT for charge:
    minimum data exchange during FFTs selected (reduces bandwidth)

 Broyden mixing: mesh for mixing (old mesh)
   NGX = 23   NGY = 23   NGZ = 23
  (NGX  = 72   NGY  = 72   NGZ  = 72)
  gives a total of  12167 points

 initial charge density was supplied:
 charge density of overlapping atoms calculated
 number of electron      32.0000000 magnetization       1.0000000
 keeping initial charge density in first step

 Maximum index for non-local projection operator          149
 Maximum index for augmentation-charges        75445 (set IRDMAX)

 First call to EWALD:  gamma=   0.326
 Maximum number of real-space cells 3x 3x 3
 Maximum number of reciprocal cells 3x 3x 3

--------------------------------------- Ionic step        1  -------------------------------------------

--------------------------------------- Iteration      1(   1)  ---------------------------------------

 eigenvalue-minimisations  :  1600
 total energy-change (2. order) : 0.1016926E+03  (-0.1437778E+04)
 number of electron      32.0000000 magnetization       1.0000000
 augmentation part       32.0000000 magnetization       1.0000000

 Free energy of the ion-electron system (eV)
  alpha Z        PSCENC =        13.45658905
  Ewald energy   TEWEN  =      -914.25413255
  -Hartree energ DENC   =       -44.00432968
  -exchange      EXHF   =         0.00000000
  -V(xc)+E(xc)   XCENC  =       -74.39367769
  PAW double counting   =       704.97934534     -564.23228866
  entropy T*S    EENTRO =        -0.00047012
  eigenvalues    EBANDS =       155.60856873
  atomic energy  EATOM  =       824.53298936
  Solvation  Ediel_sol  =         0.00000000
  free energy    TOTEN  =       101.69259378 eV

  energy without entropy =      101.69306390  energy(sigma->0) =      101.69282884

[...]

 eigenvalue-minimisations  :  2116
 total energy-change (2. order) :-0.1375869E+03  (-0.1322394E+03)
 number of electron      32.0000000 magnetization       1.0000000
 augmentation part       32.0000000 magnetization       1.0000000

[...]

 Broyden mixing:
  rms(total) = 0.94958E+00    rms(broyden)= 0.94958E+00
  rms(prec ) = 0.12883E+01
  weight for this iteration     100.00

[...]

 eigenvalues of (default mixing * dielectric matrix)
  average eigenvalue GAMMA=   1.8107
  1.8107

[...]

 eigenvalue-minimisations  :  1844
 total energy-change (2. order) : 0.7136125E-01  (-0.2628879E-01)
 number of electron      31.9999999 magnetization       1.0000000
 augmentation part       -1.8422740 magnetization      -0.0316009

[...]

 Broyden mixing:
  rms(total) = 0.39050E-04    rms(broyden)= 0.39050E-04
  rms(prec ) = 0.48472E-04
  weight for this iteration     100.00

 eigenvalues of (default mixing * dielectric matrix)
  average eigenvalue GAMMA=   1.0081
  2.0807  1.7884  1.5041  1.1079  0.6388  0.5242  0.5048  0.4622  0.4615

[...]

--------------------------------------- Iteration      1(  15)  ---------------------------------------

 eigenvalue-minimisations  :   992
 total energy-change (2. order) :-0.1162061E-07  (-0.4463123E-07)
 number of electron      31.9999999 magnetization       1.0000000
 augmentation part       -1.8451601 magnetization      -0.0277275

 Free energy of the ion-electron system (eV)
  alpha Z        PSCENC =        13.45658905
  Ewald energy   TEWEN  =      -914.25413255
  -Hartree energ DENC   =       -57.87655466
  -exchange      EXHF   =         0.00000000
  -V(xc)+E(xc)   XCENC  =       -72.04726646
  PAW double counting   =      3370.86849046    -3230.95596407
  entropy T*S    EENTRO =        -0.00035639
  eigenvalues    EBANDS =        23.67364820
  atomic energy  EATOM  =       824.53298936
  Solvation  Ediel_sol  =         0.00000000
  free energy    TOTEN  =       -42.60255705 eV

  energy without entropy =      -42.60220066  energy(sigma->0) =      -42.60237886

 average (electrostatic) potential at core
  the test charge radii are     0.9892
  (the norm of the test charge is              1.0000)
       1 -83.3566       2 -83.3566       3 -83.3566       4 -83.3566       5 -83.3566
       6 -83.3566       7 -83.3566       8 -83.3566

 E-fermi :   5.1183     XC(G=0):  -9.4444     alpha+bet :-11.9845

 val. band max:        7.0417978171   @ k =   0.1667   0.0000   0.0000
 cond. band min:       5.1305537167   @ k =   0.3333   0.1667   0.0000
 fundamental gap:     -1.9112441004
 Fermi energy:         7.1081864492

 spin component 1

 k-point     1 :       0.0000    0.0000    0.0000
  band No.  band energies     occupation
      1      -6.2453      1.00000
      2      -2.1023      1.00000
      3      -2.1023      1.00000
      4      -2.1023      1.00000
      5      -2.1023      1.00000
      6      -2.1023      1.00000
      7      -2.1023      1.00000
      8       2.8675      1.00000
      9       2.8675      1.00000
     10       2.8675      1.00000
     11       2.8675      1.00000
     12       2.8675      1.00000
     13       2.8675      1.00000
     14       5.7039      1.00000
     15       5.7039      1.00000
     16       5.7039      1.00000
     17       6.4283      1.00000
     18       6.4283      1.00000
     19       6.4283      1.00000
     20       6.4283      1.00000

[...]

 k-point    20 :       0.5000    0.5000    0.5000
  band No.  band energies     occupation
      1      -3.9152      1.00000
      2      -3.9152      1.00000
      3      -3.9152      1.00000
      4      -3.9152      1.00000
      5      -1.2516      1.00000
      6      -1.2516      1.00000
      7      -1.2516      1.00000
      8      -1.2516      1.00000
      9       4.5133      1.00000
     10       4.5133      1.00000
     11       4.5133      1.00000
     12       4.5133      1.00000
     13       4.5133      1.00000
     14       4.5133      1.00000
     15       4.5133      1.00000
     16       4.5133      1.00000
     17       7.2526      0.00000
     18       7.2526      0.00000
     19       7.2526      0.00000
     20       7.2526      0.00000
 Fermi energy:         5.1182531972

 spin component 2

[...]

 k-point    20 :       0.5000    0.5000    0.5000
  band No.  band energies     occupation
      1      -3.7898      1.00000
      2      -3.7898      1.00000
      3      -3.7898      1.00000
      4      -3.7898      1.00000
      5      -1.1158      1.00000
      6      -1.1158      1.00000
      7      -1.1158      1.00000
      8      -1.1158      1.00000
      9       4.6401      1.00000
     10       4.6401      1.00000
     11       4.6401      1.00000
     12       4.6401      1.00000
     13       4.6401      1.00000
     14       4.6401      1.00000
     15       4.6401      1.00000
     16       4.6401      1.00000
     17       7.3879      0.00000
     18       7.3879      0.00000
     19       7.3879      0.00000
     20       7.3879      0.00000

 soft charge-density along one line, spin component           1
         0         1         2         3         4         5         6         7         8         9
 total charge-density along one line

 soft charge-density along one line, spin component           2
         0         1         2         3         4         5         6         7         8         9
 total charge-density along one line

------------------------ aborting loop because EDIFF is reached ----------------------------------------

  FORCE on cell =-STRESS in cart. coord.  units (eV):
  Direction    XX          YY          ZZ          XY          YZ          ZX
  Alpha Z    13.45659    13.45659    13.45659
  Ewald    -304.75190  -304.75190  -304.75190    -0.00000     0.00000     0.00000
  Hartree    19.29222    19.29222    19.29222     0.00000    -0.00000    -0.00000
  E(xc)    -101.17357  -101.17357  -101.17357     0.00000     0.00000    -0.00000
  Local    -115.59051  -115.59051  -115.59051     0.00000    -0.00000    -0.00000
  n-local   311.21704   313.26043   308.39224    -0.45339    -1.83965    -0.85265
  augment   -46.87659   -46.87659   -46.87659     0.00000    -0.00000    -0.00000
  Kinetic   217.81991   229.52841   230.73786    -1.29047    -4.44130    -2.05899
  Fock        0.00000     0.00000     0.00000     0.00000     0.00000     0.00000
  Total       1.34155     1.34155     1.34155     0.00000    -0.00000    -0.00000
  in kB      13.42516    13.42516    13.42516     0.00000    -0.00000    -0.00000

 VOLUME and BASIS-vectors are now :
  energy-cutoff  :      700.00
  volume of cell :      160.10
      direct lattice vectors                 reciprocal lattice vectors
     5.430000000  0.000000000  0.000000000     0.184162063  0.000000000  0.000000000
     0.000000000  5.430000000  0.000000000     0.000000000  0.184162063  0.000000000
     0.000000000  0.000000000  5.430000000     0.000000000  0.000000000  0.184162063

  length of vectors
     5.430000000  5.430000000  5.430000000     0.184162063  0.184162063  0.184162063

 FORCES acting on ions
    electron-ion (+dipol)            ewald-force                    non-local-force                 convergence-correction
   -.316E-13 -.239E-14 0.138E-13   -.355E-14 -.107E-13 0.000E+00   0.117E-17 -.294E-17 -.152E-16   -.105E-15 0.485E-14 -.424E-14
   0.255E-13 0.121E-12 0.136E-13   -.111E-13 -.114E-15 -.356E-14   -.255E-16 -.580E-17 0.242E-16   0.101E-14 -.253E-15 -.645E-14
   -.237E-13 -.111E-13 0.718E-15   0.355E-14 -.711E-14 0.355E-14   -.133E-17 -.496E-17 0.132E-17   -.194E-15 -.222E-14 -.592E-14
   0.244E-13 0.361E-13 -.296E-15   -.447E-14 0.355E-14 0.520E-15   0.332E-17 0.559E-17 -.148E-16   0.892E-15 0.241E-15 -.288E-14
   -.454E-13 -.249E-14 0.347E-12   0.000E+00 -.355E-14 0.000E+00   0.182E-16 -.428E-17 -.227E-16   -.380E-15 0.468E-14 -.590E-14
   0.716E-14 0.241E-12 -.188E-12   -.712E-14 0.590E-14 -.303E-14   0.570E-17 -.419E-17 0.171E-16   0.181E-14 -.297E-15 -.267E-14
   -.620E-13 0.125E-12 0.184E-12   0.711E-14 0.000E+00 0.355E-14   -.160E-17 -.370E-17 0.122E-16   -.176E-15 -.235E-14 -.396E-14
   0.191E-13 0.436E-13 -.822E-13   0.354E-16 0.107E-13 0.536E-16   -.108E-16 0.196E-16 -.780E-17   0.168E-14 -.250E-16 -.635E-14
   -.864E-13 0.551E-12 0.289E-12   -.155E-13 -.130E-14 0.109E-14   -.109E-16 -.694E-18 -.564E-17   0.454E-14 0.463E-14 -.384E-13

 POSITION                                       TOTAL-FORCE (eV/Angst)
      0.00000      0.00000      0.00000        -0.000000      0.000000     -0.000000
      1.35750      1.35750      1.35750         0.000000      0.000000     -0.000000
      0.00000      2.71500      2.71500        -0.000000      0.000000      0.000000
      1.35750      4.07250      4.07250         0.000000     -0.000000     -0.000000
      2.71500      0.00000      2.71500        -0.000000      0.000000      0.000000
      4.07250      1.35750      4.07250         0.000000     -0.000000     -0.000000
      2.71500      2.71500      0.00000         0.000000      0.000000      0.000000
      4.07250      4.07250      1.35750        -0.000000     -0.000000     -0.000000
    total drift:                               -0.000000      0.000000      0.000000

  FREE ENERGIE OF THE ION-ELECTRON SYSTEM (eV)
  free  energy   TOTEN  =       -42.60255705 eV

  energy  without entropy=      -42.60220066  energy(sigma->0) =      -42.60237886