 vasp.6.4.3 19Mar24 (build Oct 22 2024 11:23:12) complex

 executed on             LinuxIFC date 2025.06.04  03:36:08

 INCAR:
   SYSTEM = Si and Ge interface calculation
   ISTART = 0
   ICHARG = 2
   LWAVE = .FALSE.
   LREAL = AUTO
   ENCUT = 700
   ENAUG = 900
   ADDGRID = .TRUE.
   LMAXMIX = 6
   LASPH = .TRUE.
   LMIXTAU = .TRUE.
   NCORE = 16
   NELM = 100
   NBANDS = 173
   EDIFF = 1d-7
   AMIX = 0.6
   ISMEAR = 0
   SIGMA = 0.01
   NELECT = 288
   ISPIN = 2
   NUPDOWN = 1
   LVTOT = .FALSE.
   LVHAR = .TRUE.

 POTCAR:    PAW_PBE Si 05Jan2001
 POTCAR:    PAW_PBE Ge 05Jan2001
|           W    W    AA    RRRRR   N    N  II  N    N   GGGG   !!!           |
|           W    W   A  A   R    R  NN   N  II  NN   N  G    G  !!!           |
|           W    W  A    A  R    R  N N  N  II  N N  N  G       !!!           |
|           W WW W  AAAAAA  RRRRR   N  N N  II  N  N N  G  GGG   !            |
|           WW  WW  A    A  R   R   N   NN  II  N   NN  G    G                |
|           W    W  A    A  R    R  N    N  II  N    N   GGGG   !!!           |
|     You use a magnetic or noncollinear calculation, but did not specify     |
|     the initial magnetic moment with the MAGMOM tag. Note that a            |
|     default of 0.014 will be used for all atoms. This ferromagnetic         |
|     setup may break the symmetry of the crystal, in particular it may       |
|     rule out finding an antiferromagnetic solution. Thence, we              |
|     recommend setting the initial magnetic moment manually or verifying     |
|     carefully that this magnetic setup is desired.                          |

 POTCAR:    PAW_PBE Si 05Jan2001
   VRHFIN =Si: s2p2

   TITEL  = PAW_PBE Si 05Jan2001
   POMASS =   28.085; ZVAL   =    4.000    mass and valenz
   ENMAX  =  245.345; ENMIN  =  184.009 eV

 POTCAR:    PAW_PBE Ge 05Jan2001
   VRHFIN =Ge: s2p2

   TITEL  = PAW_PBE Ge 05Jan2001
   POMASS =   72.610; ZVAL   =    4.000    mass and valenz
   ENMAX  =  173.807; ENMIN  =  130.355 eV

 Optimization of the real space projectors (new method)

 maximal supplied QI-value         = 19.84
 optimisation between [QCUT,QGAM] = [ 13.49, 26.99] = [ 50.98,203.92] Ry
 Optimized for a Real-space Cutoff    1.07 Angstroem

   l    n(q)    QCUT    max X(q) W(low)/X(q) W(high)/X(q)  e(spline)
   0      9    13.493   159.560    0.22E-03    0.15E-03    0.72E-07
   0      9    13.493   115.863    0.21E-03    0.15E-03    0.71E-07
   1      8    13.493    88.339    0.15E-03    0.11E-03    0.13E-06
   1      8    13.493    48.592    0.15E-03    0.10E-03    0.13E-06
 Optimization of the real space projectors (new method)

 maximal supplied QI-value         = 16.25
 optimisation between [QCUT,QGAM] = [ 13.49, 26.98] = [ 50.95,203.80] Ry
 Optimized for a Real-space Cutoff    1.25 Angstroem

   l    n(q)    QCUT    max X(q) W(low)/X(q) W(high)/X(q)  e(spline)
   0     10    13.489    65.336    0.91E-04    0.11E-03    0.34E-06
   0     10    13.489    52.220    0.89E-04    0.11E-03    0.34E-06
   1     10    13.489    36.409    0.22E-03    0.27E-03    0.14E-06
   1     10    13.489    21.334    0.21E-03    0.27E-03    0.14E-06
   2      9    13.489     4.673    0.11E-03    0.12E-03    0.19E-06
  PAW_PBE Si 05Jan2001                  :
  PAW_PBE Ge 05Jan2001                  :

 POSCAR: Si+Ge
  positions in direct lattice

 exchange-correlation table for PE
   RHO(1)=    0.500       N(1)  =     2000
   RHO(2)=  100.500       N(2)  =     4000

 ion  position               nearest neighbor table
   1  0.944  0.912  0.000-   9 2.35  15 2.35  42 2.39
   2  0.694  0.523  0.048-  16 2.35  10 2.35  13 2.35  63 2.55
   3  0.444  0.134  0.095-  14 2.35  17 2.35  11 2.35
   4  0.194  0.745  0.143-   7 2.35  15 2.35  18 2.35  12 2.35
   5  0.944  0.357  0.190-   8 2.35  16 2.35  55 2.51
   6  0.694  0.968  0.238-   9 2.35  17 2.35  58 2.49
   7  0.194  0.662  0.000-   4 2.35  20 2.35  45 2.40
   8  0.944  0.273  0.048-   5 2.35  21 2.35  39 2.54
   9  0.694  0.884  0.095-   6 2.35  19 2.35   1 2.35  22 2.35
  10  0.444  0.495  0.143-  20 2.35   2 2.35  23 2.35
  11  0.194  0.107  0.190-  21 2.35  24 2.35   3 2.35  28 2.50
  12  0.944  0.718  0.238-  22 2.35   4 2.35  49 2.50
  13  0.694  0.662  0.000-  22 2.35   2 2.35  63 2.40
  14  0.444  0.273  0.048-  23 2.35   3 2.35  66 2.54
  15  0.194  0.884  0.095-  24 2.35   1 2.35   4 2.35  19 2.35
  16  0.944  0.495  0.143-   5 2.35  20 2.35   2 2.35
  17  0.694  0.107  0.190-   3 2.35  21 2.35   6 2.35  58 2.50
  18  0.444  0.718  0.238-   4 2.35  22 2.35  31 2.50
  19  0.444  0.912  0.000-   9 2.35  15 2.35  72 2.39
  20  0.194  0.523  0.048-  10 2.35  16 2.35   7 2.35  45 2.55
  21  0.944  0.134  0.095-   8 2.35  11 2.35  17 2.35
  22  0.694  0.745  0.143-  13 2.35  12 2.35   9 2.35  18 2.35
  23  0.444  0.357  0.190-  14 2.35  10 2.35  34 2.51
  24  0.194  0.968  0.238-  15 2.35  11 2.35  28 2.49
  25  0.070  0.570  0.356-  37 2.38  64 2.38
  26  0.820  0.445  0.566-  38 2.38  65 2.38  46 2.48  64 2.48
  27  0.570  0.320  0.776-  39 2.38  66 2.38  65 2.48  47 2.48
  28  0.070  0.070  0.356-  40 2.38  70 2.38  24 2.49  11 2.50
  29  0.820  0.945  0.566-  41 2.38  71 2.38  43 2.48  70 2.48
  30  0.570  0.820  0.776-  42 2.38  72 2.38  44 2.48  71 2.48
  31  0.570  0.820  0.356-  61 2.38  43 2.38  18 2.50
  32  0.320  0.695  0.566-  62 2.38  44 2.38  61 2.48  37 2.48
  33  0.070  0.570  0.776-  45 2.38  63 2.38  62 2.48  38 2.48
  34  0.570  0.320  0.356-  67 2.38  46 2.38  23 2.51
  35  0.320  0.195  0.566-  47 2.38  68 2.38  67 2.48  40 2.48
  36  0.070  0.070  0.776-  69 2.38  48 2.38  68 2.48  41 2.48
  37  0.320  0.570  0.461-  25 2.38  52 2.38  32 2.48  53 2.48
  38  0.070  0.445  0.671-  53 2.38  26 2.38  33 2.48  54 2.48
  39  0.820  0.320  0.881-  27 2.38  54 2.38   8 2.54
  40  0.320  0.070  0.461-  28 2.38  58 2.38  35 2.48  59 2.48
  41  0.070  0.945  0.671-  29 2.38  59 2.38  60 2.48  36 2.48
  42  0.820  0.820  0.881-  30 2.38  60 2.38   1 2.39
  43  0.820  0.820  0.461-  31 2.38  49 2.38  29 2.48  50 2.48
  44  0.570  0.695  0.671-  50 2.38  32 2.38  30 2.48  51 2.48
  45  0.320  0.570  0.881-  33 2.38  51 2.38   7 2.40  20 2.55
  46  0.820  0.320  0.461-  55 2.38  34 2.38  26 2.48  56 2.48
  47  0.570  0.195  0.671-  35 2.38  56 2.38  27 2.48  57 2.48
  48  0.320  0.070  0.881-  57 2.38  36 2.38
  49  0.070  0.820  0.356-  61 2.38  43 2.38  12 2.50
  50  0.820  0.695  0.566-  44 2.38  62 2.38  43 2.48  64 2.48
  51  0.570  0.570  0.776-  45 2.38  63 2.38  44 2.48  65 2.48
  52  0.570  0.570  0.356-  37 2.38  64 2.38
  53  0.320  0.445  0.566-  38 2.38  65 2.38  37 2.48  67 2.48
  54  0.070  0.320  0.776-  66 2.38  39 2.38  38 2.48  68 2.48
  55  0.070  0.320  0.356-  46 2.38  67 2.38   5 2.51
  56  0.820  0.195  0.566-  47 2.38  68 2.38  46 2.48  70 2.48
  57  0.570  0.070  0.776-  69 2.38  48 2.38  47 2.48  71 2.48
  58  0.570  0.070  0.356-  40 2.38  70 2.38   6 2.49  17 2.50
  59  0.320  0.945  0.566-  71 2.38  41 2.38  61 2.48  40 2.48
  60  0.070  0.820  0.776-  72 2.38  42 2.38  41 2.48  62 2.48
  61  0.320  0.820  0.461-  31 2.38  49 2.38  59 2.48  32 2.48
  62  0.070  0.695  0.671-  32 2.38  50 2.38  33 2.48  60 2.48
  63  0.820  0.570  0.881-  51 2.38  33 2.38  13 2.40   2 2.55
  64  0.820  0.570  0.461-  52 2.38  25 2.38  50 2.48  26 2.48
  65  0.570  0.445  0.671-  53 2.38  26 2.38  51 2.48  27 2.48
  66  0.320  0.320  0.881-  54 2.38  27 2.38  14 2.54
  67  0.320  0.320  0.461-  34 2.38  55 2.38  35 2.48  53 2.48
  68  0.070  0.195  0.671-  35 2.38  56 2.38  54 2.48  36 2.48
  69  0.820  0.070  0.881-  36 2.38  57 2.38
  70  0.820  0.070  0.461-  28 2.38  58 2.38  56 2.48  29 2.48
  71  0.570  0.945  0.671-  59 2.38  29 2.38  57 2.48  30 2.48
  72  0.320  0.820  0.881-  60 2.38  30 2.38  19 2.39

  LATTYP: Found a simple orthorhombic cell.
 ALAT       =     7.6805944440
 B/A-ratio  =     1.7529604765
 C/A-ratio  =     2.1213200862

  Lattice vectors:

 A1 = (  -7.6805944440,   0.0000000000,   0.0000000000)
 A2 = (   0.0000000000,   0.0000000000,  13.4637784960)
 A3 = (   0.0000000000,  16.2929992680,   0.0000000000)

Analysis of symmetry for initial positions (statically):
 Subroutine PRICEL returns following result:

[...]

   2 primitive cells build up your supercell.

 Routine SETGRP: Setting up the symmetry group for a
 simple orthorhombic supercell.

 Subroutine GETGRP returns: Found  1 space group operations
 (whereof  1 operations were pure point group operations)
 out of a pool of  8 trial point group operations.

The static configuration has the point symmetry C_1 .

Analysis of symmetry for dynamics (positions and initial velocities):
 Subroutine PRICEL returns following result:

[...]

The dynamic configuration has the point symmetry C_1 .

Analysis of structural, dynamic, and magnetic symmetry:
 Subroutine PRICEL returns following result:

  LATTYP: Found a simple orthorhombic cell.
 ALAT       =     3.8402974524
 B/A-ratio  =     3.5059207426
 C/A-ratio  =     4.2426399178

  Lattice vectors:

 A1 = (  -3.8402974524,   0.0000000000,   0.0000000000)
 A2 = (   0.0000000000,   0.0000000000,  13.4637784960)
 A3 = (   0.0000000000,  16.2929992680,   0.0000000000)

   2 primitive cells build up your supercell.

 Routine SETGRP: Setting up the symmetry group for a
 simple orthorhombic supercell.

 Subroutine GETGRP returns: Found  1 space group operations
 (whereof  1 operations were pure point group operations)
 out of a pool of  8 trial point group operations.

The overall configuration has the point symmetry C_1 .

 Subroutine INISYM returns: Found  1 space group operations
 (whereof  1 operations are pure point group operations),
 and found     2 'primitive' translations

                                     Primitive cell

  volume of cell :     842.4281

  direct lattice vectors                    reciprocal lattice vectors
    -3.840297452  0.000000000  0.000000000    -0.260396496  0.000000000  0.000000000
     0.000000000  0.000000000 13.463778496     0.000000000  0.000000000  0.074273355
     0.000000000 16.292999268  0.000000000     0.000000000  0.061376054  0.000000000

  length of vectors
     3.840297452 13.463778496 16.292999268     0.260396496  0.074273355  0.061376054

  position of ions in fractional coordinates (direct lattice)
     0.112972015  0.000000006  0.912132978
     0.612972045  0.047538679  0.523244023
     0.112972135  0.095077343  0.134355128
     0.612972163  0.142615959  0.745466113
     0.112972373  0.190154672  0.356577158
     0.612972641  0.237693354  0.967688084
     0.612971747  0.000000000  0.662133038
     0.112972015  0.047538657  0.273244023
     0.612971955  0.095077313  0.884355068
     0.112972135  0.142615974  0.495466053
     0.612972401  0.190154627  0.106577039
     0.112972611  0.237693354  0.717687964
     0.859188564  0.356206775  0.569803238
     0.359188774  0.566318631  0.444803238
     0.859188564  0.776430547  0.319803238
     0.859188804  0.356206775  0.069803238
     0.359188774  0.566318631  0.944803238
     0.859188564  0.776430547  0.819803238
     0.859188564  0.356206775  0.819803238
     0.359188774  0.566318631  0.694803238
     0.859188564  0.776430547  0.569803238
[...]
  Fock        0.00000     0.00000     0.00000     0.00000     0.00000     0.00000
  Total      66.20635    -6.29689    25.69112    -2.15390     8.01826   -11.75325
  in kB      62.95749    -5.98789    24.43041    -2.04821     7.62479   -11.17650

 VOLUME and BASIS-vectors are now :
  energy-cutoff  :      700.00
  volume of cell :     1684.86
      direct lattice vectors                 reciprocal lattice vectors
     7.680594444  0.000000000  0.000000000     0.130198256  0.000000000  0.000000000
     0.000000000 16.292999268  0.000000000     0.000000000  0.061376054  0.000000000
     0.000000000  0.000000000 13.463778496     0.000000000  0.000000000  0.074273355

  length of vectors
     7.680594444 16.292999268 13.463778496     0.130198256  0.061376054  0.074273355

 FORCES acting on ions
    electron-ion (+dipol)            ewald-force                    non-local-force                 convergence-correction
   -.830E+01 -.408E+02 0.122E+02   0.720E+01 0.397E+02 -.114E+02   0.197E+00 0.184E+01 -.100E+01   -.149E-04 0.110E-03 0.231E-04
   0.445E+01 0.467E+02 -.263E+01   -.466E+01 -.452E+02 0.434E+01   0.477E+00 -.158E+01 -.157E+01   -.109E-05 -.283E-04 0.140E-03
   -.103E+01 -.121E+02 0.267E+02   0.948E+00 0.137E+02 -.248E+02   -.219E+00 -.138E+01 -.247E+01   -.334E-05 0.233E-03 -.603E-04
   -.203E+01 0.179E+02 -.736E+00   0.875E+00 -.177E+02 0.708E+00   0.102E+01 -.345E+00 0.168E-01   -.126E-04 0.140E-03 -.904E-04
   0.286E+01 0.113E+02 -.932E+01   -.505E+01 -.990E+01 0.730E+01   0.219E+01 -.137E+01 0.211E+01   -.340E-04 -.349E-03 -.468E-03
   -.467E+01 0.278E+01 -.803E+01   0.635E+01 -.193E+01 0.666E+01   -.178E+01 -.164E+01 0.172E+01   -.712E-05 0.954E-04 -.181E-03
   0.577E+01 -.598E+01 0.591E+01   -.717E+01 0.485E+01 -.484E+01   0.132E+01 0.202E+01 -.103E+01   -.585E-05 0.195E-03 0.564E-04
   -.242E+01 -.104E+02 0.104E+02   0.468E+01 0.905E+01 -.839E+01   -.227E+01 0.141E+01 -.218E+01   0.504E-04 -.947E-04 0.448E-03
   0.215E+01 -.180E+02 0.604E+00   -.947E+00 0.178E+02 -.439E+00   -.106E+01 0.388E+00 -.146E+00   0.742E-05 0.132E-03 -.549E-04
   0.103E+01 0.121E+02 -.271E+02   -.874E+00 -.135E+02 0.253E+02   0.119E+00 0.123E+01 0.234E+01   -.103E-04 -.343E-03 0.135E-04
   -.491E+01 -.461E+02 0.442E+01   0.506E+01 0.445E+02 -.595E+01   -.423E+00 0.161E+01 0.132E+01   0.181E-05 0.295E-04 -.286E-03
   0.729E+01 0.372E+02 -.148E+02   -.633E+01 -.364E+02 0.137E+02   0.214E+00 -.126E+01 0.171E+01   0.166E-04 0.143E-03 -.892E-04
   0.577E+01 -.598E+01 0.591E+01   -.717E+01 0.485E+01 -.484E+01   0.132E+01 0.202E+01 -.103E+01   -.766E-05 0.197E-03 0.546E-04
   -.242E+01 -.104E+02 0.104E+02   0.468E+01 0.905E+01 -.839E+01   -.227E+01 0.141E+01 -.218E+01   0.322E-04 -.942E-04 0.425E-03
   0.215E+01 -.180E+02 0.604E+00   -.947E+00 0.178E+02 -.439E+00   -.106E+01 0.388E+00 -.146E+00   0.848E-05 0.133E-03 -.542E-04
   0.103E+01 0.121E+02 -.271E+02   -.874E+00 -.135E+02 0.253E+02   0.119E+00 0.123E+01 0.234E+01   -.158E-05 -.348E-03 0.229E-04
   -.491E+01 -.461E+02 0.442E+01   0.506E+01 0.445E+02 -.595E+01   -.423E+00 0.161E+01 0.132E+01   0.840E-07 0.241E-04 -.288E-03
   0.729E+01 0.372E+02 -.148E+02   -.633E+01 -.364E+02 0.137E+02   0.214E+00 -.126E+01 0.171E+01   0.172E-04 0.144E-03 -.884E-04
   -.830E+01 -.408E+02 0.122E+02   0.720E+01 0.397E+02 -.114E+02   0.197E+00 0.184E+01 -.100E+01   -.157E-04 0.111E-03 0.240E-04
   0.445E+01 0.467E+02 -.263E+01   -.466E+01 -.452E+02 0.434E+01   0.477E+00 -.158E+01 -.157E+01   0.206E-05 -.346E-04 0.139E-03
   -.103E+01 -.121E+02 0.267E+02   0.948E+00 0.137E+02 -.248E+02   -.219E+00 -.138E+01 -.247E+01   0.357E-05 0.230E-03 -.529E-04
   -.203E+01 0.179E+02 -.735E+00   0.875E+00 -.177E+02 0.708E+00   0.102E+01 -.345E+00 0.168E-01   -.131E-04 0.139E-03 -.902E-04
   0.286E+01 0.113E+02 -.932E+01   -.505E+01 -.990E+01 0.730E+01   0.219E+01 -.137E+01 0.211E+01   -.557E-04 -.349E-03 -.491E-03
   -.467E+01 0.278E+01 -.803E+01   0.635E+01 -.193E+01 0.666E+01   -.178E+01 -.164E+01 0.172E+01   -.296E-05 0.964E-04 -.183E-03
   -.337E+01 0.252E+02 0.307E+02   0.298E+01 -.257E+02 -.316E+02   -.363E+00 0.607E+00 -.122E+01   0.537E-05 0.102E-03 -.163E-03
   -.626E-01 0.787E+01 0.144E+02   -.430E-01 -.778E+01 -.142E+02   -.322E-01 -.240E-01 -.750E+00   0.425E-05 0.892E-04 -.664E-04
   -.111E+01 0.188E+01 -.165E+02   0.440E+00 -.203E+01 0.171E+02   0.491E+00 0.447E-01 -.749E+00   -.192E-04 -.168E-03 0.210E-03
   0.113E+02 -.298E+02 0.367E+01   -.107E+02 0.297E+02 -.396E+01   -.374E+00 0.147E+00 -.709E+00   0.935E-05 -.148E-03 -.293E-03
   -.217E+00 -.793E+01 0.495E+01   0.123E+00 0.772E+01 -.451E+01   0.292E-01 0.138E+00 -.979E+00   -.353E-05 -.582E-04 0.216E-04
   -.124E+01 -.127E+01 0.204E+01   0.365E+00 0.119E+01 -.163E+01   0.739E+00 -.955E-01 -.103E+01   -.184E-05 0.117E-03 0.117E-03
   -.249E+01 -.711E+01 0.535E+01   0.191E+01 0.673E+01 -.610E+01   0.152E+00 0.615E+00 -.601E+00   0.923E-06 0.885E-04 -.984E-04
   0.833E-02 0.900E+01 0.938E+01   -.984E-01 -.909E+01 -.915E+01   0.725E-01 -.384E-01 -.688E+00   -.181E-06 0.183E-03 -.154E-04
   0.181E+01 0.169E+02 -.459E+00   -.123E+01 -.170E+02 0.553E+00   -.429E+00 -.348E-01 -.829E+00   0.470E-05 0.235E-03 0.845E-04
   -.626E+01 0.241E+01 0.300E+02   0.582E+01 -.286E+01 -.298E+02   0.671E-01 0.514E+00 -.147E+01   -.395E-05 -.105E-04 -.556E-03
   -.980E-01 -.908E+01 0.100E+02   0.183E-01 0.903E+01 -.959E+01   0.527E-01 0.569E-02 -.101E+01   -.367E-05 -.205E-03 -.395E-05
   -.789E+00 -.163E+02 -.143E+02   0.424E+00 0.162E+02 0.149E+02   0.173E+00 0.531E-01 -.103E+01   0.842E-05 -.178E-03 0.255E-03
   0.898E+00 0.170E+02 0.135E+02   -.457E+00 -.168E+02 -.141E+02   -.226E+00 -.919E-01 0.108E+01   -.948E-06 0.170E-03 -.885E-04
   0.121E+00 0.968E+01 -.966E+01   -.247E-01 -.958E+01 0.925E+01   -.572E-01 -.821E-01 0.100E+01   0.548E-05 0.690E-04 0.423E-04
   0.573E+01 -.137E+01 -.309E+02   -.531E+01 0.218E+01 0.308E+02   -.247E-01 -.856E+00 0.148E+01   0.982E-05 -.288E-03 0.543E-03
   -.173E+01 -.172E+02 0.141E+01   0.114E+01 0.174E+02 -.151E+01   0.422E+00 -.314E-01 0.771E+00   -.313E-05 -.193E-03 -.121E-03
   -.517E-02 -.960E+01 -.978E+01   0.965E-01 0.967E+01 0.951E+01   -.392E-01 0.538E-01 0.721E+00   -.969E-07 -.303E-04 0.124E-03
   0.429E+01 0.880E+01 -.295E+01   -.356E+01 -.847E+01 0.375E+01   -.398E+00 -.783E+00 0.610E-01   0.491E-05 0.132E-03 0.131E-03
   0.929E+00 0.672E+00 -.193E+01   -.210E+00 -.603E+00 0.145E+01   -.594E+00 0.741E-01 0.111E+01   -.172E-05 0.813E-04 -.488E-04
   0.200E+00 0.731E+01 -.508E+01   -.116E+00 -.713E+01 0.462E+01   -.152E-02 -.124E+00 0.102E+01   0.220E-05 0.199E-03 0.618E-04
   -.122E+02 0.296E+02 -.237E+01   0.116E+02 -.294E+02 0.268E+01   0.507E+00 -.460E+00 0.544E+00   0.851E-05 0.231E-03 0.171E-03
   0.121E+01 -.109E+01 0.164E+02   -.476E+00 0.120E+01 -.171E+02   -.541E+00 -.629E-01 0.741E+00   0.202E-04 -.629E-04 -.166E-03
   0.690E-01 -.723E+01 -.143E+02   0.445E-01 0.722E+01 0.141E+02   0.728E-03 -.575E-01 0.730E+00   -.423E-05 -.246E-03 0.151E-03
   0.313E+01 -.230E+02 -.315E+02   -.281E+01 0.233E+02 0.323E+02   0.338E+00 -.501E+00 0.117E+01   -.584E-05 -.998E-04 0.251E-03
   -.249E+01 -.711E+01 0.535E+01   0.191E+01 0.673E+01 -.610E+01   0.152E+00 0.615E+00 -.601E+00   0.808E-06 0.874E-04 -.992E-04
   0.835E-02 0.900E+01 0.938E+01   -.984E-01 -.909E+01 -.915E+01   0.725E-01 -.384E-01 -.688E+00   -.140E-05 0.185E-03 -.150E-04
   0.181E+01 0.169E+02 -.459E+00   -.123E+01 -.170E+02 0.553E+00   -.429E+00 -.348E-01 -.829E+00   -.129E-05 0.234E-03 0.845E-04
   -.337E+01 0.252E+02 0.307E+02   0.298E+01 -.257E+02 -.316E+02   -.363E+00 0.607E+00 -.122E+01   0.391E-05 0.113E-03 -.162E-03
   -.625E-01 0.787E+01 0.144E+02   -.429E-01 -.778E+01 -.142E+02   -.322E-01 -.240E-01 -.750E+00   -.253E-05 0.876E-04 -.640E-04
   -.111E+01 0.188E+01 -.165E+02   0.440E+00 -.203E+01 0.171E+02   0.491E+00 0.447E-01 -.749E+00   0.214E-04 -.169E-03 0.208E-03
   -.626E+01 0.241E+01 0.300E+02   0.582E+01 -.286E+01 -.298E+02   0.671E-01 0.514E+00 -.147E+01   -.377E-05 -.149E-04 -.560E-03
   -.979E-01 -.908E+01 0.100E+02   0.183E-01 0.903E+01 -.959E+01   0.527E-01 0.569E-02 -.101E+01   0.438E-05 -.210E-03 -.626E-05
   -.789E+00 -.163E+02 -.143E+02   0.424E+00 0.162E+02 0.149E+02   0.173E+00 0.531E-01 -.103E+01   0.403E-05 -.177E-03 0.255E-03
   0.113E+02 -.298E+02 0.367E+01   -.107E+02 0.297E+02 -.396E+01   -.374E+00 0.147E+00 -.709E+00   0.101E-04 -.159E-03 -.293E-03
   -.217E+00 -.793E+01 0.495E+01   0.123E+00 0.772E+01 -.451E+01   0.292E-01 0.138E+00 -.979E+00   -.141E-05 -.592E-04 0.222E-04
   -.124E+01 -.127E+01 0.204E+01   0.365E+00 0.119E+01 -.163E+01   0.739E+00 -.955E-01 -.103E+01   -.408E-05 0.118E-03 0.117E-03
   0.929E+00 0.672E+00 -.193E+01   -.210E+00 -.603E+00 0.145E+01   -.594E+00 0.741E-01 0.111E+01   0.250E-05 0.809E-04 -.490E-04
   0.200E+00 0.731E+01 -.508E+01   -.116E+00 -.713E+01 0.462E+01   -.152E-02 -.124E+00 0.102E+01   0.300E-05 0.201E-03 0.614E-04
   -.122E+02 0.296E+02 -.237E+01   0.116E+02 -.294E+02 0.268E+01   0.507E+00 -.460E+00 0.544E+00   0.451E-05 0.240E-03 0.171E-03
   0.898E+00 0.170E+02 0.135E+02   -.457E+00 -.168E+02 -.141E+02   -.226E+00 -.919E-01 0.108E+01   0.275E-05 0.171E-03 -.897E-04
   0.121E+00 0.968E+01 -.966E+01   -.246E-01 -.958E+01 0.925E+01   -.572E-01 -.821E-01 0.100E+01   -.642E-05 0.727E-04 0.466E-04
   0.573E+01 -.136E+01 -.309E+02   -.531E+01 0.218E+01 0.308E+02   -.247E-01 -.856E+00 0.148E+01   0.135E-04 -.283E-03 0.547E-03
   0.121E+01 -.109E+01 0.164E+02   -.476E+00 0.120E+01 -.171E+02   -.541E+00 -.629E-01 0.741E+00   -.249E-04 -.622E-04 -.163E-03
   0.690E-01 -.723E+01 -.143E+02   0.444E-01 0.722E+01 0.141E+02   0.728E-03 -.575E-01 0.730E+00   0.246E-05 -.244E-03 0.147E-03
   0.313E+01 -.230E+02 -.315E+02   -.281E+01 0.233E+02 0.323E+02   0.338E+00 -.501E+00 0.117E+01   -.765E-05 -.109E-03 0.250E-03
   -.173E+01 -.172E+02 0.141E+01   0.114E+01 0.174E+02 -.151E+01   0.422E+00 -.314E-01 0.771E+00   -.823E-06 -.193E-03 -.119E-03
   -.518E-02 -.960E+01 -.978E+01   0.965E-01 0.967E+01 0.951E+01   -.392E-01 0.538E-01 0.721E+00   0.114E-05 -.299E-04 0.123E-03
   0.429E+01 0.880E+01 -.295E+01   -.356E+01 -.847E+01 0.375E+01   -.398E+00 -.783E+00 0.610E-01   0.577E-05 0.133E-03 0.131E-03
   0.695E+00 -.319E-01 -.251E+00   0.488E-13 -.178E-13 -.282E-12   -.520E+00 -.137E+00 0.365E+00   0.158E-04 0.538E-03 -.435E-04

 POSITION                                       TOTAL-FORCE (eV/Angst)
      7.24675     14.86138      0.00000        -0.912241      0.743536     -0.247144
      5.32660      8.52521      0.64005         0.263871     -0.066967      0.137561
      3.40645      2.18905      1.28010        -0.301404      0.176414     -0.614012
      1.48630     12.14588      1.92015        -0.137141     -0.173634     -0.012539
      7.24675      5.80971      2.56020        -0.004695      0.041537      0.089552
      5.32660     15.76654      3.20025        -0.094639     -0.797092      0.351529
      1.48630     10.78813      0.00000        -0.083363      0.884792      0.035822
      7.24675      4.45196      0.64005        -0.013837      0.019812     -0.175525
      5.32660     14.40880      1.28010         0.133327      0.219750      0.017873
      3.40645      8.07263      1.92015         0.269494     -0.147762      0.512761
      1.48630      1.73646      2.56020        -0.269593      0.051927     -0.213037
      7.24675     11.69329      3.20025         1.171737     -0.446653      0.692976
      5.32660     10.78813      0.00000        -0.083363      0.884792      0.035822
      3.40645      4.45196      0.64005        -0.013837      0.019812     -0.175525
      1.48630     14.40880      1.28010         0.133327      0.219750      0.017873
      7.24675      8.07263      1.92015         0.269494     -0.147762      0.512761
      5.32660      1.73646      2.56020        -0.269593      0.051927     -0.213037
      3.40645     11.69329      3.20025         1.171737     -0.446653      0.692976
      3.40645     14.86138      0.00000        -0.912241      0.743536     -0.247144
      1.48630      8.52521      0.64005         0.263871     -0.066967      0.137561
      7.24675      2.18905      1.28010        -0.301404      0.176414     -0.614012
      5.32660     12.14588      1.92015        -0.137141     -0.173634     -0.012539
      3.40645      5.80971      2.56020        -0.004695      0.041537      0.089552
      1.48630     15.76654      3.20025        -0.094639     -0.797092      0.351529
      0.54076      9.28380      4.79589        -0.758197      0.177985     -2.079726
      6.30120      7.24718      7.62479        -0.140102      0.070789     -0.541774
      4.38105      5.21055     10.45369        -0.185120     -0.108494     -0.105437
      0.54076      1.13730      4.79589         0.206445      0.071562     -0.998213
      6.30120     15.39368      7.62479        -0.066984     -0.064509     -0.541590
      4.38105     13.35705     10.45369        -0.132711     -0.170340     -0.619064
      4.38105     13.35705      4.79589        -0.432144      0.243921     -1.352926
      2.46091     11.32043      7.62479        -0.020019     -0.125496     -0.457076
      0.54076      9.28380     10.45369         0.148025     -0.176188     -0.736730
      4.38105      5.21055      4.79589        -0.376264      0.068784     -1.304717
      2.46091      3.17393      7.62479        -0.029382     -0.040010     -0.582339
      0.54076      1.13730     10.45369        -0.195073     -0.080498     -0.453239
      2.46091      9.28380      6.21034         0.212559      0.056776      0.490799
      0.54076      7.24718      9.03924         0.036607      0.017559      0.595123
      6.30120      5.21055     11.86814         0.395415     -0.041744      1.427478
      2.46091      1.13730      6.21034        -0.168250      0.124145      0.675760
      0.54076     15.39368      9.03924         0.049753      0.130789      0.451695
      6.30120     13.35705     11.86814         0.334340     -0.446998      0.855219
      6.30120     13.35705      6.21034         0.122828      0.145220      0.632728
      4.38105     11.32043      9.03924         0.080118      0.059959      0.560820
      2.46091      9.28380     11.86814        -0.065252     -0.265005      0.851789
      6.30120      5.21055      6.21034         0.186158      0.051597      0.083133
      4.38105      3.17393      9.03924         0.111759     -0.060126      0.554497
      2.46091      1.13730     11.86814         0.663973     -0.145339      2.017974
      0.54076     13.35705      4.79589        -0.432144      0.243921     -1.352926
      6.30120     11.32043      7.62479        -0.020019     -0.125496     -0.457076
      4.38105      9.28380     10.45369         0.148025     -0.176188     -0.736730
      4.38105      9.28380      4.79589        -0.758197      0.177985     -2.079726
      2.46091      7.24718      7.62479        -0.140102      0.070789     -0.541774
      0.54076      5.21055     10.45369        -0.185120     -0.108494     -0.105437
      0.54076      5.21055      4.79589        -0.376264      0.068784     -1.304717
      6.30120      3.17393      7.62479        -0.029382     -0.040010     -0.582339
      4.38105      1.13730     10.45369        -0.195073     -0.080498     -0.453239
      4.38105      1.13730      4.79589         0.206445      0.071562     -0.998213
      2.46091     15.39368      7.62479        -0.066984     -0.064509     -0.541590
      0.54076     13.35705     10.45369        -0.132711     -0.170340     -0.619064
      2.46091     13.35705      6.21034         0.122828      0.145220      0.632728
      0.54076     11.32043      9.03924         0.080118      0.059959      0.560820
      6.30120      9.28380     11.86814        -0.065252     -0.265005      0.851789
      6.30120      9.28380      6.21034         0.212559      0.056776      0.490799
      4.38105      7.24718      9.03924         0.036607      0.017559      0.595123
      2.46091      5.21055     11.86814         0.395415     -0.041744      1.427478
      2.46091      5.21055      6.21034         0.186158      0.051597      0.083133
      0.54076      3.17393      9.03924         0.111759     -0.060126      0.554497
      6.30120      1.13730     11.86814         0.663973     -0.145339      2.017974
      6.30120      1.13730      6.21034        -0.168250      0.124145      0.675760
      4.38105     15.39368      9.03924         0.049753      0.130789      0.451695
      2.46091     13.35705     11.86814         0.334340     -0.446998      0.855219
    total drift:                                0.174424     -0.168319      0.114418

  FREE ENERGIE OF THE ION-ELECTRON SYSTEM (eV)
  free  energy   TOTEN  =      -315.26986564 eV

  energy  without entropy=     -315.26735638  energy(sigma->0) =     -315.26861101