 vasp.6.4.3 19Mar24 (build Oct 22 2024 11:23:12) complex

 executed on             LinuxIFC date 2025.06.04  02:04:07

 INCAR:
   SYSTEM = Si and Ge interface calculation
   ISTART = 0
   ICHARG = 2
   LWAVE = .FALSE.
   LREAL = AUTO
   ENCUT = 700
   ENAUG = 900
   ADDGRID = .TRUE.
   LMAXMIX = 6
   LASPH = .TRUE.
   LMIXTAU = .TRUE.
   NCORE = 16
   NELM = 100
   NBANDS = 173
   EDIFF = 1d-7
   AMIX = 0.6
   ISMEAR = 0
   SIGMA = 0.01
   NELECT = 288
   ISPIN = 2
   NUPDOWN = 1
   LVTOT = .FALSE.
   LVHAR = .TRUE.

 POTCAR:    PAW_PBE Ge 05Jan2001
 POTCAR:    PAW_PBE Si 05Jan2001
|           W    W    AA    RRRRR   N    N  II  N    N   GGGG   !!!           |
|           W    W   A  A   R    R  NN   N  II  NN   N  G    G  !!!           |
|           W    W  A    A  R    R  N N  N  II  N N  N  G       !!!           |
|           W WW W  AAAAAA  RRRRR   N  N N  II  N  N N  G  GGG   !            |
|           WW  WW  A    A  R   R   N   NN  II  N   NN  G    G                |
|           W    W  A    A  R    R  N    N  II  N    N   GGGG   !!!           |
|     You use a magnetic or noncollinear calculation, but did not specify     |
|     the initial magnetic moment with the MAGMOM tag. Note that a            |
|     default of 0.014 will be used for all atoms. This ferromagnetic         |
|     setup may break the symmetry of the crystal, in particular it may       |
|     rule out finding an antiferromagnetic solution. Thence, we              |
|     recommend setting the initial magnetic moment manually or verifying     |
|     carefully that this magnetic setup is desired.                          |

 POTCAR:    PAW_PBE Ge 05Jan2001
   VRHFIN =Ge: s2p2

   TITEL  = PAW_PBE Ge 05Jan2001
   POMASS =   72.610; ZVAL   =    4.000    mass and valenz
   ENMAX  =  173.807; ENMIN  =  130.355 eV

 POTCAR:    PAW_PBE Si 05Jan2001
   VRHFIN =Si: s2p2

   TITEL  = PAW_PBE Si 05Jan2001
   POMASS =   28.085; ZVAL   =    4.000    mass and valenz
   ENMAX  =  245.345; ENMIN  =  184.009 eV

 Optimization of the real space projectors (new method)

 maximal supplied QI-value         = 16.25
 optimisation between [QCUT,QGAM] = [ 13.49, 26.98] = [ 50.95,203.80] Ry
 Optimized for a Real-space Cutoff    1.25 Angstroem

   l    n(q)    QCUT    max X(q) W(low)/X(q) W(high)/X(q)  e(spline)
   0     10    13.489    65.336    0.91E-04    0.11E-03    0.34E-06
   0     10    13.489    52.220    0.89E-04    0.11E-03    0.34E-06
   1     10    13.489    36.409    0.22E-03    0.27E-03    0.14E-06
   1     10    13.489    21.334    0.21E-03    0.27E-03    0.14E-06
   2      9    13.489     4.673    0.11E-03    0.12E-03    0.19E-06
 Optimization of the real space projectors (new method)

 maximal supplied QI-value         = 19.84
 optimisation between [QCUT,QGAM] = [ 13.49, 26.99] = [ 50.98,203.92] Ry
 Optimized for a Real-space Cutoff    1.07 Angstroem

   l    n(q)    QCUT    max X(q) W(low)/X(q) W(high)/X(q)  e(spline)
   0      9    13.493   159.560    0.22E-03    0.15E-03    0.72E-07
   0      9    13.493   115.863    0.21E-03    0.15E-03    0.71E-07
   1      8    13.493    88.339    0.15E-03    0.11E-03    0.13E-06
   1      8    13.493    48.592    0.15E-03    0.10E-03    0.13E-06
  PAW_PBE Ge 05Jan2001                  :
  PAW_PBE Si 05Jan2001                  :

 POSCAR: Ge+Si
  positions in direct lattice

 exchange-correlation table for PE
   RHO(1)=    0.500       N(1)  =     2000
   RHO(2)=  100.500       N(2)  =     4000

 ion  position               nearest neighbor table
   1  0.991  0.996  0.000-  72 1.68  54 2.43  13 2.45  40 2.45  59 2.48  69 2.96
   2  0.741  0.871  0.275-  40 2.45  14 2.45  41 2.45  22 2.45
   3  0.491  0.746  0.551-  41 2.45  15 2.45  23 2.45  42 2.45  61 2.53
   4  0.991  0.496  0.000-  64 1.34  53 2.35  16 2.45  46 2.45
   5  0.741  0.371  0.275-  46 2.45  19 2.45  17 2.45  47 2.45
   6  0.491  0.246  0.551-  62 2.14  20 2.45  47 2.45  18 2.45  48 2.45
   7  0.491  0.246  0.000-  71 1.92  37 2.45  19 2.45  62 2.63  51 2.65  65 2.83
   8  0.241  0.121  0.275-  13 2.45  37 2.45  38 2.45  20 2.45
   9  0.991  0.996  0.551-  49 1.98  38 2.45  14 2.45  21 2.45  39 2.45
  10  0.491  0.746  0.000-  66 0.59  70 2.06  43 2.45  22 2.45  52 2.71
  11  0.241  0.621  0.275-  23 2.45  44 2.45  43 2.45  16 2.45
  12  0.991  0.496  0.551-  17 2.45  44 2.45  45 2.45  24 2.45  68 2.65
  13  0.241  0.996  0.138-  72 1.53   8 2.45  28 2.45   1 2.45  29 2.45  59 2.74
  14  0.991  0.871  0.413-  29 2.45   9 2.45  30 2.45   2 2.45  49 2.93
  15  0.741  0.746  0.688-  61 1.39  70 1.96   3 2.45  30 2.45  57 2.59
  16  0.241  0.496  0.138-  35 2.45   4 2.45  11 2.45  34 2.45
  17  0.991  0.371  0.413-  36 2.45   5 2.45  12 2.45  35 2.45
  18  0.741  0.246  0.688-  56 1.79   6 2.45  36 2.45  62 2.51  69 2.73
  19  0.741  0.246  0.138-   5 2.45  25 2.45  26 2.45   7 2.45
  20  0.491  0.121  0.413-   6 2.45  27 2.45  26 2.45   8 2.45
  21  0.241  0.996  0.688-  67 2.10  63 2.23   9 2.45  27 2.45  49 2.73  51 3.03
  22  0.741  0.746  0.138-  60 2.19  32 2.45  31 2.45  10 2.45   2 2.45  70 2.72  66 2.81
  23  0.491  0.621  0.413-  33 2.45  11 2.45  32 2.45   3 2.45
  24  0.241  0.496  0.688-  68 0.87  12 2.45  33 2.45  58 2.51  55 2.69
  25  0.991  0.246  0.000-  53 1.92  37 2.45  19 2.45  56 2.63  69 2.65  59 2.83
  26  0.741  0.121  0.275-  40 2.45  38 2.45  20 2.45  19 2.45
  27  0.491  0.996  0.551-  67 1.98  20 2.45  41 2.45  39 2.45  21 2.45
  28  0.491  0.996  0.000-  54 1.68  72 2.43  40 2.45  13 2.45  65 2.48  51 2.96
  29  0.241  0.871  0.275-  14 2.45  13 2.45  41 2.45  43 2.45
  30  0.991  0.746  0.551-  14 2.45  42 2.45  15 2.45  44 2.45  55 2.53
  31  0.991  0.746  0.000-  60 0.59  52 2.06  22 2.45  43 2.45  70 2.71
  32  0.741  0.621  0.275-  22 2.45  44 2.45  23 2.45  46 2.45
  33  0.491  0.496  0.551-  23 2.45  47 2.45  45 2.45  24 2.45  50 2.65
  34  0.491  0.496  0.000-  58 1.34  71 2.35  46 2.45  16 2.45
  35  0.241  0.371  0.275-  16 2.45  47 2.45  37 2.45  17 2.45
  36  0.991  0.246  0.551-  56 2.14  17 2.45  38 2.45  48 2.45  18 2.45
  37  0.241  0.246  0.138-   7 2.45   8 2.45  25 2.45  35 2.45
  38  0.991  0.121  0.413-   9 2.45   8 2.45  26 2.45  36 2.45
  39  0.741  0.996  0.688-  49 2.10  57 2.23   9 2.45  27 2.45  67 2.73  69 3.03
  40  0.741  0.996  0.138-  54 1.53  26 2.45  28 2.45   2 2.45   1 2.45  65 2.74
  41  0.491  0.871  0.413-   3 2.45  27 2.45  29 2.45   2 2.45  67 2.93
  42  0.241  0.746  0.688-  55 1.39  52 1.96  30 2.45   3 2.45  63 2.59
  43  0.241  0.746  0.138-  66 2.19  10 2.45  11 2.45  31 2.45  29 2.45  52 2.72  60 2.81
  44  0.991  0.621  0.413-  12 2.45  11 2.45  32 2.45  30 2.45
  45  0.741  0.496  0.688-  50 0.87  12 2.45  33 2.45  64 2.51  61 2.69
  46  0.741  0.496  0.138-   5 2.45  34 2.45   4 2.45  32 2.45
  47  0.491  0.371  0.413-  35 2.45   6 2.45   5 2.45  33 2.45
  48  0.241  0.246  0.688-  62 1.79  36 2.45   6 2.45  56 2.51  51 2.73
  49  0.944  0.912  0.688-   9 1.98  39 2.10  57 2.42  63 2.42  21 2.73  14 2.93
  50  0.694  0.523  0.751-  45 0.87  61 2.31  64 2.42  58 2.42  33 2.65
  51  0.444  0.134  0.813-  62 2.31  65 2.42  59 2.42   7 2.65  48 2.73  28 2.96  21 3.03
  52  0.194  0.745  0.875-  42 1.96  31 2.06  63 2.31  55 2.34  66 2.42  60 2.42  10 2.71  43 2.72

  53  0.944  0.357  0.938-  25 1.92  64 2.31  56 2.34   4 2.35
  54  0.694  0.968  0.000-  40 1.53  28 1.68  65 2.31  57 2.34   1 2.43
  55  0.194  0.662  0.688-  42 1.39  68 2.31  52 2.34  30 2.53  24 2.69
  56  0.944  0.273  0.751-  18 1.79  36 2.14  69 2.31  53 2.34  48 2.51  25 2.63
  57  0.694  0.884  0.813-  39 2.23  70 2.31  54 2.34  67 2.42  49 2.42  15 2.59
  58  0.444  0.495  0.875-  34 1.34  71 2.31  68 2.42  50 2.42  24 2.51
  59  0.194  0.107  0.938-  72 2.31  69 2.42  51 2.42   1 2.48  13 2.74  25 2.83
  60  0.944  0.718  0.000-  31 0.59  22 2.19  70 2.42  52 2.42  43 2.81
  61  0.694  0.662  0.688-  15 1.39  50 2.31  70 2.34   3 2.53  45 2.69
  62  0.444  0.273  0.751-  48 1.79   6 2.14  51 2.31  71 2.34  18 2.51   7 2.63
  63  0.194  0.884  0.813-  21 2.23  52 2.31  72 2.34  49 2.42  67 2.42  42 2.59
  64  0.944  0.495  0.875-   4 1.34  53 2.31  50 2.42  68 2.42  45 2.51
  65  0.694  0.107  0.938-  54 2.31  51 2.42  69 2.42  28 2.48  40 2.74   7 2.83
  66  0.444  0.718  0.000-  10 0.59  43 2.19  52 2.42  70 2.42  22 2.81
  67  0.444  0.912  0.688-  27 1.98  21 2.10  57 2.42  63 2.42  39 2.73  41 2.93
  68  0.194  0.523  0.751-  24 0.87  55 2.31  58 2.42  64 2.42  12 2.65
  69  0.944  0.134  0.813-  56 2.31  59 2.42  65 2.42  25 2.65  18 2.73   1 2.96  39 3.03
  70  0.694  0.745  0.875-  15 1.96  10 2.06  57 2.31  61 2.34  60 2.42  66 2.42  31 2.71  22 2.72

  71  0.444  0.357  0.938-   7 1.92  58 2.31  62 2.34  34 2.35
  72  0.194  0.968  0.000-  13 1.53   1 1.68  59 2.31  63 2.34  28 2.43

  LATTYP: Found a simple orthorhombic cell.
 ALAT       =     8.0013380050
 B/A-ratio  =     1.2838478996
 C/A-ratio  =     2.0000000000

  Lattice vectors:

 A1 = (  -8.0013380050,   0.0000000000,   0.0000000000)
 A2 = (   0.0000000000,   0.0000000000,  10.2725009920)
 A3 = (   0.0000000000,  16.0026760100,   0.0000000000)

Analysis of symmetry for initial positions (statically):
 Subroutine PRICEL returns following result:

[...]

   2 primitive cells build up your supercell.

 Routine SETGRP: Setting up the symmetry group for a
 simple orthorhombic supercell.

 Subroutine GETGRP returns: Found  1 space group operations
 (whereof  1 operations were pure point group operations)
 out of a pool of  8 trial point group operations.

The static configuration has the point symmetry C_1 .

Analysis of symmetry for dynamics (positions and initial velocities):
 Subroutine PRICEL returns following result:

[...]

The dynamic configuration has the point symmetry C_1 .

Analysis of structural, dynamic, and magnetic symmetry:
 Subroutine PRICEL returns following result:

  LATTYP: Found a simple orthorhombic cell.
 ALAT       =     4.0006694826
 B/A-ratio  =     2.5676954911
 C/A-ratio  =     3.9999995200

  Lattice vectors:

 A1 = (  -4.0006694826,   0.0000000000,   0.0000000000)
 A2 = (   0.0000000000,   0.0000000000,  10.2725009920)
 A3 = (   0.0000000000,  16.0026760100,   0.0000000000)

   2 primitive cells build up your supercell.

 Routine SETGRP: Setting up the symmetry group for a
 simple orthorhombic supercell.

 Subroutine GETGRP returns: Found  1 space group operations
 (whereof  1 operations were pure point group operations)
 out of a pool of  8 trial point group operations.

The overall configuration has the point symmetry C_1 .

 Subroutine INISYM returns: Found  1 space group operations
 (whereof  1 operations are pure point group operations),
 and found     2 'primitive' translations

                                     Primitive cell

  volume of cell :     657.6601

  direct lattice vectors                    reciprocal lattice vectors
    -4.000669483  0.000000000  0.000000000    -0.249958164  0.000000000  0.000000000
     0.000000000  0.000000000 10.272500992     0.000000000  0.000000000  0.097347277
     0.000000000 16.002676010  0.000000000     0.000000000  0.062489549  0.000000000

  length of vectors
[...]
  Fock        0.00000     0.00000     0.00000     0.00000     0.00000     0.00000
  Total     697.77006   893.20049   786.58714   298.93646   190.26700   -74.25513
  in kB     849.94631  1087.99804   958.13345   364.13133   231.76221   -90.44939

 VOLUME and BASIS-vectors are now :
  energy-cutoff  :      700.00
  volume of cell :     1315.32
      direct lattice vectors                 reciprocal lattice vectors
     8.001338005  0.000000000  0.000000000     0.124979097  0.000000000  0.000000000
     0.000000000 16.002676010  0.000000000     0.000000000  0.062489549  0.000000000
     0.000000000  0.000000000 10.272500992     0.000000000  0.000000000  0.097347277

  length of vectors
     8.001338005 16.002676010 10.272500992     0.124979097  0.062489549  0.097347277

 FORCES acting on ions
    electron-ion (+dipol)            ewald-force                    non-local-force                 convergence-correction
   0.401E+02 -.213E+02 -.299E+02   -.495E+02 0.234E+02 0.287E+02   -.156E+02 0.441E+01 -.131E+00   -.176E-04 -.744E-04 -.468E-06
   -.621E+00 -.306E+01 -.269E+02   0.490E+00 0.349E+01 0.269E+02   0.116E+00 -.571E+00 0.391E+00   0.988E-05 -.272E-04 -.125E-04
   0.439E+01 0.212E+01 0.631E+02   -.602E+01 -.151E+01 -.635E+02   0.136E+01 0.424E+00 -.756E+00   0.293E-05 0.148E-04 0.975E-05
   -.184E+02 0.211E+01 -.897E+02   0.337E+02 -.463E+00 0.139E+03   0.993E+01 -.188E+00 0.343E+02   -.202E-05 0.843E-04 0.354E-04
   0.446E+00 0.572E+01 -.156E+02   -.537E+00 -.554E+01 0.154E+02   0.184E-01 0.584E-01 0.327E+00   -.306E-05 0.520E-04 -.109E-04
   -.578E+01 -.242E+01 0.666E+02   0.624E+01 0.271E+01 -.678E+02   0.989E+00 -.827E+00 -.394E+01   -.542E-05 0.451E-04 -.697E-04
   -.920E+01 0.654E+01 -.503E+02   0.948E+01 -.828E+01 0.511E+02   0.183E+01 -.679E+01 0.306E+01   0.417E-05 0.364E-06 0.951E-04
   -.662E+00 -.226E+02 -.273E+02   0.626E+00 0.230E+02 0.272E+02   0.650E-01 -.653E+00 0.416E+00   -.394E-05 -.359E-04 -.471E-04
   -.604E+01 -.527E+02 0.692E+02   0.704E+01 0.534E+02 -.707E+02   0.676E+00 0.428E+01 -.486E+01   -.124E-05 -.113E-03 0.681E-05
   -.506E+01 -.116E+02 -.475E+02   0.404E+03 0.479E+03 0.481E+02   0.419E+01 0.107E+02 0.128E+01   -.625E-06 0.115E-04 0.265E-04
   0.393E+00 0.234E+02 -.153E+02   -.543E+00 -.234E+02 0.148E+02   0.159E-01 0.615E-02 0.773E+00   -.594E-05 0.252E-04 -.140E-04
   0.423E+01 0.321E+02 0.593E+02   -.480E+01 -.321E+02 -.599E+02   0.255E+00 -.103E-01 -.901E-01   -.143E-04 0.722E-04 -.205E-04
   -.157E+02 -.280E+02 -.109E+03   0.215E+02 0.340E+02 0.130E+03   0.625E+01 0.686E+01 0.230E+02   0.106E-05 -.286E-04 -.347E-05
   -.756E+00 -.530E+01 0.286E+02   0.921E+00 0.536E+01 -.288E+02   0.999E-01 -.100E+00 -.669E+00   0.279E-05 -.540E-04 -.132E-04
   -.231E+02 -.346E+02 0.627E+02   0.357E+02 0.735E+02 -.656E+02   0.948E+01 0.291E+02 -.511E+01   0.131E-04 0.808E-04 -.546E-04
   0.270E+01 0.149E+02 -.437E+02   -.268E+01 -.148E+02 0.443E+02   -.296E+00 -.580E-01 0.632E+00   0.918E-05 0.723E-04 0.152E-05
   -.131E+00 0.699E+01 0.170E+02   0.229E+00 -.715E+01 -.171E+02   0.236E-01 0.372E-01 0.158E-01   -.548E-05 0.662E-04 -.463E-04
   0.316E+02 -.481E+01 0.457E+02   -.362E+02 0.362E+01 -.467E+02   -.103E+02 -.298E+01 -.414E+01   0.280E-04 0.526E-04 -.138E-04
   0.110E+01 -.144E+02 -.441E+02   -.109E+01 0.142E+02 0.444E+02   -.115E+00 -.357E+00 0.253E+00   -.116E-05 -.175E-04 0.370E-04
   -.226E+00 -.178E+02 0.116E+02   0.275E+00 0.184E+02 -.120E+02   -.151E+00 -.542E+00 0.328E+00   0.325E-05 -.361E-04 -.111E-03
   0.107E+02 -.664E+02 0.467E+02   -.114E+02 0.684E+02 -.456E+02   -.230E+01 0.413E+01 -.118E+01   0.239E-05 -.174E-03 0.676E-04
   0.118E+02 0.630E+01 -.811E+02   -.102E+02 -.665E+01 0.808E+02   -.332E+01 0.624E+00 0.234E+01   -.438E-05 -.777E-05 0.169E-03
   0.154E+01 0.197E+02 0.298E+02   -.136E+01 -.198E+02 -.303E+02   -.123E+00 -.721E-01 0.395E+00   0.416E-05 0.181E-04 -.764E-05
   -.146E+02 0.613E+02 0.637E+02   0.125E+03 -.190E+03 -.246E+03   0.132E+02 -.130E+02 -.220E+02   0.200E-04 0.703E-04 -.619E-05
   -.920E+01 0.654E+01 -.503E+02   0.948E+01 -.828E+01 0.511E+02   0.183E+01 -.679E+01 0.306E+01   -.907E-05 -.792E-05 0.979E-04
   -.662E+00 -.226E+02 -.273E+02   0.626E+00 0.230E+02 0.272E+02   0.650E-01 -.653E+00 0.416E+00   0.408E-05 -.334E-04 -.498E-04
   -.604E+01 -.527E+02 0.692E+02   0.704E+01 0.534E+02 -.707E+02   0.676E+00 0.428E+01 -.486E+01   0.617E-05 -.122E-03 0.147E-04
   0.401E+02 -.213E+02 -.299E+02   -.495E+02 0.234E+02 0.287E+02   -.156E+02 0.441E+01 -.131E+00   0.739E-06 -.675E-04 -.473E-05
   -.621E+00 -.306E+01 -.269E+02   0.490E+00 0.349E+01 0.269E+02   0.116E+00 -.571E+00 0.391E+00   -.839E-05 -.367E-04 -.147E-04
   0.439E+01 0.212E+01 0.631E+02   -.602E+01 -.151E+01 -.635E+02   0.136E+01 0.424E+00 -.756E+00   -.159E-04 0.115E-04 0.391E-05
   -.506E+01 -.116E+02 -.475E+02   0.404E+03 0.479E+03 0.481E+02   0.419E+01 0.107E+02 0.128E+01   0.235E-04 0.585E-04 0.377E-04
   0.393E+00 0.234E+02 -.153E+02   -.543E+00 -.234E+02 0.148E+02   0.159E-01 0.615E-02 0.773E+00   0.708E-05 0.111E-04 -.465E-05
   0.423E+01 0.321E+02 0.593E+02   -.480E+01 -.321E+02 -.599E+02   0.255E+00 -.103E-01 -.901E-01   0.917E-05 0.747E-04 -.117E-04
   -.184E+02 0.211E+01 -.897E+02   0.337E+02 -.464E+00 0.139E+03   0.993E+01 -.188E+00 0.343E+02   0.104E-04 0.801E-04 0.145E-04
   0.446E+00 0.572E+01 -.156E+02   -.537E+00 -.554E+01 0.154E+02   0.184E-01 0.584E-01 0.327E+00   -.129E-05 0.521E-04 -.800E-05
   -.578E+01 -.242E+01 0.666E+02   0.624E+01 0.271E+01 -.678E+02   0.989E+00 -.827E+00 -.394E+01   -.101E-04 0.423E-04 -.716E-04
   0.110E+01 -.144E+02 -.441E+02   -.109E+01 0.142E+02 0.444E+02   -.115E+00 -.357E+00 0.253E+00   0.412E-06 -.201E-04 0.381E-04
   -.226E+00 -.178E+02 0.116E+02   0.275E+00 0.184E+02 -.120E+02   -.151E+00 -.542E+00 0.328E+00   -.222E-05 -.337E-04 -.111E-03
   0.107E+02 -.664E+02 0.467E+02   -.114E+02 0.684E+02 -.456E+02   -.230E+01 0.413E+01 -.118E+01   -.734E-05 -.180E-03 0.762E-04
   -.157E+02 -.280E+02 -.109E+03   0.215E+02 0.340E+02 0.130E+03   0.625E+01 0.686E+01 0.230E+02   0.777E-05 -.252E-04 -.118E-04
   -.756E+00 -.530E+01 0.286E+02   0.921E+00 0.536E+01 -.288E+02   0.999E-01 -.100E+00 -.669E+00   0.212E-06 -.538E-04 0.350E-05
   -.231E+02 -.346E+02 0.627E+02   0.357E+02 0.735E+02 -.656E+02   0.948E+01 0.291E+02 -.511E+01   0.200E-04 0.877E-04 -.661E-04
   0.118E+02 0.630E+01 -.811E+02   -.102E+02 -.665E+01 0.808E+02   -.332E+01 0.624E+00 0.234E+01   0.114E-04 -.211E-04 0.168E-03
   0.154E+01 0.197E+02 0.298E+02   -.136E+01 -.198E+02 -.303E+02   -.123E+00 -.721E-01 0.395E+00   -.218E-05 0.188E-04 -.183E-04
   -.146E+02 0.613E+02 0.637E+02   0.125E+03 -.190E+03 -.246E+03   0.132E+02 -.130E+02 -.220E+02   0.817E-06 0.822E-04 -.593E-05
   0.270E+01 0.149E+02 -.437E+02   -.268E+01 -.148E+02 0.443E+02   -.296E+00 -.580E-01 0.632E+00   -.140E-04 0.646E-04 -.102E-05
   -.131E+00 0.699E+01 0.170E+02   0.229E+00 -.715E+01 -.171E+02   0.236E-01 0.372E-01 0.158E-01   0.637E-05 0.693E-04 -.488E-04
   0.316E+02 -.481E+01 0.457E+02   -.362E+02 0.362E+01 -.467E+02   -.103E+02 -.298E+01 -.414E+01   0.234E-04 0.515E-04 -.151E-04
   -.643E+01 0.147E+02 0.247E+02   0.704E+01 -.143E+02 -.246E+02   0.146E+01 -.894E+01 0.576E+01   -.171E-04 -.993E-04 0.785E-04
   0.129E+02 0.136E+02 -.974E+01   -.123E+03 0.111E+03 0.194E+03   -.131E+02 0.150E+02 0.201E+02   -.176E-04 0.755E-04 0.256E-04
   -.992E+00 -.218E+00 0.290E+02   0.201E+01 0.258E+00 -.293E+02   -.983E+00 -.822E+00 0.379E+00   -.139E-05 -.957E-04 0.822E-04
   -.967E+01 0.195E+02 -.135E+02   0.768E+01 -.173E+02 0.176E+02   0.424E+01 -.327E+01 0.306E+01   0.267E-04 0.603E-04 -.112E-03
   0.561E+01 -.943E+01 -.234E+02   -.785E+01 0.517E+01 0.229E+02   -.217E-01 0.120E+02 -.315E+01   -.100E-04 0.559E-04 0.459E-04
   -.230E+02 0.327E+02 0.492E+01   0.215E+02 -.357E+02 -.154E+02   0.140E+02 -.170E+02 -.306E+02   0.111E-04 -.447E-04 -.278E-04
   0.141E+02 0.752E+02 0.431E+02   -.210E+02 -.103E+03 -.432E+02   -.136E+02 -.412E+02 0.606E+00   -.146E-04 -.407E-04 -.528E-04
   -.251E+02 -.414E+02 0.766E+01   0.242E+02 0.410E+02 -.717E+01   0.138E+02 0.625E+01 0.823E+01   -.345E-04 0.580E-04 0.284E-05
   0.230E+01 -.494E+01 0.712E+00   -.309E+01 0.518E+01 0.149E+01   0.568E+00 -.127E+01 -.108E+01   0.801E-05 0.290E-04 -.472E-04
   0.151E+02 0.111E+02 0.292E+02   -.244E+02 -.925E+01 -.630E+02   -.146E+02 -.128E+01 -.494E+02   0.148E-04 0.869E-04 0.216E-04
   -.459E+01 -.529E+02 -.127E+02   0.539E+01 0.533E+02 0.128E+02   -.521E+00 0.708E+00 -.877E+00   0.129E-05 -.107E-03 0.773E-04
   0.229E+00 0.605E+02 -.358E+02   -.409E+03 -.529E+03 0.382E+02   0.332E+01 -.897E+01 -.487E+01   -.473E-04 -.973E-04 0.458E-04
   0.141E+02 0.752E+02 0.431E+02   -.210E+02 -.103E+03 -.432E+02   -.136E+02 -.412E+02 0.606E+00   -.132E-04 -.479E-04 -.474E-04
   -.251E+02 -.414E+02 0.766E+01   0.242E+02 0.410E+02 -.717E+01   0.138E+02 0.625E+01 0.823E+01   -.278E-04 0.617E-04 0.983E-05
   0.230E+01 -.494E+01 0.712E+00   -.309E+01 0.518E+01 0.149E+01   0.568E+00 -.127E+01 -.108E+01   -.134E-05 0.346E-04 -.461E-04
   0.151E+02 0.111E+02 0.292E+02   -.244E+02 -.925E+01 -.630E+02   -.146E+02 -.128E+01 -.494E+02   -.212E-04 0.917E-04 0.590E-05
   -.459E+01 -.529E+02 -.127E+02   0.539E+01 0.533E+02 0.128E+02   -.521E+00 0.708E+00 -.877E+00   0.437E-05 -.111E-03 0.771E-04
   0.229E+00 0.605E+02 -.358E+02   -.409E+03 -.529E+03 0.382E+02   0.332E+01 -.897E+01 -.487E+01   -.274E-04 -.857E-04 0.478E-04
   -.643E+01 0.147E+02 0.247E+02   0.704E+01 -.143E+02 -.246E+02   0.146E+01 -.894E+01 0.576E+01   0.889E-05 -.978E-04 0.680E-04
   0.129E+02 0.136E+02 -.974E+01   -.123E+03 0.111E+03 0.194E+03   -.131E+02 0.150E+02 0.201E+02   0.372E-05 0.637E-04 0.239E-04
   -.992E+00 -.218E+00 0.290E+02   0.201E+01 0.258E+00 -.293E+02   -.983E+00 -.822E+00 0.379E+00   -.129E-04 -.957E-04 0.805E-04
   -.967E+01 0.195E+02 -.135E+02   0.768E+01 -.173E+02 0.176E+02   0.424E+01 -.327E+01 0.306E+01   -.728E-05 0.664E-04 -.118E-03
   0.561E+01 -.943E+01 -.234E+02   -.785E+01 0.517E+01 0.229E+02   -.217E-01 0.120E+02 -.315E+01   0.103E-04 0.749E-04 0.468E-04
   -.230E+02 0.327E+02 0.492E+01   0.215E+02 -.357E+02 -.154E+02   0.140E+02 -.170E+02 -.306E+02   -.605E-06 -.462E-04 -.163E-04
   -.216E+02 0.291E+02 0.549E+02   -.309E-12 -.853E-13 0.190E-12   0.216E+02 -.289E+02 -.544E+02   -.683E-04 -.896E-05 0.301E-03

 POSITION                                       TOTAL-FORCE (eV/Angst)
      7.93299     15.93433      0.00000       -24.986215      6.472234     -1.278383
      5.93266     13.93400      2.82890        -0.015321     -0.138954      0.379610
      3.93232     11.93366      5.65780        -0.258998      1.030912     -1.186050
      7.93299      7.93299      0.00000        25.175278      1.456785     83.110774
      5.93266      5.93266      2.82890        -0.073113      0.227604      0.147099
      3.93232      3.93232      5.65780         1.449978     -0.541693     -5.130220
      3.93232      3.93232      0.00000         2.116954     -8.539630      3.808809
      1.93199      1.93199      2.82890         0.028421     -0.246966      0.277677
      7.93299     15.93433      5.65780         1.674599      4.900867     -6.406538
      3.93232     11.93366      0.00000       403.523717    477.715911      1.913345
      1.93199      9.93333      2.82890        -0.133709     -0.064315      0.287526
      7.93299      7.93299      5.65780        -0.322234     -0.007520     -0.720813
      1.93199     15.93433      1.41445        12.027104     12.829022     43.323488
      7.93299     13.93400      4.24335         0.265512     -0.046628     -0.899374
      5.93266     11.93366      7.07225        22.070135     68.018607     -8.010610
      1.93199      7.93299      1.41445        -0.273502     -0.012884      1.202002
      7.93299      5.93266      4.24335         0.121567     -0.120220     -0.132013
      5.93266      3.93232      7.07225       -14.854677     -4.176150     -5.157428
      5.93266      3.93232      1.41445        -0.095903     -0.556920      0.506160
      3.93232      1.93199      4.24335        -0.101517      0.014329     -0.082347
      1.93199     15.93433      7.07225        -3.017939      6.154615     -0.108679
      5.93266     11.93366      1.41445        -1.637794      0.271814      2.097492
      3.93232      9.93333      4.24335         0.058296     -0.120558     -0.077082
      1.93199      7.93299      7.07225       123.254856   -141.505445   -204.521173
      7.93299      3.93232      0.00000         2.116954     -8.539630      3.808809
      5.93266      1.93199      2.82890         0.028421     -0.246966      0.277677
      3.93232     15.93433      5.65780         1.674599      4.900867     -6.406538
      3.93232     15.93433      0.00000       -24.986215      6.472234     -1.278383
      1.93199     13.93400      2.82890        -0.015321     -0.138954      0.379610
      7.93299     11.93366      5.65780        -0.258998      1.030912     -1.186050
      7.93299     11.93366      0.00000       403.523717    477.715911      1.913345
      5.93266      9.93333      2.82890        -0.133709     -0.064315      0.287526
      3.93232      7.93299      5.65780        -0.322234     -0.007520     -0.720813
      3.93232      7.93299      0.00000        25.175278      1.456785     83.110774
      1.93199      5.93266      2.82890        -0.073113      0.227604      0.147099
      7.93299      3.93232      5.65780         1.449978     -0.541693     -5.130220
      1.93199      3.93232      1.41445        -0.095903     -0.556920      0.506160
      7.93299      1.93199      4.24335        -0.101517      0.014329     -0.082347
      5.93266     15.93433      7.07225        -3.017939      6.154615     -0.108679
      5.93266     15.93433      1.41445        12.027104     12.829022     43.323488
      3.93232     13.93400      4.24335         0.265512     -0.046628     -0.899374
      1.93199     11.93366      7.07225        22.070135     68.018607     -8.010610
      1.93199     11.93366      1.41445        -1.637794      0.271814      2.097492
      7.93299      9.93333      4.24335         0.058296     -0.120558     -0.077082
      5.93266      7.93299      7.07225       123.254856   -141.505445   -204.521173
      5.93266      7.93299      1.41445        -0.273502     -0.012884      1.202002
      3.93232      5.93266      4.24335         0.121567     -0.120220     -0.132013
      1.93199      3.93232      7.07225       -14.854677     -4.176150     -5.157428
      7.54937     14.59657      7.07225         2.062075     -8.576547      5.862080
      5.54904      8.37330      7.71230      -123.347406    139.987490    204.436988
      3.54871      2.15004      8.35235         0.036613     -0.786056      0.080819
      1.54837     11.92945      8.99240         2.244516     -1.059133      7.130112
      7.54937      5.70619      9.63245        -2.263317      7.744544     -3.644708
      5.54904     15.48560      0.00000        12.441979    -20.044546    -41.032120
      1.54837     10.59590      7.07225       -20.552532    -69.005732      0.517627
      7.54937      4.37264      7.71230        12.925428      5.877413      8.703910
      5.54904     14.15205      8.35235        -0.226228     -1.029926      1.119670
      3.54870      7.92878      8.99240       -23.894424      0.557569    -83.212498
      1.54837      1.70552      9.63245         0.280121      1.104180     -0.823286
      7.54937     11.48493      0.00000      -405.702322   -477.784071     -2.481866
      5.54904     10.59590      7.07225       -20.552532    -69.005732      0.517627
      3.54871      4.37264      7.71230        12.925428      5.877413      8.703910
      1.54837     14.15205      8.35235        -0.226228     -1.029926      1.119670
      7.54937      7.92878      8.99240       -23.894424      0.557569    -83.212498
      5.54904      1.70552      9.63245         0.280121      1.104180     -0.823286
      3.54870     11.48493      0.00000      -405.702322   -477.784071     -2.481866
      3.54871     14.59657      7.07225         2.062075     -8.576547      5.862080
      1.54837      8.37330      7.71230      -123.347406    139.987490    204.436988
      7.54937      2.15004      8.35235         0.036613     -0.786056      0.080819
      5.54904     11.92945      8.99240         2.244516     -1.059133      7.130112
      3.54870      5.70619      9.63245        -2.263317      7.744544     -3.644708
      1.54837     15.48560      0.00000        12.441979    -20.044546    -41.032120
    total drift:                               -0.009768      0.250599      0.514737

  FREE ENERGIE OF THE ION-ELECTRON SYSTEM (eV)
  free  energy   TOTEN  =       477.83058744 eV

  energy  without entropy=      477.83222508  energy(sigma->0) =      477.83140626