 vasp.6.4.3 19Mar24 (build Oct 22 2024 11:23:12) complex

 executed on             LinuxIFC date 2025.06.04  01:01:36

 INCAR:
   SYSTEM = Si and Ge interface calculation
   ISTART = 0
   ICHARG = 2
   LWAVE = .FALSE.
   LREAL = AUTO
   ENCUT = 700
   ENAUG = 900
   ADDGRID = .TRUE.
   LMAXMIX = 6
   LASPH = .TRUE.
   LMIXTAU = .TRUE.
   NCORE = 16
   NELM = 100
   NBANDS = 116
   EDIFF = 1d-7
   AMIX = 0.6
   ISMEAR = 0
   SIGMA = 0.01
   NELECT = 192
   ISPIN = 2
   NUPDOWN = 1
   LVTOT = .FALSE.
   LVHAR = .TRUE.

 POTCAR:    PAW_PBE Sn 08Apr2002
|           W    W    AA    RRRRR   N    N  II  N    N   GGGG   !!!           |
|           W    W   A  A   R    R  NN   N  II  NN   N  G    G  !!!           |
|           W    W  A    A  R    R  N N  N  II  N N  N  G       !!!           |
|           W WW W  AAAAAA  RRRRR   N  N N  II  N  N N  G  GGG   !            |
|           WW  WW  A    A  R   R   N   NN  II  N   NN  G    G                |
|           W    W  A    A  R    R  N    N  II  N    N   GGGG   !!!           |
|     You use a magnetic or noncollinear calculation, but did not specify     |
|     the initial magnetic moment with the MAGMOM tag. Note that a            |
|     default of 0.021 will be used for all atoms. This ferromagnetic         |
|     setup may break the symmetry of the crystal, in particular it may       |
|     rule out finding an antiferromagnetic solution. Thence, we              |
|     recommend setting the initial magnetic moment manually or verifying     |
|     carefully that this magnetic setup is desired.                          |

 POTCAR:    PAW_PBE Sn 08Apr2002
   VRHFIN =Sn: s2p2

   TITEL  = PAW_PBE Sn 08Apr2002
   POMASS =  118.710; ZVAL   =    4.000    mass and valenz
   ENMAX  =  103.236; ENMIN  =   77.427 eV

 Optimization of the real space projectors (new method)

 maximal supplied QI-value         = 12.47
 optimisation between [QCUT,QGAM] = [ 12.47, 27.06] = [ 43.56,205.12] Ry
 Optimized for a Real-space Cutoff    1.58 Angstroem

   l    n(q)    QCUT    max X(q) W(low)/X(q) W(high)/X(q)  e(spline)
   0     13    12.472    14.688    0.45E-04    0.45E-04    0.25E-05
   0     13    12.472     7.308    0.94E-04    0.11E-03    0.61E-05
   1     12    12.472    45.102    0.34E-03    0.14E-03    0.21E-05
   1     12    12.472    30.691    0.31E-03    0.13E-03    0.20E-05
   2     12    12.472     7.156    0.86E-04    0.11E-03    0.17E-05
 WARNING: PSMAXN for non-local potential too small
          PSMAXN should be >   13.5545592237991       NTYP=           1
  PAW_PBE Sn 08Apr2002                  :

 POSCAR: Sn+Sn
  positions in direct lattice

 exchange-correlation table for PE
   RHO(1)=    0.500       N(1)  =     2000
   RHO(2)=  100.500       N(2)  =     4000

 ion  position               nearest neighbor table
   1  0.995  0.995  0.000-  37 2.74  10 2.81  31 2.81  47 2.94  46 3.24  43 3.44  15 3.55  30 3.55

   2  0.828  0.828  0.300-  32 2.81  11 2.81  16 2.81  31 2.81
   3  0.662  0.662  0.600-  32 2.81  12 2.81  17 2.81  33 2.81
   4  0.328  0.328  0.000-  44 2.16  38 2.71  13 2.81  28 2.81  48 2.91  41 2.95  45 3.14  39 3.54
                            18 3.55  36 3.55
   5  0.162  0.162  0.300-  29 2.81  10 2.81  14 2.81  28 2.81
   6  0.995  0.995  0.600-  37 1.69  29 2.81  11 2.81  15 2.81  30 2.81  46 3.24  43 3.44
   7  0.662  0.662  0.000-  42 1.23  16 2.81  34 2.81  45 3.39  12 3.55  33 3.55  48 3.59
   8  0.495  0.495  0.300-  17 2.81  35 2.81  34 2.81  13 2.81  48 3.26
   9  0.328  0.328  0.600-  35 2.81  18 2.81  14 2.81  36 2.81  38 3.47  41 3.66  44 3.74
  10  0.245  0.995  0.150-  19 2.81   1 2.81   5 2.81  20 2.81
  11  0.078  0.828  0.450-  20 2.81  21 2.81   6 2.81   2 2.81
  12  0.912  0.662  0.750-   3 2.81  21 2.81  39 3.24  42 3.44  43 3.54   7 3.55  22 3.55
  13  0.578  0.328  0.150-  48 2.55  25 2.81   4 2.81  26 2.81   8 2.81  38 3.26
  14  0.412  0.162  0.450-  26 2.81   9 2.81  27 2.81   5 2.81  40 3.74
  15  0.245  0.995  0.750-  46 1.23  40 2.19  37 2.48   6 2.81  27 2.81  19 3.55   1 3.55
  16  0.912  0.662  0.150-   7 2.81  22 2.81   2 2.81  23 2.81  45 3.09  39 3.24  42 3.44
  17  0.745  0.495  0.450-  24 2.81  23 2.81   8 2.81   3 2.81
  18  0.578  0.328  0.750-  38 1.14   9 2.81  24 2.81  47 3.27  48 3.34  44 3.47   4 3.55  25 3.55

  19  0.495  0.995  0.000-  40 2.74  10 2.81  31 2.81  44 2.94  43 3.24  46 3.44  15 3.55  30 3.55

[...]

  45  0.991  0.471  0.000-  28 2.55  42 2.81  39 2.81  41 2.81  25 2.91  16 3.09   4 3.14  23 3.26
                            36 3.34   7 3.39  22 3.59
  46  0.268  0.915  0.800-  15 1.23  37 2.81  40 2.81   1 3.24   6 3.24  19 3.44  27 3.44  33 3.54

  47  0.880  0.193  0.900-  25 2.16  38 2.81  41 2.81  37 2.81   1 2.94  18 3.27  36 3.47  24 3.74

  48  0.491  0.471  0.000-  13 2.55  42 2.81  39 2.81  38 2.81   4 2.91  34 3.09  25 3.14   8 3.26
                            18 3.34  22 3.39   7 3.59

  LATTYP: Found a base centered orthorhombic cell.
 ALAT       =     9.1771144870
 B/A-ratio  =     3.0000002078
 C/A-ratio  =     1.1785113263

  Lattice vectors:

 A1 = (   4.5885567670, -13.7656726840,   0.0000000000)
 A2 = (   4.5885577200,  13.7656726840,   0.0000000000)
 A3 = (   0.0000000000,   0.0000000000,  10.8153333660)

Analysis of symmetry for initial positions (statically):
 Subroutine PRICEL returns following result:

  LATTYP: Found a simple orthorhombic cell.
 ALAT       =     4.5885566929
 B/A-ratio  =     2.3570229355
 C/A-ratio  =     3.0000005678

[...]

   2 primitive cells build up your supercell.

 Routine SETGRP: Setting up the symmetry group for a
 base centered orthorhombic supercell.

 Subroutine GETGRP returns: Found  1 space group operations
 (whereof  1 operations were pure point group operations)
 out of a pool of  8 trial point group operations.

The static configuration has the point symmetry C_1 .

Analysis of symmetry for dynamics (positions and initial velocities):
 Subroutine PRICEL returns following result:

[...]

The dynamic configuration has the point symmetry C_1 .

Analysis of structural, dynamic, and magnetic symmetry:
 Subroutine PRICEL returns following result:

  LATTYP: Found a simple orthorhombic cell.
 ALAT       =     4.5885566929
 B/A-ratio  =     2.3570229355
 C/A-ratio  =     3.0000005678

  Lattice vectors:

 A1 = (  -4.5885566929,   0.0000000000,   0.0000000000)
 A2 = (   0.0000000000,   0.0000000000,  10.8153333660)
 A3 = (   0.0000010271,  13.7656726840,   0.0000000000)

   2 primitive cells build up your supercell.

 Routine SETGRP: Setting up the symmetry group for a
 base centered orthorhombic supercell.

 Subroutine GETGRP returns: Found  1 space group operations
 (whereof  1 operations were pure point group operations)
 out of a pool of  8 trial point group operations.

The overall configuration has the point symmetry C_1 .

 Subroutine INISYM returns: Found  1 space group operations
 (whereof  1 operations are pure point group operations),
 and found     2 'primitive' translations

                                     Primitive cell

  volume of cell :     683.1459

  direct lattice vectors                    reciprocal lattice vectors
    -4.588556693  0.000000000  0.000000000    -0.217933452  0.000000016  0.000000000
     0.000000000  0.000000000 10.815333366     0.000000000  0.000000000  0.092461320
     0.000001027 13.765672684  0.000000000     0.000000000  0.072644470  0.000000000

  length of vectors
     4.588556693 10.815333366 13.765672684     0.217933452  0.092461320  0.072644470

  position of ions in fractional coordinates (direct lattice)
     0.014894425  0.000000000  0.995035112
     0.514894526  0.300000042  0.828368425
     0.014894685  0.599999964  0.661701798
     0.014894376  0.000000000  0.328368455
     0.514894684  0.300000042  0.161701739
     0.014894425  0.599999964  0.995035112
     0.014894774  0.000000000  0.661701739
     0.514894605  0.300000042  0.495035052
     0.014894526  0.599999964  0.328368425
     0.514894635  0.149999991  0.995035112
     0.014894616  0.450000018  0.828368425
     0.514894564  0.750000060  0.661701739
     0.514894736  0.149999991  0.328368425
     0.014894416  0.450000018  0.161701769
     0.514894635  0.750000060  0.995035052
     0.514894564  0.149999991  0.661701739
     0.014894545  0.450000018  0.495035052
     0.514894793  0.750000060  0.328368396
     0.047768373  0.750000060  0.026538122
     0.547768650  0.850000143  0.304316014
     0.047768787  0.950000167  0.582093835
     0.547768527  0.800000012  0.915427089
     0.047768502  0.900000095  0.193204999
     0.547768594  0.000000238  0.470983028

  ion indices of the primitive-cell ions
   primitive index   ion index
                 1           1
                 2           2
                 3          21
                 4          25
                 5           5
                 6           6
                 7          22
                 8          23
                 9          24
                10          10
                11          11
                12          12
                13          28
                14          29
                15          15
                16          16
                17          17
                18          36
                19          37
                20          41
                21          39
                22          43
                23          47
                24          45

 KPOINTS: Automatic KPOINTS generated

Automatic generation of k-mesh.
 Grid dimensions read from file:
 generate k-points for:    4    2    3

 Generating k-lattice:

  Cartesian coordinates                     Fractional coordinates (reciprocal lattice)
     0.027241678 -0.009080560  0.000000000     0.250000000 -0.000000000  0.000000000
     0.000000000  0.036322235  0.000000000     0.000000000  0.500000000  0.000000000
     0.000000000  0.000000000  0.030820440     0.000000000  0.000000000  0.333333333

  Length of vectors
     0.028715250  0.036322235  0.030820440

  Shift w.r.t. Gamma in fractional coordinates (k-lattice)
     0.000000000  0.000000000  0.000000000

 WARNING: IBZKPT: internal override: KBLOWUP is changed to .FALSE.
      ... skipping the blow-up phase ...

 Subroutine IBZKPT returns following result:

 Found     14 irreducible k-points:

 Following reciprocal coordinates:
            Coordinates               Weight
  0.000000  0.000000  0.000000      1.000000
  0.250000  0.000000  0.000000      2.000000
  0.500000  0.000000  0.000000      1.000000
  0.000000  0.500000  0.000000      1.000000
  0.250000  0.500000  0.000000      2.000000
  0.500000  0.500000  0.000000      1.000000
  0.000000  0.000000  0.333333      2.000000
  0.250000  0.000000  0.333333      2.000000
  0.500000  0.000000  0.333333      2.000000
 -0.250000 -0.000000  0.333333      2.000000
  0.000000  0.500000  0.333333      2.000000
  0.250000  0.500000  0.333333      2.000000
  0.500000  0.500000  0.333333      2.000000
 -0.250000  0.500000  0.333333      2.000000

 Following cartesian coordinates:
            Coordinates               Weight
  0.000000  0.000000  0.000000      1.000000
  0.027242 -0.009081  0.000000      2.000000
[...]
     42      -0.0623      1.00000
     43      -0.0238      1.00000
     44       0.1659      1.00000
     45       0.2349      1.00000
     46       0.2555      1.00000
     47       0.5277      1.00000
     48       0.5326      1.00000
     49       0.6416      1.00000
     50       0.7350      1.00000
     51       0.9722      1.00000
     52       0.9919      1.00000
     53       1.2828      1.00000
     54       1.3032      1.00000
     55       1.5158      1.00000
     56       1.5445      1.00000
     57       1.7734      1.00000
     58       1.9252      1.00000
     59       2.0701      1.00000
     60       2.0906      1.00000
[...]
    102       5.8834      0.00000
    103       5.9374      0.00000
    104       5.9557      0.00000
    105       6.1425      0.00000
    106       6.1981      0.00000
    107       6.2999      0.00000
    108       6.3193      0.00000
    109       6.5051      0.00000
    110       6.5060      0.00000
    111       6.5657      0.00000
    112       6.6469      0.00000
    113       6.6651      0.00000
    114       6.8537      0.00000
    115       6.8903      0.00000
    116       7.0009      0.00000
 Fermi energy:         5.4068637026

 spin component 2

[...]

 k-point    14 :      -0.2500    0.5000    0.3333
  band No.  band energies     occupation
      1      -7.8412      1.00000
      2      -7.8098      1.00000
      3      -7.2589      1.00000
      4      -6.6285      1.00000
      5      -5.5407      1.00000
      6      -5.5201      1.00000
      7      -4.8681      1.00000
      8      -4.5623      1.00000
      9      -4.3631      1.00000
     10      -4.2731      1.00000
     11      -4.2077      1.00000
     12      -4.0479      1.00000
     13      -3.9218      1.00000
     14      -3.7312      1.00000
     15      -3.7247      1.00000
     16      -3.4578      1.00000
     17      -3.4007      1.00000
     18      -3.3405      1.00000
     19      -3.2990      1.00000
     20      -3.1974      1.00000
     21      -2.9939      1.00000
     22      -2.6038      1.00000
     23      -2.5782      1.00000
     24      -2.4008      1.00000
     25      -2.3319      1.00000
     26      -2.2555      1.00000
     27      -1.9538      1.00000
     28      -1.7188      1.00000
     29      -1.7030      1.00000
     30      -1.5306      1.00000
     31      -1.3606      1.00000
     32      -1.1926      1.00000
     33      -1.1645      1.00000
     34      -1.0147      1.00000
     35      -0.9620      1.00000
     36      -0.6905      1.00000
     37      -0.5602      1.00000
     38      -0.4216      1.00000
     39      -0.3569      1.00000
     40      -0.2763      1.00000
     41      -0.1811      1.00000
     42      -0.0446      1.00000
     43      -0.0036      1.00000
     44       0.1846      1.00000
     45       0.2503      1.00000
     46       0.2761      1.00000
     47       0.5455      1.00000
     48       0.5502      1.00000
     49       0.6580      1.00000
     50       0.7517      1.00000
     51       0.9992      1.00000
     52       1.0143      1.00000
     53       1.2973      1.00000
     54       1.3207      1.00000
     55       1.5342      1.00000
     56       1.5611      1.00000
     57       1.7926      1.00000
     58       1.9405      1.00000
     59       2.0871      1.00000
     60       2.1077      1.00000
[...]
    102       5.9079      0.00000
    103       5.9608      0.00000
    104       5.9800      0.00000
    105       6.1610      0.00000
    106       6.2164      0.00000
    107       6.3165      0.00000
    108       6.3378      0.00000
    109       6.5207      0.00000
    110       6.5222      0.00000
    111       6.5859      0.00000
    112       6.6640      0.00000
    113       6.6843      0.00000
    114       6.8742      0.00000
    115       6.9056      0.00000
    116       7.0170      0.00000

 soft charge-density along one line, spin component           1
         0         1         2         3         4         5         6         7         8         9
 total charge-density along one line

 soft charge-density along one line, spin component           2
         0         1         2         3         4         5         6         7         8         9
 total charge-density along one line

------------------------ aborting loop because EDIFF is reached ----------------------------------------

  FORCE on cell =-STRESS in cart. coord.  units (eV):
  Direction    XX          YY          ZZ          XY          YZ          ZX
  Alpha Z   210.94477   210.94477   210.94477
  Ewald   -1038.09605 -1462.28100 -1480.42024    85.30014   132.19178   -56.13169
  Hartree   517.95818   176.34157   -16.02066     0.02487   105.21923     0.29049
  E(xc)    -913.70651  -988.67220  -986.35367   -13.43519    10.81274     8.42746
  Local   -1843.90308  -564.15796  -314.27875     7.80853  -290.72045    -7.25060
  n-local  2540.85327  2508.17092  2523.40119     9.23465    16.97628    -5.29642
  augment  -621.49171  -561.50393  -555.49794     9.18949     4.20711    -5.79316
  Kinetic  1369.69808  1422.20624  1403.03680     0.46301    -3.31049    -0.53597
  Fock        0.00000     0.00000     0.00000     0.00000     0.00000     0.00000
  Total     222.25693   741.04840   784.81150    98.58548   -24.62380   -66.28989
  in kB     260.62879   868.98776   920.30640   115.60591   -28.87501   -77.73461

 VOLUME and BASIS-vectors are now :
  energy-cutoff  :      700.00
  volume of cell :     1366.29
      direct lattice vectors                 reciprocal lattice vectors
     9.177114487  0.000000000  0.000000000     0.108966713 -0.036322239  0.000000000
     4.588557720 13.765672684  0.000000000     0.000000000  0.072644470  0.000000000
     0.000000000  0.000000000 10.815333366     0.000000000  0.000000000  0.092461320

  length of vectors
     9.177114487 14.510293119 10.815333366     0.114861001  0.072644470  0.092461320

 FORCES acting on ions
    electron-ion (+dipol)            ewald-force                    non-local-force                 convergence-correction
   -.301E+00 0.307E+02 -.500E+02   0.265E+00 -.313E+02 0.504E+02   0.179E+00 -.141E+00 0.128E+01   -.141E-04 -.161E-05 -.112E-04
   -.758E-02 0.227E+01 -.218E+01   -.938E-02 -.237E+01 0.213E+01   0.635E-02 0.375E+00 0.201E+00   -.685E-06 0.494E-05 0.399E-05
   -.532E-01 -.263E+00 0.191E+02   0.154E-01 0.207E+00 -.184E+02   0.233E-01 0.631E-01 -.803E+00   0.552E-05 0.217E-05 0.308E-05
   0.297E+01 -.113E+02 -.442E+02   -.314E+01 0.146E+02 0.463E+02   -.417E-01 0.843E+01 0.626E+01   0.376E-05 -.311E-05 0.123E-04
   0.500E-01 0.753E+01 -.906E+01   -.550E-01 -.786E+01 0.887E+01   0.201E-01 0.250E+00 0.378E+00   0.137E-05 0.112E-04 0.578E-05
   -.153E+01 0.193E+02 0.731E+02   0.483E+01 -.284E+02 -.107E+03   0.295E+01 -.757E+01 -.316E+02   -.165E-04 0.278E-05 0.935E-05
   -.185E+01 -.513E+02 -.864E+01   0.161E+02 0.158E+03 0.602E+02   0.352E+01 0.237E+02 0.118E+02   0.376E-05 0.524E-05 -.654E-05
   -.260E+00 -.107E+02 -.329E+02   0.268E+00 0.101E+02 0.332E+02   0.199E-03 0.448E+00 0.340E+00   0.160E-06 -.139E-04 0.274E-05
   0.662E+00 -.185E+02 0.410E+02   -.574E+00 0.182E+02 -.419E+02   -.220E+00 0.460E+00 0.110E+01   0.423E-05 -.635E-05 -.133E-04
   0.163E-02 0.159E+02 -.260E+02   -.789E-01 -.158E+02 0.258E+02   0.589E-01 -.110E-01 0.346E+00   0.183E-05 0.618E-05 0.307E-06
   0.493E-01 0.120E+02 0.166E+02   -.346E-01 -.124E+02 -.168E+02   0.233E-01 0.239E+00 -.539E-01   -.568E-05 0.387E-05 0.106E-04
   0.748E+00 -.821E+01 0.223E+02   -.799E+00 0.889E+01 -.214E+02   0.513E-01 -.139E+00 -.249E+00   -.453E-06 0.147E-04 -.483E-05
   -.886E+00 0.178E+02 -.592E+02   0.115E+01 -.189E+02 0.594E+02   -.515E-01 -.154E+01 0.298E+01   -.640E-06 -.499E-06 0.866E-05
   -.156E+00 -.227E+01 0.238E+02   0.155E+00 0.192E+01 -.238E+02   0.201E-01 0.500E+00 -.419E+00   0.280E-05 0.502E-05 0.405E-05
   0.663E+01 0.134E+02 0.134E+02   0.580E+01 0.905E+02 -.638E+02   -.283E+01 0.219E+02 -.118E+02   0.543E-05 -.175E-05 -.360E-05
   0.696E+00 -.338E+02 -.348E+02   -.691E+00 0.340E+02 0.349E+02   -.209E+00 0.870E+00 0.837E+00   0.437E-06 -.181E-05 0.159E-05
   0.568E-02 -.991E+01 -.306E+00   -.379E-01 0.105E+02 0.484E+00   0.458E-01 -.324E+00 -.202E+00   -.540E-06 -.102E-04 -.250E-06
   -.234E+01 -.260E+02 0.567E+02   0.209E+02 0.673E+02 -.192E+03   0.282E+01 0.597E+01 -.195E+02   -.131E-05 -.723E-05 -.935E-05
   -.301E+00 0.307E+02 -.500E+02   0.265E+00 -.313E+02 0.504E+02   0.179E+00 -.141E+00 0.128E+01   0.146E-04 -.158E-05 -.150E-04
   -.759E-02 0.227E+01 -.218E+01   -.937E-02 -.237E+01 0.213E+01   0.635E-02 0.375E+00 0.201E+00   0.787E-06 0.233E-05 0.293E-05
   -.532E-01 -.263E+00 0.191E+02   0.154E-01 0.207E+00 -.184E+02   0.233E-01 0.631E-01 -.803E+00   -.507E-05 0.796E-06 0.340E-05
   -.185E+01 -.513E+02 -.864E+01   0.161E+02 0.158E+03 0.602E+02   0.352E+01 0.237E+02 0.118E+02   -.306E-05 0.293E-05 -.688E-05
   -.260E+00 -.107E+02 -.329E+02   0.268E+00 0.101E+02 0.332E+02   0.199E-03 0.448E+00 0.340E+00   -.126E-06 -.126E-04 0.334E-05
   0.662E+00 -.185E+02 0.410E+02   -.574E+00 0.182E+02 -.419E+02   -.220E+00 0.460E+00 0.110E+01   -.418E-05 -.497E-05 -.140E-04
   0.297E+01 -.113E+02 -.442E+02   -.314E+01 0.146E+02 0.463E+02   -.417E-01 0.843E+01 0.626E+01   -.396E-05 -.268E-05 0.128E-04
   0.500E-01 0.753E+01 -.906E+01   -.550E-01 -.786E+01 0.887E+01   0.201E-01 0.250E+00 0.378E+00   -.101E-05 0.881E-05 0.628E-05
   -.153E+01 0.193E+02 0.731E+02   0.483E+01 -.284E+02 -.107E+03   0.295E+01 -.757E+01 -.316E+02   0.181E-04 0.215E-05 0.138E-04
   -.886E+00 0.178E+02 -.592E+02   0.115E+01 -.189E+02 0.594E+02   -.515E-01 -.154E+01 0.298E+01   0.966E-06 -.932E-06 0.117E-04
   -.156E+00 -.227E+01 0.238E+02   0.155E+00 0.192E+01 -.238E+02   0.201E-01 0.500E+00 -.419E+00   -.334E-05 0.714E-05 0.273E-05
   0.663E+01 0.134E+02 0.134E+02   0.580E+01 0.905E+02 -.638E+02   -.283E+01 0.219E+02 -.118E+02   -.781E-05 -.201E-04 0.338E-05
   0.164E-02 0.159E+02 -.260E+02   -.789E-01 -.158E+02 0.258E+02   0.589E-01 -.110E-01 0.346E+00   -.174E-05 0.355E-05 -.922E-05
   0.493E-01 0.120E+02 0.166E+02   -.346E-01 -.124E+02 -.168E+02   0.233E-01 0.239E+00 -.539E-01   0.610E-05 0.598E-05 0.126E-04
   0.748E+00 -.821E+01 0.223E+02   -.799E+00 0.889E+01 -.214E+02   0.513E-01 -.139E+00 -.249E+00   -.437E-06 0.144E-05 -.544E-05
   0.696E+00 -.338E+02 -.348E+02   -.691E+00 0.340E+02 0.349E+02   -.209E+00 0.870E+00 0.837E+00   -.827E-06 -.562E-05 0.389E-05
   0.570E-02 -.991E+01 -.306E+00   -.379E-01 0.105E+02 0.484E+00   0.458E-01 -.324E+00 -.202E+00   0.461E-06 -.105E-04 -.102E-06
   -.234E+01 -.260E+02 0.567E+02   0.209E+02 0.673E+02 -.192E+03   0.282E+01 0.597E+01 -.195E+02   0.654E-06 -.386E-05 -.106E-04
   -.502E+01 -.559E+01 0.442E+01   0.399E+01 0.153E+02 0.291E+02   0.350E+01 0.124E+02 0.269E+02   -.235E-04 -.926E-05 -.416E-05
   0.518E-01 0.729E+00 0.176E+02   -.180E+02 -.417E+02 0.117E+03   -.263E+01 -.645E+01 0.166E+02   -.760E-08 -.466E-05 -.761E-05
   0.615E+00 -.175E+02 0.177E+02   -.148E+02 -.879E+02 -.701E+02   -.348E+01 -.234E+02 -.123E+02   -.125E-05 0.747E-06 -.329E-05
   -.502E+01 -.559E+01 0.442E+01   0.399E+01 0.153E+02 0.291E+02   0.350E+01 0.124E+02 0.269E+02   0.240E-04 -.105E-04 -.535E-05
   0.518E-01 0.729E+00 0.176E+02   -.180E+02 -.417E+02 0.117E+03   -.263E+01 -.645E+01 0.166E+02   0.137E-05 -.225E-05 -.458E-05
   0.615E+00 -.175E+02 0.177E+02   -.148E+02 -.879E+02 -.701E+02   -.348E+01 -.234E+02 -.123E+02   0.823E-06 -.328E-06 -.355E-05
   -.679E-01 0.683E+02 -.175E+02   -.148E+02 -.175E+03 0.701E+02   -.359E+01 -.266E+02 0.128E+02   -.282E-05 0.904E-05 -.925E-05
   0.765E+00 0.339E+02 -.137E+02   -.123E+01 -.375E+02 0.116E+02   -.335E+00 -.920E+01 -.385E+01   0.788E-05 -.972E-05 -.150E-05
   -.558E+00 -.288E+02 -.705E+01   0.707E+00 0.297E+02 0.631E+01   0.150E+00 0.204E+01 -.120E+01   0.154E-05 -.549E-05 0.963E-05
   -.679E-01 0.683E+02 -.175E+02   -.148E+02 -.175E+03 0.701E+02   -.359E+01 -.266E+02 0.128E+02   0.263E-05 0.521E-05 -.607E-05
   0.765E+00 0.339E+02 -.137E+02   -.123E+01 -.375E+02 0.116E+02   -.335E+00 -.920E+01 -.385E+01   -.824E-05 -.798E-05 -.117E-05
   -.558E+00 -.288E+02 -.705E+01   0.707E+00 0.297E+02 0.631E+01   0.150E+00 0.204E+01 -.120E+01   -.623E-06 -.979E-05 0.821E-05
   0.413E+00 -.434E+01 0.313E+00   -.577E-14 0.355E-13 0.799E-14   -.389E-01 0.454E+01 -.290E+00   0.140E-05 -.631E-04 0.333E-06

 POSITION                                       TOTAL-FORCE (eV/Angst)
     13.69733     13.69733      0.00000         0.136302     -0.721473      1.645007
     11.40305     11.40305      3.24460        -0.018408      0.278267      0.146186
      9.10877      9.10877      6.48920        -0.022370      0.003460     -0.093258
      4.52021      4.52021      0.00000        -0.210851     11.769563      8.404025
      2.22593      2.22593      3.24460         0.007306     -0.090918      0.186306
     13.69733     13.69733      6.48920         6.244552    -16.704926    -65.723995
      9.10877      9.10877      0.00000        17.788472    129.992096     63.327537
      6.81449      6.81449      3.24460         0.000721     -0.140375      0.658284
      4.52021      4.52021      6.48920        -0.140056      0.126424      0.156516
      6.81449     13.69733      1.62230        -0.026141      0.065463      0.060423
      4.52021     11.40305      4.86690         0.030235     -0.147505     -0.229896
     11.40305      9.10877      8.11150        -0.007564      0.537388      0.647823
      6.81449      4.52021      1.62230         0.204706     -2.599867      3.191253
      4.52021      2.22593      4.86690         0.010672      0.148474     -0.439125
      6.81449     13.69733      8.11150         9.590105    125.784263    -62.294215
     11.40305      9.10877      1.62230        -0.211272      0.992093      0.898741
      9.10877      6.81449      4.86690         0.005840      0.275320     -0.024813
      6.81449      4.52021      8.11150        21.368081     47.304639   -154.654262
      9.10877     13.69733      0.00000         0.136302     -0.721473      1.645007
      6.81449     11.40305      3.24460        -0.018408      0.278267      0.146186
      4.52021      9.10877      6.48920        -0.022370      0.003460     -0.093258
      4.52021      9.10877      0.00000        17.788472    129.992096     63.327537
     11.40305      6.81449      3.24460         0.000721     -0.140375      0.658284
      9.10877      4.52021      6.48920        -0.140056      0.126424      0.156516
      9.10877      4.52021      0.00000        -0.210851     11.769563      8.404025
      6.81449      2.22593      3.24460         0.007306     -0.090918      0.186306
      9.10877     13.69733      6.48920         6.244552    -16.704926    -65.723995
      2.22593      4.52021      1.62230         0.204706     -2.599867      3.191253
      9.10877      2.22593      4.86690         0.010672      0.148474     -0.439125
     11.40305     13.69733      8.11150         9.590105    125.784263    -62.294215
     11.40305     13.69733      1.62230        -0.026141      0.065463      0.060423
      9.10877     11.40305      4.86690         0.030235     -0.147505     -0.229896
      6.81449      9.10877      8.11150        -0.007564      0.537388      0.647823
      6.81449      9.10877      1.62230        -0.211272      0.992093      0.898741
      4.52021      6.81449      4.86690         0.005840      0.275320     -0.024813
      2.22593      4.52021      8.11150        21.368081     47.304639   -154.654262
      8.95793      0.36532      8.11150         2.456861     22.078865     60.479879
      6.66365      4.18911      9.19303       -20.558025    -47.420308    150.789115
      4.36937      8.01291     10.27457       -17.667686   -128.733133    -64.681299
      4.36937      0.36532      8.11150         2.456861     22.078865     60.479879
      2.07509      4.18911      9.19303       -20.558025    -47.420308    150.789115
      8.95793      8.01291     10.27457       -17.667686   -128.733133    -64.681299
     11.25220     12.60147      8.65227       -18.462005   -133.018624     65.441046
      4.36937      2.65960      9.73380        -0.810992    -12.735906     -5.944556
     11.25220      6.48340      0.00000         0.291518      2.956721     -1.946719
      6.66365     12.60147      8.65227       -18.462005   -133.018624     65.441046
      8.95793      2.65960      9.73380        -0.810992    -12.735906     -5.944556
      6.66365      6.48340      0.00000         0.291518      2.956721     -1.946719
    total drift:                                0.374313      0.196435      0.023022

  FREE ENERGIE OF THE ION-ELECTRON SYSTEM (eV)
  free  energy   TOTEN  =       332.47573515 eV

  energy  without entropy=      332.47761005  energy(sigma->0) =      332.47667260