 vasp.6.4.3 19Mar24 (build Oct 22 2024 11:23:12) complex

 executed on             LinuxIFC date 2025.06.03  22:59:17

 INCAR:
   SYSTEM = Si and Ge interface calculation
   ISTART = 0
   ICHARG = 2
   LWAVE = .FALSE.
   LREAL = AUTO
   ENCUT = 700
   ENAUG = 900
   ADDGRID = .TRUE.
   LMAXMIX = 6
   LASPH = .TRUE.
   LMIXTAU = .TRUE.
   NCORE = 16
   NELM = 100
   NBANDS = 58
   EDIFF = 1d-7
   AMIX = 0.6
   ISMEAR = 0
   SIGMA = 0.01
   NELECT = 96
   ISPIN = 2
   NUPDOWN = 1
   LVTOT = .FALSE.
   LVHAR = .TRUE.

 POTCAR:    PAW_PBE Sn 08Apr2002
|           W    W    AA    RRRRR   N    N  II  N    N   GGGG   !!!           |
|           W    W   A  A   R    R  NN   N  II  NN   N  G    G  !!!           |
|           W    W  A    A  R    R  N N  N  II  N N  N  G       !!!           |
|           W WW W  AAAAAA  RRRRR   N  N N  II  N  N N  G  GGG   !            |
|           WW  WW  A    A  R   R   N   NN  II  N   NN  G    G                |
|           W    W  A    A  R    R  N    N  II  N    N   GGGG   !!!           |
|     You use a magnetic or noncollinear calculation, but did not specify     |
|     the initial magnetic moment with the MAGMOM tag. Note that a            |
|     default of 0.042 will be used for all atoms. This ferromagnetic         |
|     setup may break the symmetry of the crystal, in particular it may       |
|     rule out finding an antiferromagnetic solution. Thence, we              |
|     recommend setting the initial magnetic moment manually or verifying     |
|     carefully that this magnetic setup is desired.                          |

 POTCAR:    PAW_PBE Sn 08Apr2002
   VRHFIN =Sn: s2p2

   TITEL  = PAW_PBE Sn 08Apr2002
   POMASS =  118.710; ZVAL   =    4.000    mass and valenz
   ENMAX  =  103.236; ENMIN  =   77.427 eV

 Optimization of the real space projectors (new method)

 maximal supplied QI-value         = 12.47
 optimisation between [QCUT,QGAM] = [ 12.47, 27.06] = [ 43.56,205.12] Ry
 Optimized for a Real-space Cutoff    1.58 Angstroem

   l    n(q)    QCUT    max X(q) W(low)/X(q) W(high)/X(q)  e(spline)
   0     13    12.472    14.688    0.45E-04    0.45E-04    0.25E-05
   0     13    12.472     7.308    0.94E-04    0.11E-03    0.61E-05
   1     12    12.472    45.102    0.34E-03    0.14E-03    0.21E-05
   1     12    12.472    30.691    0.31E-03    0.13E-03    0.20E-05
   2     12    12.472     7.156    0.86E-04    0.11E-03    0.17E-05
 WARNING: PSMAXN for non-local potential too small
          PSMAXN should be >   13.5545592237991       NTYP=           1
  PAW_PBE Sn 08Apr2002                  :

 POSCAR: Sn+Sn
  positions in direct lattice

 exchange-correlation table for PE
   RHO(1)=    0.500       N(1)  =     2000
   RHO(2)=  100.500       N(2)  =     4000

 ion  position               nearest neighbor table
   1  0.265  0.750  0.100-   2 1.62   7 2.81   8 2.81   4 2.81  18 2.81
   2  0.265  0.750  0.000-   1 1.62   4 2.29   7 2.29  21 2.81  15 2.81
   3  0.265  0.750  0.500-  16 1.62  11 2.29  19 2.29   9 2.81   6 2.81
   4  0.015  0.000  0.000-  15 1.62   2 2.29  24 2.29  10 2.81   1 2.81
   5  0.765  0.750  0.300-   6 2.81   9 2.81  18 2.81   8 2.81
   6  0.015  0.000  0.400-  11 1.62  13 2.81   5 2.81  12 2.81   3 2.81
   7  0.515  0.500  0.000-  21 1.62  24 2.29   2 2.29   1 2.81  10 2.81
   8  0.015  0.500  0.200-  13 2.81   1 2.81  10 2.81   5 2.81
   9  0.515  0.500  0.400-  19 1.62  13 2.81   5 2.81   3 2.81  12 2.81
  10  0.765  0.250  0.100-  24 1.62   7 2.81  18 2.81   4 2.81   8 2.81
  11  0.015  0.000  0.500-   6 1.62   3 2.29  12 2.29  22 2.81  16 2.81
  12  0.765  0.250  0.500-  22 1.62  19 2.29  11 2.29   9 2.81   6 2.81
  13  0.265  0.250  0.300-   8 2.81   9 2.81   6 2.81  18 2.81
  14  0.515  0.000  0.700-  17 2.81  23 2.81  22 2.81  16 2.81
  15  0.015  0.000  0.900-   4 1.62  23 2.81  17 2.81  24 2.81   2 2.81
  16  0.265  0.750  0.600-   3 1.62  19 2.81  11 2.81  20 2.81  14 2.81
  17  0.765  0.750  0.800-  14 2.81  15 2.81  21 2.81  20 2.81
  18  0.515  0.000  0.200-   5 2.81  10 2.81   1 2.81  13 2.81
  19  0.515  0.500  0.500-   9 1.62  12 2.29   3 2.29  16 2.81  22 2.81
  20  0.015  0.500  0.700-  23 2.81  17 2.81  16 2.81  22 2.81
  21  0.515  0.500  0.900-   7 1.62  23 2.81   2 2.81  17 2.81  24 2.81
  22  0.765  0.250  0.600-  12 1.62  19 2.81  11 2.81  14 2.81  20 2.81
  23  0.265  0.250  0.800-  20 2.81  21 2.81  15 2.81  14 2.81
  24  0.765  0.250  0.000-  10 1.62   7 2.29   4 2.29  21 2.81  15 2.81

  LATTYP: Found a simple tetragonal cell.
 ALAT       =     6.4892001150
 C/A-ratio  =     2.4999998899

  Lattice vectors:

 A1 = (   6.4892001150,   0.0000000000,   0.0000000000)
 A2 = (   0.0000000000,   6.4892001150,   0.0000000000)
 A3 = (   0.0000000000,   0.0000000000,  16.2229995730)

Analysis of symmetry for initial positions (statically):
 Subroutine PRICEL returns following result:

[...]

   4 primitive cells build up your supercell.

 Routine SETGRP: Setting up the symmetry group for a
 simple tetragonal supercell.

 Subroutine GETGRP returns: Found  8 space group operations
 (whereof  1 operations were pure point group operations)
 out of a pool of 16 trial point group operations.

The static configuration has the point symmetry C_1 .
 The point group associated with its full space group is D_2h.

Analysis of symmetry for dynamics (positions and initial velocities):
 Subroutine PRICEL returns following result:

[...]

The dynamic configuration has the point symmetry C_1 .
 The point group associated with its full space group is D_2h.

Analysis of structural, dynamic, and magnetic symmetry:
 Subroutine PRICEL returns following result:

  LATTYP: Found a simple tetragonal cell.
 ALAT       =     4.5885573278
 C/A-ratio  =     1.7677669052

  Lattice vectors:

 A1 = (   3.2445997525,  -3.2446002522,   0.0000000000)
 A2 = (   3.2445997525,   3.2445998628,   0.0000000000)
 A3 = (   0.0000000000,   0.0000000000,   8.1114997865)

   4 primitive cells build up your supercell.

 Routine SETGRP: Setting up the symmetry group for a
 simple tetragonal supercell.

 Subroutine GETGRP returns: Found  8 space group operations
 (whereof  1 operations were pure point group operations)
 out of a pool of 16 trial point group operations.

The overall configuration has the point symmetry C_1 .
 The point group associated with its full space group is D_2h.

 Subroutine INISYM returns: Found  8 space group operations
 (whereof  1 operations are pure point group operations),
 and found     4 'primitive' translations

                                     Primitive cell

  volume of cell :     170.7865

  direct lattice vectors                    reciprocal lattice vectors
     3.244599753 -3.244600252  0.000000000     0.154102203 -0.154102198  0.000000000
     3.244599753  3.244599863  0.000000000     0.154102222  0.154102198  0.000000000
     0.000000000  0.000000000  8.111499786     0.000000000  0.000000000  0.123281764

  length of vectors
     4.588557328  4.588557052  8.111499786     0.217933422  0.217933435  0.123281764

  position of ions in fractional coordinates (direct lattice)
     0.514894763  0.014894675  0.199999988
     0.514894674  0.014894586  0.000000000
     0.014894712  0.014894713  0.000000000
     0.014894631  0.514894603  0.599999964
     0.014894533  0.014894534  0.799999952
     0.514894755  0.514894696  0.400000006

  ion indices of the primitive-cell ions
   primitive index   ion index
                 1           1
                 2           2
                 3           7
                 4           5
                 5          21
                 6           8

 KPOINTS: Automatic KPOINTS generated

Automatic generation of k-mesh.
 Grid dimensions read from file:
 generate k-points for:    5    5    2

 Generating k-lattice:

  Cartesian coordinates                     Fractional coordinates (reciprocal lattice)
     0.030820440  0.000000000  0.000000000     0.200000000  0.000000000  0.000000000
     0.000000000  0.030820440  0.000000000     0.000000000  0.200000000  0.000000000
     0.000000000  0.000000000  0.030820441     0.000000000  0.000000000  0.500000000

  Length of vectors
     0.030820440  0.030820440  0.030820441

  Shift w.r.t. Gamma in fractional coordinates (k-lattice)
     0.000000000  0.000000000  0.000000000

 Subroutine IBZKPT returns following result:

 Found     18 irreducible k-points:

 Following reciprocal coordinates:
            Coordinates               Weight
  0.000000  0.000000  0.000000      1.000000
  0.200000  0.000000  0.000000      4.000000
  0.400000  0.000000  0.000000      4.000000
  0.200000  0.200000  0.000000      2.000000
 -0.200000  0.200000  0.000000      2.000000
  0.400000  0.200000  0.000000      4.000000
 -0.200000  0.400000  0.000000      4.000000
  0.400000  0.400000  0.000000      2.000000
 -0.400000  0.400000  0.000000      2.000000
  0.000000  0.000000  0.500000      1.000000
  0.200000  0.000000  0.500000      4.000000
  0.400000  0.000000  0.500000      4.000000
  0.200000  0.200000  0.500000      2.000000
 -0.200000  0.200000  0.500000      2.000000
  0.400000  0.200000  0.500000      4.000000
 -0.200000  0.400000  0.500000      4.000000
  0.400000  0.400000  0.500000      2.000000
 -0.400000  0.400000  0.500000      2.000000

 Following cartesian coordinates:
            Coordinates               Weight
  0.000000  0.000000  0.000000      1.000000
  0.030820  0.000000  0.000000      4.000000
  0.061641  0.000000  0.000000      4.000000
  0.030820  0.030820  0.000000      2.000000
 -0.030820  0.030820  0.000000      2.000000
  0.061641  0.030820  0.000000      4.000000
 -0.030820  0.061641  0.000000      4.000000
  0.061641  0.061641  0.000000      2.000000
 -0.061641  0.061641  0.000000      2.000000
  0.000000  0.000000  0.030820      1.000000
  0.030820  0.000000  0.030820      4.000000
  0.061641  0.000000  0.030820      4.000000
  0.030820  0.030820  0.030820      2.000000
 -0.030820  0.030820  0.030820      2.000000
  0.061641  0.030820  0.030820      4.000000
 -0.030820  0.061641  0.030820      4.000000
  0.061641  0.061641  0.030820      2.000000
 -0.061641  0.061641  0.030820      2.000000

 SYSTEM =  Si and Ge interface calculation
 POSCAR =  Sn+Sn

 Startparameter for this run:
   NWRITE =      2    write-flag & timer
   PREC   = normal    normal or accurate (medium, high low for compatibility)
   ISTART =      0    job   : 0-new  1-cont  2-samecut
   ICHARG =      2    charge: 1-file 2-atom 10-const
   ISPIN  =      2    spin polarized calculation?
   LNONCOLLINEAR =      F non collinear calculations
   LSORBIT =      F    spin-orbit coupling
   INIWAV =      1    electr: 0-lowe 1-rand  2-diag
   LASPH  =      T    aspherical Exc in radial PAW
 Electronic Relaxation 1
   ENCUT  =  700.0 eV  51.45 Ry    7.17 a.u.  14.00 14.00 35.00*2*pi/ulx,y,z
   ENINI  =  700.0     initial cutoff
   ENAUG  =  900.0 eV  augmentation charge cutoff
   NELM   =    100;   NELMIN=  2; NELMDL= -5     # of ELM steps
   EDIFF  = 0.1E-06   stopping-criterion for ELM
   LREAL  =      T    real-space projection
   NLSPLINE    = F    spline interpolate recip. space projectors
   LCOMPAT=      F    compatible to vasp.4.4
[...]

[...]

 eigenvalues of (default mixing * dielectric matrix)
  average eigenvalue GAMMA=   1.7831
  1.7831

[...]

 eigenvalue-minimisations  :  5016
 total energy-change (2. order) :-0.1046807E-05  (-0.2216191E-06)
 number of electron      95.9999998 magnetization       1.0000000
 augmentation part      -29.7911016 magnetization      -0.1927335

[...]

 Broyden mixing:
  rms(total) = 0.78738E-04    rms(broyden)= 0.78621E-04
  rms(prec ) = 0.85934E-04
  weight for this iteration     100.00

 eigenvalues of (default mixing * dielectric matrix)
  average eigenvalue GAMMA=   1.0279
  2.0639  1.9388  1.5544  1.2422  1.0410  0.7304  0.7304  0.5577  0.5216  0.4818
  0.4441

[...]

--------------------------------------- Iteration      1(  17)  ---------------------------------------

 eigenvalue-minimisations  :  3360
 total energy-change (2. order) : 0.8354800E-07  (-0.1436660E-07)
 number of electron      95.9999998 magnetization       1.0000000
 augmentation part      -29.7910800 magnetization      -0.1927142

 Free energy of the ion-electron system (eV)
  alpha Z        PSCENC =       105.47238786
  Ewald energy   TEWEN  =     -2026.16276077
  -Hartree energ DENC   =      -299.09270427
  -exchange      EXHF   =         0.00000000
  -V(xc)+E(xc)   XCENC  =     -2836.67279075
  PAW double counting   =     13030.18804711   -10084.71348259
  entropy T*S    EENTRO =        -0.00052158
  eigenvalues    EBANDS =       -10.43780944
  atomic energy  EATOM  =      2258.06359143
  Solvation  Ediel_sol  =         0.00000000
  free energy    TOTEN  =       136.64395700 eV

  energy without entropy =      136.64447858  energy(sigma->0) =      136.64421779

 average (electrostatic) potential at core
  the test charge radii are     1.4072
  (the norm of the test charge is              1.0000)
       1 -49.3647       2 -49.8538       3 -49.8538       4 -49.8537       5 -43.9339
       6 -49.3647       7 -49.8538       8 -43.9339       9 -49.3647      10 -49.3647
      11 -49.8537      12 -49.8538      13 -43.9340      14 -43.9339      15 -49.3647
      16 -49.3647      17 -43.9339      18 -43.9339      19 -49.8537      20 -43.9339
      21 -49.3647      22 -49.3647      23 -43.9339      24 -49.8538

 E-fermi :   5.3577     XC(G=0):  -9.3213     alpha+bet :-10.1315

 val. band max:        5.5799212791   @ k =  -0.2000   0.4000   0.5000
 cond. band min:       5.4003886299   @ k =  -0.2000   0.4000   0.0000
 fundamental gap:     -0.1795326492
 Fermi energy:         5.5932675656

 spin component 1

 k-point     1 :       0.0000    0.0000    0.0000
  band No.  band energies     occupation
      1      -8.2356      1.00000
      2      -8.2104      1.00000
      3      -6.3664      1.00000
      4      -6.3663      1.00000
      5      -6.3626      1.00000
      6      -6.3625      1.00000
      7      -5.1340      1.00000
      8      -4.2259      1.00000
      9      -4.2179      1.00000
     10      -2.6997      1.00000
     11      -2.6913      1.00000
     12      -2.4528      1.00000
     13      -2.4528      1.00000
     14      -2.4240      1.00000
     15      -2.4240      1.00000
     16      -2.0191      1.00000
     17      -1.7401      1.00000
     18      -1.3598      1.00000
     19      -1.3598      1.00000
     20      -1.2675      1.00000
     21      -1.2675      1.00000
     22      -0.1320      1.00000
     23      -0.0598      1.00000
     24       0.6846      1.00000
     25       0.6846      1.00000
     26       0.9737      1.00000
     27       0.9737      1.00000
     28       1.0743      1.00000
     29       1.6282      1.00000
     30       2.3108      1.00000
     31       2.3108      1.00000
     32       2.4359      1.00000
     33       2.4865      1.00000
     34       2.5801      1.00000
     35       2.8358      1.00000
     36       2.8358      1.00000
     37       3.0590      1.00000
     38       3.1278      1.00000
     39       3.2833      1.00000
     40       3.2833      1.00000
     41       3.7543      1.00000
     42       4.1933      1.00000
     43       4.1934      1.00000
     44       4.3113      1.00000
     45       4.3227      1.00000
     46       4.8182      1.00000
     47       4.9591      1.00000
     48       5.5955      0.37765
     49       5.8615      0.00000
     50       6.0053      0.00000
     51       6.0293      0.00000
     52       6.0293      0.00000
     53       6.1613      0.00000
     54       6.3976      0.00000
     55       6.5224      0.00000
     56       6.6002      0.00000
     57       6.6759      0.00000
     58       6.6919      0.00000
     59       6.6919      0.00000
     60       6.8967      0.00000

[...]

 k-point    18 :      -0.4000    0.4000    0.5000
  band No.  band energies     occupation
      1      -7.8831      1.00000
      2      -7.8830      1.00000
      3      -7.2109      1.00000
      4      -7.2109      1.00000
      5      -5.9959      1.00000
      6      -5.9959      1.00000
      7      -3.8206      1.00000
      8      -3.8206      1.00000
      9      -3.5802      1.00000
     10      -3.5802      1.00000
     11      -3.5784      1.00000
     12      -3.5784      1.00000
     13      -2.8199      1.00000
     14      -2.8198      1.00000
     15      -2.6847      1.00000
     16      -2.6846      1.00000
     17      -1.8084      1.00000
     18      -1.8084      1.00000
     19      -0.5877      1.00000
     20      -0.5877      1.00000
     21      -0.1893      1.00000
     22      -0.1893      1.00000
     23       0.1938      1.00000
     24       0.1938      1.00000
     25       0.5025      1.00000
     26       0.5025      1.00000
     27       1.0762      1.00000
     28       1.0762      1.00000
     29       2.0869      1.00000
     30       2.0869      1.00000
     31       2.6859      1.00000
     32       2.6859      1.00000
     33       2.7682      1.00000
     34       2.7682      1.00000
     35       3.1222      1.00000
     36       3.1222      1.00000
     37       3.4389      1.00000
     38       3.4389      1.00000
     39       3.6600      1.00000
     40       3.6600      1.00000
     41       3.9339      1.00000
     42       3.9339      1.00000
     43       4.3491      1.00000
     44       4.3492      1.00000
     45       5.2303      1.00000
     46       5.2303      1.00000
     47       5.6011      0.13547
     48       5.6011      0.13516
     49       5.8101      0.00000
     50       5.8101      0.00000
     51       6.0140      0.00000
     52       6.0140      0.00000
     53       6.1674      0.00000
     54       6.1674      0.00000
     55       6.8300      0.00000
     56       6.8300      0.00000
     57       7.0807      0.00000
     58       7.0807      0.00000
     59       7.2539      0.00000
     60       7.2554      0.00000
 Fermi energy:         5.3576621597

 spin component 2

[...]

 k-point    18 :      -0.4000    0.4000    0.5000
  band No.  band energies     occupation
      1      -7.8460      1.00000
      2      -7.8460      1.00000
      3      -7.1743      1.00000
      4      -7.1743      1.00000
      5      -5.9620      1.00000
      6      -5.9620      1.00000
      7      -3.7982      1.00000
      8      -3.7982      1.00000
      9      -3.5542      1.00000
     10      -3.5541      1.00000
     11      -3.5517      1.00000
     12      -3.5517      1.00000
     13      -2.7922      1.00000
     14      -2.7921      1.00000
     15      -2.6540      1.00000
     16      -2.6540      1.00000
     17      -1.7690      1.00000
     18      -1.7690      1.00000
     19      -0.5632      1.00000
     20      -0.5632      1.00000
     21      -0.1601      1.00000
     22      -0.1601      1.00000
     23       0.2354      1.00000
     24       0.2354      1.00000
     25       0.5272      1.00000
     26       0.5272      1.00000
     27       1.1216      1.00000
     28       1.1216      1.00000
     29       2.1245      1.00000
     30       2.1246      1.00000
     31       2.7128      1.00000
     32       2.7128      1.00000
     33       2.7995      1.00000
     34       2.7995      1.00000
     35       3.1537      1.00000
     36       3.1537      1.00000
     37       3.4886      1.00000
     38       3.4886      1.00000
     39       3.6870      1.00000
     40       3.6870      1.00000
     41       3.9598      1.00000
     42       3.9598      1.00000
     43       4.3768      1.00000
     44       4.3768      1.00000
     45       5.2703      1.00000
     46       5.2703      1.00000
     47       5.6348      0.00000
     48       5.6348      0.00000
     49       5.8548      0.00000
     50       5.8548      0.00000
     51       6.0781      0.00000
     52       6.0781      0.00000
     53       6.2075      0.00000
     54       6.2075      0.00000
     55       6.8582      0.00000
     56       6.8582      0.00000
     57       7.1099      0.00000
     58       7.1099      0.00000
     59       7.2982      0.00000
     60       7.2989      0.00000

 soft charge-density along one line, spin component           1
         0         1         2         3         4         5         6         7         8         9
 total charge-density along one line

 soft charge-density along one line, spin component           2
         0         1         2         3         4         5         6         7         8         9
 total charge-density along one line

------------------------ aborting loop because EDIFF is reached ----------------------------------------

  FORCE on cell =-STRESS in cart. coord.  units (eV):
  Direction    XX          YY          ZZ          XY          YZ          ZX
  Alpha Z   105.47239   105.47239   105.47239
  Ewald    -886.64466  -886.64466  -252.88090  -400.88633    -0.00010     0.00062
  Hartree   116.06426   116.06426    66.96576   -69.08114     0.00001    -0.00001
  E(xc)    -481.61334  -481.61334  -542.98126     7.62308     0.00000    -0.00004
  Local    -513.87837  -513.87837  -395.24671   402.05237     0.00003     0.00015
  n-local  1390.27437  1387.62630  1521.41089   -73.74736    -0.00311     0.01929
  augment  -356.23005  -356.23010  -180.15573    -7.09422    -0.00000     0.00014
  Kinetic   747.80366   749.51934   728.00696    30.58898     0.00019     0.00022
  Fock        0.00000     0.00000     0.00000     0.00000     0.00000     0.00000
  Total     120.78204   120.78204  1050.59140  -110.51785     0.00000     0.00000
  in kB     283.26926   283.26926  2463.94457  -259.19674     0.00000     0.00000

 VOLUME and BASIS-vectors are now :
  energy-cutoff  :      700.00
  volume of cell :      683.15
      direct lattice vectors                 reciprocal lattice vectors
     6.489200115  0.000000000  0.000000000     0.154102198  0.000000000  0.000000000
     0.000000000  6.489200115  0.000000000     0.000000000  0.154102198  0.000000000
     0.000000000  0.000000000 16.222999573     0.000000000  0.000000000  0.061640882

  length of vectors
     6.489200115  6.489200115 16.222999573     0.154102198  0.154102198  0.061640882

 FORCES acting on ions
    electron-ion (+dipol)            ewald-force                    non-local-force                 convergence-correction
   0.232E-04 0.580E-04 -.504E+02   0.188E-04 0.130E-04 0.936E+02   0.309E-18 0.381E-18 0.350E+02   0.635E-07 -.942E-07 0.155E-04
   0.104E-03 0.108E-03 0.192E+02   -.431E-04 0.179E-05 -.610E+02   0.152E-18 -.138E-18 -.327E+02   0.722E-07 -.101E-06 -.147E-04
   0.104E-03 0.108E-03 0.192E+02   -.431E-04 0.179E-05 -.610E+02   0.186E-18 -.224E-19 -.327E+02   0.722E-07 -.101E-06 -.261E-04
   0.157E-04 0.159E-04 -.192E+02   0.484E-04 0.460E-04 0.610E+02   -.152E-18 -.849E-19 0.327E+02   0.504E-07 0.494E-07 0.248E-04
   0.106E-03 0.316E-04 0.134E+02   0.739E-05 -.129E-04 -.133E+02   -.196E-19 -.897E-19 -.651E+00   -.463E-07 -.687E-07 0.250E-04
   0.184E-03 -.131E-05 0.504E+02   -.623E-04 -.132E-04 -.936E+02   -.312E-19 0.395E-18 -.350E+02   0.501E-07 0.547E-07 -.244E-04
   0.669E-04 0.634E-04 -.192E+02   0.393E-04 0.384E-04 0.610E+02   -.187E-18 0.126E-18 0.327E+02   -.759E-07 -.587E-07 0.248E-04
   -.145E-04 0.238E-04 -.134E+02   -.195E-04 0.183E-04 0.133E+02   0.219E-19 -.662E-20 0.651E+00   0.729E-07 -.525E-07 -.376E-04
   0.191E-03 0.286E-04 0.504E+02   -.432E-04 -.407E-05 -.936E+02   0.397E-18 -.393E-19 -.350E+02   -.755E-07 -.584E-07 -.244E-04
   0.626E-04 0.134E-04 -.504E+02   0.573E-04 -.115E-05 0.936E+02   0.370E-18 0.396E-18 0.350E+02   -.710E-07 0.742E-07 0.155E-04
   0.157E-04 0.159E-04 -.192E+02   0.484E-04 0.460E-04 0.610E+02   0.305E-19 0.131E-18 0.327E+02   0.504E-07 0.494E-07 0.135E-04
   0.185E-03 0.115E-03 0.192E+02   -.107E-04 -.712E-04 -.610E+02   -.751E-19 -.185E-18 -.327E+02   -.816E-07 0.758E-07 -.261E-04
   0.146E-03 -.125E-05 0.134E+02   0.128E-04 -.254E-04 -.133E+02   -.168E-19 -.977E-19 -.651E+00   0.433E-07 0.884E-07 0.250E-04
   0.279E-04 0.171E-05 -.134E+02   -.527E-05 0.104E-04 0.133E+02   0.213E-19 -.351E-21 0.651E+00   -.563E-07 0.517E-07 -.275E-04
   0.184E-03 -.131E-05 0.504E+02   -.623E-04 -.132E-04 -.936E+02   0.396E-18 0.318E-18 -.350E+02   0.501E-07 0.547E-07 -.679E-05
   0.232E-04 0.580E-04 -.504E+02   0.188E-04 0.130E-04 0.936E+02   0.393E-18 0.388E-18 0.350E+02   0.635E-07 -.942E-07 0.149E-04
   0.106E-03 0.316E-04 0.134E+02   0.739E-05 -.129E-04 -.133E+02   -.236E-19 0.464E-20 -.651E+00   -.463E-07 -.687E-07 0.421E-04
   0.279E-04 0.171E-05 -.134E+02   -.527E-05 0.104E-04 0.133E+02   0.220E-19 -.476E-20 0.651E+00   -.563E-07 0.517E-07 -.376E-04
   0.669E-04 0.634E-04 -.192E+02   0.393E-04 0.384E-04 0.610E+02   -.142E-18 -.359E-19 0.327E+02   -.759E-07 -.587E-07 0.135E-04
   -.145E-04 0.238E-04 -.134E+02   -.195E-04 0.183E-04 0.133E+02   0.211E-19 -.156E-20 0.651E+00   0.729E-07 -.525E-07 -.275E-04
   0.191E-03 0.286E-04 0.504E+02   -.432E-04 -.407E-05 -.936E+02   0.395E-18 -.684E-19 -.350E+02   -.755E-07 -.584E-07 -.676E-05
   0.626E-04 0.134E-04 -.504E+02   0.573E-04 -.115E-05 0.936E+02   0.392E-18 0.394E-18 0.350E+02   -.710E-07 0.742E-07 0.149E-04
   0.146E-03 -.125E-05 0.134E+02   0.128E-04 -.254E-04 -.133E+02   -.254E-19 0.405E-20 -.651E+00   0.433E-07 0.884E-07 0.421E-04
   0.185E-03 0.115E-03 0.192E+02   -.107E-04 -.712E-04 -.610E+02   0.186E-18 0.749E-19 -.327E+02   -.816E-07 0.758E-07 -.147E-04
   0.220E-02 0.913E-03 -.175E-03   0.189E-14 0.732E-14 -.249E-12   0.262E-17 0.184E-17 0.142E-13   -.108E-06 -.792E-07 -.255E-05

 POSITION                                       TOTAL-FORCE (eV/Angst)
      1.71895      4.86690      1.62230        -0.000000      0.000000     78.262010
      1.71895      4.86690      0.00000         0.000000     -0.000000    -74.494227
      1.71895      4.86690      8.11150        -0.000000      0.000000    -74.494227
      0.09665      0.00000      0.00000         0.000000      0.000000     74.494227
      4.96355      4.86690      4.86690        -0.000000     -0.000000     -0.587508
      0.09665      0.00000      6.48920         0.000000     -0.000000    -78.262010
      3.34125      3.24460      0.00000         0.000000      0.000000     74.494227
      0.09665      3.24460      3.24460        -0.000000     -0.000000      0.587508
      3.34125      3.24460      6.48920         0.000000     -0.000000    -78.262010
      4.96355      1.62230      1.62230        -0.000000      0.000000     78.262010
      0.09665      0.00000      8.11150         0.000000     -0.000000     74.494227
      4.96355      1.62230      8.11150         0.000000      0.000000    -74.494227
      1.71895      1.62230      4.86690        -0.000000     -0.000000     -0.587508
      3.34125      0.00000     11.35610        -0.000000     -0.000000      0.587508
      0.09665      0.00000     14.60070         0.000000     -0.000000    -78.262010
      1.71895      4.86690      9.73380        -0.000000      0.000000     78.262010
      4.96355      4.86690     12.97840         0.000000     -0.000000     -0.587508
      3.34125      0.00000      3.24460        -0.000000     -0.000000      0.587508
      3.34125      3.24460      8.11150        -0.000000      0.000000     74.494227
      0.09665      3.24460     11.35610        -0.000000     -0.000000      0.587508
      3.34125      3.24460     14.60070         0.000000      0.000000    -78.262010
      4.96355      1.62230      9.73380        -0.000000      0.000000     78.262010
      1.71895      1.62230     12.97840        -0.000000     -0.000000     -0.587508
      4.96355      1.62230      0.00000        -0.000000      0.000000    -74.494227
    total drift:                                0.002196      0.000913     -0.000177

  FREE ENERGIE OF THE ION-ELECTRON SYSTEM (eV)
  free  energy   TOTEN  =       136.64395700 eV

  energy  without entropy=      136.64447858  energy(sigma->0) =      136.64421779