 vasp.6.4.3 19Mar24 (build Oct 22 2024 11:23:12) complex

 executed on             LinuxIFC date 2025.03.27  22:05:27

 INCAR:
   SYSTEM = Si and Ge interface calculation
   ISTART = 0
   ICHARG = 2
   ENCUT = 600.00 eV
   ALGO = VeryFast
   NELM = 60
   EDIFF = 1E-06
   SIGMA = 0.05
   ISMEAR = 0
   EDIFFG = -1E-02
   NSW = 20
   IBRION = 2
   POTIM = .5
   ISIF = 3
   KPAR = 4
   NCORE = 4
   LREAL = A

 POTCAR:    PAW_PBE Si 05Jan2001
 POTCAR:    PAW_PBE Ge 05Jan2001
|           W    W    AA    RRRRR   N    N  II  N    N   GGGG   !!!           |
|           W    W   A  A   R    R  NN   N  II  NN   N  G    G  !!!           |
|           W    W  A    A  R    R  N N  N  II  N N  N  G       !!!           |
|           W WW W  AAAAAA  RRRRR   N  N N  II  N  N N  G  GGG   !            |
|           WW  WW  A    A  R   R   N   NN  II  N   NN  G    G                |
|           W    W  A    A  R    R  N    N  II  N    N   GGGG   !!!           |
|     The value NCORE = 4 specified in the INCAR file was overwritten,        |
|     because it was not compatible with the 1 processes available:           |
|     NCORE = 1                                                               |
|     was used instead, please check that this makes sense for your           |
|     machine.                                                                |

 POTCAR:    PAW_PBE Si 05Jan2001
   VRHFIN =Si: s2p2

   TITEL  = PAW_PBE Si 05Jan2001
   POMASS =   28.085; ZVAL   =    4.000    mass and valenz
   ENMAX  =  245.345; ENMIN  =  184.009 eV

 POTCAR:    PAW_PBE Ge 05Jan2001
   VRHFIN =Ge: s2p2

   TITEL  = PAW_PBE Ge 05Jan2001
   POMASS =   72.610; ZVAL   =    4.000    mass and valenz
   ENMAX  =  173.807; ENMIN  =  130.355 eV

 Optimization of the real space projectors (new method)

 maximal supplied QI-value         = 19.84
 optimisation between [QCUT,QGAM] = [ 12.50, 25.00] = [ 43.76,175.03] Ry
 Optimized for a Real-space Cutoff    1.06 Angstroem

   l    n(q)    QCUT    max X(q) W(low)/X(q) W(high)/X(q)  e(spline)
   0      8    12.501   159.560    0.25E-03    0.87E-04    0.85E-07
   0      8    12.501   115.863    0.25E-03    0.85E-04    0.84E-07
   1      7    12.501    88.339    0.32E-03    0.53E-03    0.87E-07
   1      7    12.501    48.592    0.31E-03    0.51E-03    0.85E-07
 Optimization of the real space projectors (new method)

 maximal supplied QI-value         = 16.25
 optimisation between [QCUT,QGAM] = [ 12.51, 25.03] = [ 43.85,175.40] Ry
 Optimized for a Real-space Cutoff    1.23 Angstroem

   l    n(q)    QCUT    max X(q) W(low)/X(q) W(high)/X(q)  e(spline)
   0      9    12.514    65.336    0.42E-03    0.23E-03    0.14E-06
   0      9    12.514    52.220    0.42E-03    0.23E-03    0.13E-06
   1      9    12.514    36.409    0.35E-03    0.65E-03    0.33E-06
   1      9    12.514    21.334    0.35E-03    0.63E-03    0.32E-06
   2      8    12.514     4.673    0.48E-03    0.34E-03    0.74E-07
  PAW_PBE Si 05Jan2001                  :
  PAW_PBE Ge 05Jan2001                  :

 POSCAR: Si Ge
  positions in cartesian coordinates

 exchange-correlation table for PE
   RHO(1)=    0.500       N(1)  =     2000
   RHO(2)=  100.500       N(2)  =     4000

 ion  position               nearest neighbor table
   1  0.002  0.251  0.000-  19 2.05  20 2.22  20 2.23   2 2.38   2 2.38
   2  0.002  0.751  0.056-  20 2.00   3 2.38   1 2.38   1 2.38   3 2.38
   3  0.502  0.751  0.112-   2 2.38   4 2.38   4 2.38   2 2.38
   4  0.502  0.251  0.167-   3 2.38   5 2.38   3 2.38   5 2.38
   5  0.002  0.251  0.223-   4 2.38   6 2.38   6 2.38   4 2.38
   6  0.002  0.751  0.279-   5 2.38   7 2.38   5 2.38   7 2.38
   7  0.502  0.751  0.334-   6 2.38   8 2.38   8 2.38   6 2.38
   8  0.502  0.251  0.390-  11 2.00   9 2.38   7 2.38   7 2.38   9 2.38
   9  0.002  0.251  0.446-  11 1.06  10 2.38  10 2.38   8 2.38   8 2.38  12 2.84  12 2.84  11 2.96

  10  0.002  0.751  0.502-  12 1.08  13 2.10   9 2.38   9 2.38  11 2.40  11 2.40  12 2.97
  11  0.253  0.250  0.462-   9 1.06   8 2.00  10 2.40  10 2.40  12 2.42  12 2.42   9 2.96
  12  0.253  0.750  0.520-  10 1.08  11 2.42  11 2.42  13 2.42  13 2.42   9 2.84   9 2.84  10 2.97

  13  0.753  0.750  0.578-  10 2.10  14 2.42  14 2.42  12 2.42  12 2.42
  14  0.753  0.250  0.636-  13 2.42  15 2.42  13 2.42  15 2.42
  15  0.253  0.250  0.694-  14 2.42  16 2.42  16 2.42  14 2.42
  16  0.253  0.750  0.752-  15 2.42  17 2.42  15 2.42  17 2.42
  17  0.753  0.750  0.810-  16 2.42  18 2.42  18 2.42  16 2.42
  18  0.753  0.250  0.868-  17 2.42  19 2.42  17 2.42  19 2.42
  19  0.253  0.250  0.926-   1 2.05  18 2.42  20 2.42  20 2.42  18 2.42
  20  0.253  0.750  0.984-   2 2.00   1 2.22   1 2.23  19 2.42  19 2.42

  LATTYP: Found a simple tetragonal cell.
 ALAT       =     3.9201999949
 C/A-ratio  =     6.2145717898

  Lattice vectors:

 A1 = (   3.9201999949,   0.0000000000,   0.0000000000)
 A2 = (   0.0000000000,   3.9201999949,   0.0000000000)
 A3 = (   0.0000000000,   0.0000000000,  24.3623642986)

Analysis of symmetry for initial positions (statically):
 Subroutine PRICEL returns:
 Original cell was already a primitive cell.

 Routine SETGRP: Setting up the symmetry group for a
 simple tetragonal supercell.

 Subroutine GETGRP returns: Found  1 space group operations
 (whereof  1 operations were pure point group operations)
 out of a pool of 16 trial point group operations.

The static configuration has the point symmetry C_1 .

Analysis of symmetry for dynamics (positions and initial velocities):
 Subroutine PRICEL returns:
 Original cell was already a primitive cell.

 Routine SETGRP: Setting up the symmetry group for a
 simple tetragonal supercell.

 Subroutine GETGRP returns: Found  1 space group operations
 (whereof  1 operations were pure point group operations)
 out of a pool of 16 trial point group operations.

The dynamic configuration has the point symmetry C_1 .

 Subroutine INISYM returns: Found  1 space group operations
 (whereof  1 operations are pure point group operations),
 and found     1 'primitive' translations

                                     Primitive cell

  volume of cell :     374.4000

  direct lattice vectors                    reciprocal lattice vectors
     3.920199995  0.000000000  0.000000000     0.255089026  0.000000000  0.000000000
     0.000000000  3.920199995  0.000000000     0.000000000  0.255089026  0.000000000
     0.000000000  0.000000000 24.362364299     0.000000000  0.000000000  0.041046919

  length of vectors
     3.920199995  3.920199995 24.362364299     0.255089026  0.255089026  0.041046919

  position of ions in fractional coordinates (direct lattice)
     0.002114400  0.251209010  0.000113577
     0.002114400  0.751209010  0.055834769
     0.502114400  0.751209010  0.111555962
     0.502114400  0.251209010  0.167277155
     0.002114400  0.251209010  0.222998348
     0.002114400  0.751209010  0.278719541
     0.502114400  0.751209010  0.334440734
     0.502114400  0.251209010  0.390161927
     0.002114400  0.251209010  0.445883120
     0.002114400  0.751209010  0.501604312
     0.253300582  0.250459457  0.461839619
     0.253300582  0.750459457  0.519900486
     0.753300582  0.750459457  0.577961353
     0.753300582  0.250459457  0.636022221
     0.253300582  0.250459457  0.694083088
     0.253300582  0.750459457  0.752143955
     0.753300582  0.750459457  0.810204822
     0.753300582  0.250459457  0.868265690
     0.253300582  0.250459457  0.926326557
     0.253300582  0.750459457  0.984387424

  ion indices of the primitive-cell ions
   primitive index   ion index
                 1           1
                 2           2
                 3           3
                 4           4
                 5           5
                 6           6
                 7           7
                 8           8
                 9           9
                10          10
                11          11
                12          12
                13          13
                14          14
                15          15
                16          16
                17          17
                18          18
                19          19
                20          20

 KPOINTS: 4x4x4

Automatic generation of k-mesh.
 Grid dimensions read from file:
 generate k-points for:    4    4    4

 Generating k-lattice:

  Cartesian coordinates                     Fractional coordinates (reciprocal lattice)
     0.063772257  0.000000000  0.000000000     0.250000000  0.000000000  0.000000000
     0.000000000  0.063772257  0.000000000     0.000000000  0.250000000  0.000000000
     0.000000000  0.000000000  0.010261730     0.000000000  0.000000000  0.250000000

  Length of vectors
     0.063772257  0.063772257  0.010261730

  Shift w.r.t. Gamma in fractional coordinates (k-lattice)
     0.000000000  0.000000000  0.000000000

 Subroutine IBZKPT returns following result:

 Found     36 irreducible k-points:

 Following reciprocal coordinates:
            Coordinates               Weight
  0.000000  0.000000  0.000000      1.000000
  0.250000  0.000000  0.000000      2.000000
  0.000000  0.250000  0.000000      2.000000
  0.500000  0.000000  0.000000      1.000000
  0.000000  0.500000  0.000000      1.000000
  0.250000  0.250000  0.000000      2.000000
 -0.250000  0.250000  0.000000      2.000000
  0.500000  0.250000  0.000000      2.000000
 -0.250000  0.500000  0.000000      2.000000
  0.500000  0.500000  0.000000      1.000000
  0.000000  0.000000  0.250000      2.000000
  0.250000  0.000000  0.250000      2.000000
  0.000000  0.250000  0.250000      2.000000
 -0.250000  0.000000  0.250000      2.000000
  0.000000 -0.250000  0.250000      2.000000
  0.500000  0.000000  0.250000      2.000000
  0.000000  0.500000  0.250000      2.000000
  0.250000  0.250000  0.250000      2.000000
 -0.250000  0.250000  0.250000      2.000000
 -0.250000 -0.250000  0.250000      2.000000
  0.250000 -0.250000  0.250000      2.000000
  0.500000  0.250000  0.250000      2.000000
 -0.250000  0.500000  0.250000      2.000000
  0.500000 -0.250000  0.250000      2.000000
  0.250000  0.500000  0.250000      2.000000
  0.500000  0.500000  0.250000      2.000000
  0.000000  0.000000  0.500000      1.000000
  0.250000  0.000000  0.500000      2.000000
  0.000000  0.250000  0.500000      2.000000
  0.500000  0.000000  0.500000      1.000000
  0.000000  0.500000  0.500000      1.000000
  0.250000  0.250000  0.500000      2.000000
 -0.250000  0.250000  0.500000      2.000000
  0.500000  0.250000  0.500000      2.000000
 -0.250000  0.500000  0.500000      2.000000
  0.500000  0.500000  0.500000      1.000000

 Following cartesian coordinates:
            Coordinates               Weight
  0.000000  0.000000  0.000000      1.000000
  0.063772  0.000000  0.000000      2.000000
  0.000000  0.063772  0.000000      2.000000
  0.127545  0.000000  0.000000      1.000000
  0.000000  0.127545  0.000000      1.000000
  0.063772  0.063772  0.000000      2.000000
 -0.063772  0.063772  0.000000      2.000000
  0.127545  0.063772  0.000000      2.000000
 -0.063772  0.127545  0.000000      2.000000
  0.127545  0.127545  0.000000      1.000000
  0.000000  0.000000  0.010262      2.000000
[...]

[...]

 d Force = 0.5143186E+03[-0.682E+02, 0.110E+04]  d Energy =-0.8314603E+02 0.597E+03
 d Force = 0.2837946E+03[-0.101E+04, 0.158E+04]  d Ewald  =-0.5694458E+03 0.853E+03

 Steepest descent step on ions:
 trial-energy change:   83.146027  1 .order-2900.097046-5742.312455  -57.881637
  (g-gl).g = 0.574E+04      g.g   = 0.574E+04  gl.gl    = 0.000E+00
 g(Force)  = 0.539E+04   g(Stress)= 0.357E+03 ortho     = 0.000E+00
 gamma     =   0.00000
 trial     =   1.00000
 opt step  =   1.01018  (harmonic =   1.01018) maximal distance =7.60915661
 next E    = -2869.636370   (d E  =**********)

[...]

 d Force = 0.3223861E+00[ 0.412E+00, 0.233E+00]  d Energy =-0.1999046E+01 0.232E+01
 d Force =-0.3884719E+01[-0.434E+01,-0.343E+01]  d Ewald  =-0.7267857E+01 0.338E+01

[...]

 d Force =-0.8335320E+00[-0.249E+01, 0.828E+00]  d Energy = 0.6588670E+00-0.149E+01
 d Force =-0.1045092E+02[-0.122E+02,-0.872E+01]  d Ewald  =-0.1717674E+02 0.673E+01

[...]

WARNING in EDDRMM: call to ZHEGV failed, returncode =   8  4     21

[...]

 d Force = 0.8409561E+00[ 0.132E+00, 0.155E+01]  d Energy = 0.1494432E+01-0.653E+00
 d Force = 0.6916400E+01[ 0.625E+01, 0.758E+01]  d Ewald  = 0.1119490E+02-0.428E+01

[...]

 d Force =-0.1728895E-01[-0.231E-01,-0.115E-01]  d Energy = 0.1010903E+01-0.103E+01
 d Force =-0.5512420E+00[-0.556E+00,-0.546E+00]  d Ewald  =-0.9209390E+00 0.370E+00

[...]

 Conjugate gradient step on ions:
 trial-energy change:  -12.827435  1 .order  -13.023374  -21.301450   -4.745299
  (g-gl).g = 0.225E+02      g.g   = 0.212E+02  gl.gl    = 0.574E+04
 g(Force)  = 0.118E+02   g(Stress)= 0.939E+01 ortho     =-0.128E+01
 gamma     =   0.00392
 trial     =   1.00376
 opt step  =   1.32112  (harmonic =   1.29146) maximal distance =0.34161745
 next E    =    99.164839   (d E  = -13.57140)

[...]

 d Force = 0.1335020E+01[ 0.145E+01, 0.122E+01]  d Energy = 0.2499321E+01-0.116E+01
 d Force = 0.1367055E+02[ 0.125E+02, 0.148E+02]  d Ewald  =-0.5929809E+01 0.196E+02

[...]

 d Force = 0.9963501E+00[-0.930E+00, 0.292E+01]  d Energy = 0.1217647E+01-0.221E+00
 d Force = 0.2129305E+02[ 0.172E+02, 0.253E+02]  d Ewald  =-0.1853285E+02 0.398E+02

[...]

 d Force =-0.4394550E-02[-0.445E+00, 0.436E+00]  d Energy = 0.8566646E+00-0.861E+00
 d Force =-0.8127215E+01[-0.886E+01,-0.740E+01]  d Ewald  = 0.9371095E+01-0.175E+02

[...]

 eigenvalue-minimisations  :  6576
 total energy-change (2. order) :-0.3203948E-01  ( 0.1700329E-01)
 number of electron      80.0000019 magnetization
 augmentation part       -7.4629162 magnetization

[...]

 d Force = 0.5000900E+01[ 0.218E+01, 0.783E+01]  d Energy = 0.1689087E+01 0.331E+01
 d Force = 0.1993012E+02[ 0.145E+02, 0.253E+02]  d Ewald  = 0.5281462E+01 0.146E+02

 Conjugate gradient step on ions:
 trial-energy change:   -1.689087  1 .order   -4.863146   -7.762374   -1.963918
  (g-gl).g = 0.671E+01      g.g   = 0.672E+01  gl.gl    = 0.212E+02
 g(Force)  = 0.630E+01   g(Stress)= 0.424E+00 ortho     = 0.312E+00
 gamma     =   0.31589
 trial     =   1.13783
 opt step  =   1.52321  (harmonic =   1.52321) maximal distance =0.46454767
 next E    =    90.139436   (d E  =  -5.19573)

[...]

 d Force = 0.2320650E+01[-0.233E+00, 0.487E+01]  d Energy = 0.3867197E+01-0.155E+01
 d Force =-0.4902661E+01[-0.977E+01,-0.390E-01]  d Ewald  = 0.7114119E+01-0.120E+02

[...]

 d Force = 0.3284817E-01[ 0.884E-01,-0.227E-01]  d Energy = 0.6031012E+00-0.570E+00
 d Force =-0.9582217E+00[-0.102E+01,-0.900E+00]  d Ewald  =-0.4529089E-01-0.913E+00

[...]

 d Force = 0.2757194E+00[ 0.376E+00, 0.175E+00]  d Energy = 0.8577094E+00-0.582E+00
 d Force =-0.2291481E+01[-0.253E+01,-0.206E+01]  d Ewald  =-0.6097935E+00-0.168E+01

[...]

 d Force =-0.4548440E-02[-0.546E-01, 0.455E-01]  d Energy = 0.1778115E+01-0.178E+01
 d Force =-0.2319078E+01[-0.242E+01,-0.222E+01]  d Ewald  =-0.1663388E+01-0.656E+00

[...]

 eigenvalue-minimisations  :  6610
 total energy-change (2. order) : 0.2537389E-01  ( 0.3168216E-01)
 number of electron      79.9999989 magnetization
 augmentation part       -7.3979319 magnetization

[...]

 eigenvalue-minimisations  :  6612
 total energy-change (2. order) :-0.3774391E-02  ( 0.1710640E-03)
 number of electron      79.9999989 magnetization
 augmentation part       -7.4006551 magnetization

[...]

 Conjugate gradient step on ions:
 trial-energy change:   -5.972082  1 .order   -1.774386   -2.933813   -0.614960
  (g-gl).g = 0.336E+01      g.g   = 0.289E+01  gl.gl    = 0.610E+01
 g(Force)  = 0.265E+01   g(Stress)= 0.243E+00 ortho     =-0.337E+00
 gamma     =   0.55104
 trial     =   1.08302
 opt step  =   1.10675  (harmonic =   1.37023) maximal distance =0.18542297
 next E    =    76.719979   (d E  =  -5.97887)

[...]

 d Force = 0.1323242E-01[ 0.133E-01, 0.132E-01]  d Energy = 0.2537448E+01-0.252E+01
 d Force =-0.9991951E-01[-0.101E+00,-0.991E-01]  d Ewald  =-0.5503745E+00 0.450E+00

--------------------------------------- Ionic step       20  -------------------------------------------

[...]

 eigenvalue-minimisations  :  6485
 total energy-change (2. order) : 0.1013035E-01  (-0.2583772E-01)
 number of electron      80.0000052 magnetization
 augmentation part       -7.4089874 magnetization

[...]

WARNING in EDDRMM: call to ZHEGV failed, returncode =   8  4     17

[...]

 Broyden mixing:
  rms(total) = 0.91851E-01    rms(broyden)= 0.91851E-01
  rms(prec ) = 0.17448E+00
  weight for this iteration     100.00

 eigenvalues of (default mixing * dielectric matrix)
  average eigenvalue GAMMA=   0.7054
  2.6858  2.4825  1.9169  1.9169  2.0482  1.1786  1.1786  1.0155  1.0155  1.2715
  1.2715  1.0864  0.5181  0.8656  0.8656  0.7434  0.7434  0.6613  0.6613  0.2792
  0.2792  0.4670  0.4670  0.1919  0.5771  0.5075  0.5075  0.2560  0.2560  0.4368
  0.3922  0.3922  0.3090  0.3090  0.1345  0.1345  0.0862  0.0862  0.0430  0.0355
  0.0301  0.0214  0.0075

[...]

--------------------------------------- Iteration     20(  60)  ---------------------------------------

 eigenvalue-minimisations  :  6578
 total energy-change (2. order) :-0.2556790E-01  (-0.2171701E-01)
 number of electron      80.0000053 magnetization
 augmentation part       -7.3836559 magnetization

 Free energy of the ion-electron system (eV)
  alpha Z        PSCENC =        36.55292173
  Ewald energy   TEWEN  =     -1248.41351522
  -Hartree energ DENC   =      -626.57591723
  -exchange      EXHF   =         0.00000000
  -V(xc)+E(xc)   XCENC  =      -189.75166836
  PAW double counting   =      2808.02335450    -2488.08604485
  entropy T*S    EENTRO =        -0.01051647
  eigenvalues    EBANDS =      -303.02028291
  atomic energy  EATOM  =      2080.62436032
  Solvation  Ediel_sol  =         0.00000000
  free energy    TOTEN  =        69.34269153 eV

  energy without entropy =       69.35320800  energy(sigma->0) =       69.34794976

 average (electrostatic) potential at core
  the test charge radii are     0.9892  1.1631
  (the norm of the test charge is              1.0000)
       1 -88.5061       2 -88.2764       3 -88.8814       4 -89.1618       5 -92.4512
       6 -93.3603       7 -93.6103       8 -92.7018       9 -93.4727      10 -93.8406
      11 -41.6721      12 -45.2293      13 -38.4525      14 -45.2711      15 -42.3577
      16 -41.9118      17 -35.3822      18 -35.3727      19 -35.1554      20 -35.2211

 E-fermi :   1.7057     XC(G=0):  -5.6278     alpha+bet : -3.6354

 val. band max:        1.6741967327   @ k =   0.0000   0.2500   0.0000
 cond. band min:       1.7177835391   @ k =   0.5000   0.2500   0.0000
 fundamental gap:      0.0435868064
 Fermi energy:         1.7057288997

[...]

 k-point    36 :       0.5000    0.5000    0.5000
  band No.  band energies     occupation
      1     -13.6375      2.00000
      2     -10.5421      2.00000
      3      -9.9867      2.00000
      4      -9.5118      2.00000
      5      -8.6601      2.00000
      6      -8.5097      2.00000
      7      -8.4620      2.00000
      8      -8.3507      2.00000
      9      -8.0112      2.00000
     10      -7.8015      2.00000
     11      -6.4298      2.00000
     12      -6.3054      2.00000
     13      -6.2885      2.00000
     14      -5.9057      2.00000
     15      -5.3077      2.00000
     16      -4.7965      2.00000
     17      -4.3507      2.00000
     18      -4.1810      2.00000
     19      -3.8706      2.00000
     20      -3.3397      2.00000
     21      -2.6455      2.00000
     22      -2.5605      2.00000
     23      -2.3199      2.00000
     24      -2.0007      2.00000
     25      -1.9051      2.00000
     26      -1.8071      2.00000
     27      -1.6409      2.00000
     28      -1.2963      2.00000
     29      -1.1526      2.00000
     30      -0.9918      2.00000
     31      -0.8899      2.00000
     32      -0.7376      2.00000
     33      -0.6898      2.00000
     34      -0.6778      2.00000
     35      -0.5215      2.00000
     36      -0.2915      2.00000
     37      -0.0056      2.00000
     38       0.5065      2.00000
     39       0.5818      2.00000
     40       0.6413      2.00000
     41       0.7517      2.00000
     42       1.3195      2.00000
     43       1.8539      0.00003
     44       2.3900      0.00000
     45       2.4738      0.00000
     46       3.2162      0.00000
     47       3.4664      0.00000
     48       3.7186      0.00000
     49       5.3307      0.00000
     50       6.0539      0.00000
     51      12.0582      0.00000

 soft charge-density along one line, spin component           1
         0         1         2         3         4         5         6         7         8         9
 total charge-density along one line

------------------------ aborting loop EDIFF was not reached (unconverged)  ----------------------------

  FORCE on cell =-STRESS in cart. coord.  units (eV):
  Direction    XX          YY          ZZ          XY          YZ          ZX
  Alpha Z    36.55292    36.55292    36.55292
  Ewald    -641.30372   -22.64375  -584.47059    -3.19774     8.84240  -345.92374
  Hartree    54.39464   478.15608    76.88674    -2.65076     0.12448  -206.74060
  E(xc)    -232.32086  -230.33432  -232.70975    -0.05164     0.01433     0.22059
  Local    -273.21935 -1294.92243  -354.44842     5.26969    -9.73844   562.44080
  n-local   533.38497   527.87933   538.38705     0.40913     0.96011    -7.70877
  augment   -53.79385   -53.23673   -54.52865    -0.06991    -0.11417     0.81713
  Kinetic   577.98073   557.71096   578.03468     0.79170    -1.14182    -4.74758
  Fock        0.00000     0.00000     0.00000     0.00000     0.00000     0.00000
  Total       1.67548    -0.83794     3.70399     0.50046    -1.05310    -1.64218
  in kB       2.18250    -1.09152     4.82486     0.65191    -1.37179    -2.13912

 VOLUME and BASIS-vectors are now :
  energy-cutoff  :      600.00
  volume of cell :     1229.97
      direct lattice vectors                 reciprocal lattice vectors
     7.611724288 -0.018866269  2.437978870     0.148597980 -0.000546719 -0.053772889
    -0.003002494  5.134137659 -0.060496911    -0.000161956  0.194798302  0.002013094
    12.882445570 -0.357224390 35.603455822    -0.010175656  0.000368436  0.031772729

  length of vectors
     7.992649344  5.134494950 37.864113348     0.158029055  0.194808771  0.033364443

 FORCES acting on ions
    electron-ion (+dipol)            ewald-force                    non-local-force                 convergence-correction
   0.323E+02 0.174E+01 0.189E+01   -.348E+02 -.243E+01 -.162E+00   0.204E+01 0.708E+00 -.196E+00   0.995E+00 0.321E-02 -.127E+01
   -.261E+02 -.129E+01 -.441E+02   0.280E+02 0.980E+00 0.470E+02   -.416E+01 0.183E+00 0.215E+01   0.529E+00 -.395E-01 -.384E+01
   0.183E+02 0.339E+01 0.552E+01   -.254E+02 -.346E+01 -.421E+01   0.566E+01 0.501E+00 0.226E+01   0.234E+01 -.501E-01 -.467E+01
   -.162E+02 -.359E+01 -.143E+02   0.170E+02 0.374E+01 0.223E+02   -.307E+01 -.454E+00 -.241E+01   0.237E+01 -.729E-01 -.506E+01
   0.307E+02 -.125E+00 0.182E+02   -.370E+02 0.229E+00 -.120E+02   0.360E+01 -.104E+00 -.155E+01   0.170E+01 -.380E-01 -.456E+01
   -.185E+02 0.222E+01 -.538E+01   0.133E+02 -.186E+01 0.851E+01   0.213E+01 -.130E+00 -.112E+00   0.166E+01 -.683E-01 -.309E+01
   0.104E+02 0.125E+01 0.122E+01   -.105E+02 -.111E+01 0.380E+01   0.145E+00 -.583E-01 -.381E+01   0.318E+00 -.379E-01 -.210E+01
   0.215E+02 -.177E+01 -.606E+02   -.202E+02 0.166E+01 0.571E+02   -.178E+01 0.516E-01 0.448E+01   -.177E+00 0.153E-01 0.494E+00
   -.385E+01 -.310E+01 -.364E+02   0.271E+01 0.290E+01 0.374E+02   0.956E+00 0.113E+00 0.940E-01   0.111E+01 0.280E-01 -.166E+01
   0.271E+02 -.121E+00 -.429E+02   -.272E+02 0.549E-01 0.429E+02   0.409E+00 0.649E-01 0.836E+00   -.156E+00 -.415E-02 -.519E+00
   -.206E+01 0.627E-01 0.170E+02   0.394E+01 -.157E+00 -.206E+02   -.328E+00 0.574E-01 0.598E+00   -.853E+00 0.182E-01 0.248E+01
   -.270E+01 0.125E+00 0.131E+02   0.418E+01 -.238E+00 -.150E+02   0.148E+01 0.399E-01 -.126E+01   -.960E+00 0.369E-01 0.223E+01
   -.982E+01 0.248E+00 0.121E+02   0.108E+02 -.357E+00 -.150E+02   0.567E+00 0.537E-01 0.504E+00   -.670E+00 0.290E-01 0.249E+01
   -.163E+01 0.354E+00 0.165E+02   0.123E+01 -.269E+00 -.196E+02   0.140E+01 -.364E-01 0.631E+00   -.618E+00 0.199E-01 0.232E+01
   -.726E+01 0.209E+00 0.167E+02   0.652E+01 -.288E+00 -.174E+02   0.368E+00 0.398E-01 0.515E-01   -.112E+01 0.402E-01 0.210E+01
   -.895E+01 -.209E+00 0.274E+01   0.931E+01 0.217E+00 -.405E+01   0.437E+01 -.696E-01 -.214E+01   -.768E+00 0.302E-01 0.280E+01
   -.163E+01 0.162E+01 0.286E+02   0.286E+01 -.169E+01 -.333E+02   0.357E+00 0.116E+00 0.136E+01   -.118E+01 0.368E-01 0.319E+01
   -.357E+02 -.101E+01 0.112E+02   0.381E+02 0.956E+00 -.141E+02   0.377E+00 0.563E-01 -.208E+00   -.173E+01 0.243E-01 0.290E+01
   0.123E+02 0.186E+01 0.317E+02   -.121E+02 -.167E+01 -.343E+02   0.882E+00 -.107E+00 0.140E+01   -.681E+00 0.187E-01 0.248E+01
   -.291E+02 -.270E+01 0.290E+02   0.293E+02 0.280E+01 -.293E+02   -.866E+00 -.467E-01 -.153E+01   -.456E+00 -.278E-01 0.592E-01
   -.109E+02 -.834E+00 0.185E+01   -.355E-13 -.311E-14 0.320E-13   0.146E+02 0.981E+00 0.115E+01   0.164E+01 -.380E-01 -.322E+01

 POSITION                                       TOTAL-FORCE (eV/Angst)
      7.72887      1.27767      2.75438         0.220313      0.024989      0.281855
      8.29578      3.80712      4.32944        -2.016398     -0.176398      1.295415
      5.83653      3.84232      5.57414         0.590730      0.372307     -1.079830
      5.98283      1.19219      6.66603        -0.182485     -0.385295      0.543088
      3.18878      1.22725      7.38420        -1.211515     -0.043316      0.142788
      4.02289      3.81195      9.70504        -1.681668      0.165097     -0.058793
      8.11072      3.74481     12.84393         0.033789      0.035507     -0.884635
      8.21138      1.10909     15.33586        -0.890127     -0.049642      1.407673
     10.90722      1.13122     13.75115         0.661444     -0.068794     -0.555054
      5.40919      3.75838     13.52804        -0.125428     -0.010735      0.361768
      9.89507      0.97894     20.35960         0.430375     -0.024616     -0.526669
      9.02365      3.63647     23.88487         1.742283     -0.042058     -0.915323
     12.73674      3.60259     21.64678         0.653408     -0.031990      0.089912
     14.40508      1.06890     24.71801         0.113739      0.062859     -0.114499
     10.98832      1.03615     26.05317        -1.756083     -0.005142      1.525508
     12.64789      3.57124     28.54679         3.707495     -0.036333     -0.633967
     16.04153      3.55229     31.08578         0.141700      0.083362     -0.176143
     16.27492      0.96113     32.25059         0.793232      0.018173     -0.254639
     14.29071      0.98089     33.71093         0.097207      0.098915      1.316174
     14.16685      3.47691     35.32597        -1.322012      0.013109     -1.764628
    total drift:                                5.354900      0.108549     -0.222630

  FREE ENERGIE OF THE ION-ELECTRON SYSTEM (eV)
  free  energy   TOTEN  =        69.34269153 eV

  energy  without entropy=       69.35320800  energy(sigma->0) =       69.34794976

 d Force = 0.1595930E+01[ 0.849E+00, 0.234E+01]  d Energy = 0.4846624E+01-0.325E+01
 d Force = 0.9009421E+01[ 0.722E+01, 0.108E+02]  d Ewald  =-0.1445767E+02 0.235E+02

 Conjugate gradient step on ions:
 trial-energy change:   -4.846624  1 .order   -1.705496   -2.525156   -0.885836
  (g-gl).g = 0.336E+01      g.g   = 0.480E+01  gl.gl    = 0.289E+01
 g(Force)  = 0.429E+01   g(Stress)= 0.510E+00 ortho     = 0.497E+00
 gamma     =   1.15908
 trial     =   0.46998
 opt step  =   0.48955  (harmonic =   0.72394) maximal distance =0.18142162
 next E    =    69.324019   (d E  =  -4.86530)

 writing wavefunctions