 vasp.6.4.3 19Mar24 (build Oct 22 2024 11:23:12) complex

 executed on             LinuxIFC date 2025.06.04  00:25:19

 INCAR:
   SYSTEM = Si and Ge interface calculation
   ISTART = 0
   ICHARG = 2
   LWAVE = .FALSE.
   LREAL = AUTO
   ENCUT = 700
   ENAUG = 900
   ADDGRID = .TRUE.
   LMAXMIX = 6
   LASPH = .TRUE.
   LMIXTAU = .TRUE.
   NCORE = 16
   NELM = 100
   NBANDS = 116
   EDIFF = 1d-7
   AMIX = 0.6
   ISMEAR = 0
   SIGMA = 0.01
   NELECT = 192
   ISPIN = 2
   NUPDOWN = 1
   LVTOT = .FALSE.
   LVHAR = .TRUE.

 POTCAR:    PAW_PBE Si 05Jan2001
|           W    W    AA    RRRRR   N    N  II  N    N   GGGG   !!!           |
|           W    W   A  A   R    R  NN   N  II  NN   N  G    G  !!!           |
|           W    W  A    A  R    R  N N  N  II  N N  N  G       !!!           |
|           W WW W  AAAAAA  RRRRR   N  N N  II  N  N N  G  GGG   !            |
|           WW  WW  A    A  R   R   N   NN  II  N   NN  G    G                |
|           W    W  A    A  R    R  N    N  II  N    N   GGGG   !!!           |
|     You use a magnetic or noncollinear calculation, but did not specify     |
|     the initial magnetic moment with the MAGMOM tag. Note that a            |
|     default of 0.021 will be used for all atoms. This ferromagnetic         |
|     setup may break the symmetry of the crystal, in particular it may       |
|     rule out finding an antiferromagnetic solution. Thence, we              |
|     recommend setting the initial magnetic moment manually or verifying     |
|     carefully that this magnetic setup is desired.                          |

 POTCAR:    PAW_PBE Si 05Jan2001
   VRHFIN =Si: s2p2

   TITEL  = PAW_PBE Si 05Jan2001
   POMASS =   28.085; ZVAL   =    4.000    mass and valenz
   ENMAX  =  245.345; ENMIN  =  184.009 eV

 Optimization of the real space projectors (new method)

 maximal supplied QI-value         = 19.84
 optimisation between [QCUT,QGAM] = [ 13.49, 26.99] = [ 50.98,203.92] Ry
 Optimized for a Real-space Cutoff    1.07 Angstroem

   l    n(q)    QCUT    max X(q) W(low)/X(q) W(high)/X(q)  e(spline)
   0      9    13.493   159.560    0.22E-03    0.15E-03    0.72E-07
   0      9    13.493   115.863    0.21E-03    0.15E-03    0.71E-07
   1      8    13.493    88.339    0.15E-03    0.11E-03    0.13E-06
   1      8    13.493    48.592    0.15E-03    0.10E-03    0.13E-06
  PAW_PBE Si 05Jan2001                  :

 POSCAR: Si+Si
  positions in direct lattice

 exchange-correlation table for PE
   RHO(1)=    0.500       N(1)  =     2000
   RHO(2)=  100.500       N(2)  =     4000

 ion  position               nearest neighbor table
   1  0.345  0.673  0.000-  44 1.81  38 2.17  48 2.35  13 2.35  28 2.35  41 2.58  45 2.73  33 2.97
                            18 2.97  39 2.98
   2  0.679  0.839  0.300-  13 2.35  34 2.35  14 2.35  29 2.35
   3  0.012  0.006  0.600-  37 1.43  35 2.35  14 2.35  15 2.35  30 2.35  46 2.62  43 2.97
   4  0.012  0.006  0.000-  37 2.31  10 2.35  34 2.35  47 2.48  46 2.62  15 2.97  30 2.97  43 2.97

   5  0.345  0.173  0.300-  31 2.35  35 2.35  11 2.35  10 2.35
   6  0.679  0.339  0.600-  32 2.35  36 2.35  11 2.35  12 2.35
   7  0.679  0.339  0.000-  42 1.04  16 2.35  31 2.35  45 2.75  12 2.97  36 2.97  48 3.08
   8  0.012  0.506  0.300-  28 2.35  32 2.35  16 2.35  17 2.35  45 2.74
   9  0.345  0.673  0.600-  29 2.35  33 2.35  17 2.35  18 2.35  38 2.82  44 3.13  41 3.15
  10  0.095  0.923  0.150-   4 2.35  23 2.35   5 2.35  19 2.35
  11  0.429  0.089  0.450-  24 2.35   6 2.35   5 2.35  20 2.35
  12  0.762  0.256  0.750-  42 2.09   6 2.35  21 2.35  45 2.82  41 2.90   7 2.97  25 2.97  48 3.15

[...]

  23  0.845  0.673  0.300-  10 2.35  31 2.35  14 2.35  32 2.35
  24  0.179  0.839  0.600-  11 2.35  32 2.35  15 2.35  33 2.35
  25  0.845  0.173  0.000-  47 1.81  41 2.17  45 2.35  34 2.35  16 2.35  38 2.58  48 2.73  30 2.97
                            12 2.97  42 2.98
  26  0.179  0.339  0.300-  17 2.35  13 2.35  34 2.35  35 2.35
  27  0.512  0.506  0.600-  40 1.43  18 2.35  14 2.35  35 2.35  36 2.35  43 2.62  46 2.97
  28  0.262  0.756  0.150-  39 2.09  48 2.17   8 2.35  19 2.35  20 2.35   1 2.35  45 2.58
  29  0.595  0.923  0.450-   9 2.35  21 2.35  20 2.35   2 2.35
  30  0.929  0.089  0.750-  47 1.43  37 1.57  21 2.35   3 2.35  41 2.52  38 2.88  25 2.97   4 2.97

[...]

  34  0.929  0.089  0.150-  47 2.31   4 2.35  26 2.35  25 2.35   2 2.35
  35  0.262  0.256  0.450-   3 2.35  27 2.35   5 2.35  26 2.35
  36  0.595  0.423  0.750-  43 2.00  40 2.31   6 2.35  27 2.35  46 2.44  22 2.97   7 2.97
  37  0.963  0.989  0.750-   3 1.43  30 1.57   4 2.31  15 2.31  46 2.35  43 2.35  47 2.35
  38  0.574  0.878  0.850-   1 2.17  47 2.35  44 2.35  48 2.35  18 2.52  25 2.58   9 2.82  30 2.88
                            33 2.90  21 3.15
  39  0.185  0.767  0.950-  19 1.04  28 2.09  33 2.09  48 2.35  45 2.35   1 2.98
  40  0.463  0.489  0.750-  27 1.43  18 1.57  22 2.31  36 2.31  43 2.35  46 2.35  44 2.35
  41  0.074  0.378  0.850-  25 2.17  44 2.35  47 2.35  45 2.35  30 2.52   1 2.58  21 2.82  18 2.88
                            12 2.90   9 3.15
  42  0.685  0.267  0.950-   7 1.04  16 2.09  12 2.09  45 2.35  48 2.35  25 2.98
  43  0.768  0.684  0.800-  36 2.00  40 2.35  37 2.35  15 2.44  27 2.62  22 2.62   4 2.97   3 2.97

[...]

  45  0.991  0.462  1.000-  16 2.17  25 2.35  42 2.35  39 2.35  41 2.35  28 2.58   1 2.73   8 2.74
                             7 2.75  12 2.82  19 3.08  33 3.15
  46  0.268  0.184  0.800-  15 2.00  37 2.35  40 2.35  36 2.44   3 2.62   4 2.62  22 2.97  27 2.97

  47  0.880  0.073  0.900-  30 1.43  25 1.81  34 2.31  38 2.35  41 2.35  37 2.35   4 2.48  21 3.13

  48  0.491  0.962  1.000-  28 2.17   1 2.35  39 2.35  42 2.35  38 2.35  16 2.58  25 2.73  20 2.74
                            19 2.75  33 2.82   7 3.08  12 3.15

  LATTYP: Found a base centered orthorhombic cell.
 ALAT       =     7.6805942991
 B/A-ratio  =     2.9999999214
 C/A-ratio  =     1.1785115537

  Lattice vectors:

 A1 = (  12.1440858840,   0.0000000000,   0.0000000000)
 A2 = (  -9.7152681350,   7.2864513400,   0.0000000000)
 A3 = (   0.0000000000,   0.0000000000,   9.0516691210)

Analysis of symmetry for initial positions (statically):
 Subroutine PRICEL returns following result:

  LATTYP: Found a simple orthorhombic cell.
 ALAT       =     3.8402971918
 B/A-ratio  =     2.3570230815
 C/A-ratio  =     3.0000000294

[...]

   2 primitive cells build up your supercell.

 Routine SETGRP: Setting up the symmetry group for a
 base centered orthorhombic supercell.

 Subroutine GETGRP returns: Found  1 space group operations
 (whereof  1 operations were pure point group operations)
 out of a pool of  8 trial point group operations.

The static configuration has the point symmetry C_1 .

Analysis of symmetry for dynamics (positions and initial velocities):
 Subroutine PRICEL returns following result:

[...]

The dynamic configuration has the point symmetry C_1 .

Analysis of structural, dynamic, and magnetic symmetry:
 Subroutine PRICEL returns following result:

  LATTYP: Found a simple orthorhombic cell.
 ALAT       =     3.8402971918
 B/A-ratio  =     2.3570230815
 C/A-ratio  =     3.0000000294

  Lattice vectors:

 A1 = (  -1.2144094016,  -3.6432255388,   0.0000000000)
 A2 = (   0.0000000000,   0.0000000000,   9.0516691210)
 A3 = ( -10.9296775366,   3.6432258012,   0.0000000000)

   2 primitive cells build up your supercell.

 Routine SETGRP: Setting up the symmetry group for a
 base centered orthorhombic supercell.

 Subroutine GETGRP returns: Found  1 space group operations
 (whereof  1 operations were pure point group operations)
 out of a pool of  8 trial point group operations.

The overall configuration has the point symmetry C_1 .

 Subroutine INISYM returns: Found  1 space group operations
 (whereof  1 operations are pure point group operations),
 and found     2 'primitive' translations

                                     Primitive cell

  volume of cell :     400.4789

  direct lattice vectors                    reciprocal lattice vectors
    -1.214409402 -3.643225539  0.000000000    -0.082344607 -0.247033824  0.000000000
     0.000000000  0.000000000  9.051669121     0.000000000  0.000000000  0.110476862
   -10.929677537  3.643225801  0.000000000    -0.082344601  0.027448220  0.000000000

  length of vectors
     3.840297192  9.051669121 11.520891688     0.260396514  0.110476862  0.086798837

  position of ions in fractional coordinates (direct lattice)
     0.982203134  0.000000000  0.327401074
     0.482202981  0.299999923  0.160734462
     0.982202899  0.599999845  0.994067836
     0.982203137  0.000000000  0.994067716
     0.482203029  0.299999923  0.827401119
     0.982202773  0.599999845  0.660734432
     0.982203204  0.000000000  0.660734387
     0.482202947  0.299999923  0.494067730
     0.982202836  0.599999845  0.327401134
     0.982203049  0.149999961  0.827401068
     0.482202848  0.449999988  0.660734443
     0.982202535  0.749999821  0.494067694
     0.982203016  0.149999961  0.160734455
     0.482202953  0.449999988  0.994067754
     0.982202633  0.749999821  0.827401128
     0.982203072  0.149999961  0.494067753
     0.482202890  0.449999988  0.327401051
     0.982202598  0.749999821  0.160734395
     0.047768632  0.749999821  0.026538148
     0.547768844  0.849999845  0.304315979
     0.047769014  0.949999988  0.582093793
     0.547768788  0.799999893  0.915427101
     0.047768958  0.899999917  0.193204916
     0.547769140  0.999999940  0.470982777

  ion indices of the primitive-cell ions
   primitive index   ion index
                 1           1
                 2          26
                 3          27
                 4          22
                 5           5
                 6          24
                 7          19
                 8           8
                 9           9
                10          31
                11          32
                12          33
                13          13
                14          35
                15          36
                16          28
                17          17
                18          18
                19          40
                20          38
                21          39
                22          43
                23          44
                24          48

 KPOINTS: Automatic KPOINTS generated

Automatic generation of k-mesh.
 Grid dimensions read from file:
 generate k-points for:    4    4    3

 Generating k-lattice:

  Cartesian coordinates                     Fractional coordinates (reciprocal lattice)
     0.020586152  0.027448202  0.000000000     0.250000000 -0.000000000  0.000000000
     0.000000000  0.034310255  0.000000000     0.000000000  0.250000000  0.000000000
     0.000000000  0.000000000  0.036825621     0.000000000  0.000000000  0.333333333

  Length of vectors
     0.034310253  0.034310255  0.036825621

  Shift w.r.t. Gamma in fractional coordinates (k-lattice)
     0.000000000  0.000000000  0.000000000

 Subroutine IBZKPT returns following result:

 Found     26 irreducible k-points:

 Following reciprocal coordinates:
            Coordinates               Weight
  0.000000  0.000000  0.000000      1.000000
[...]
     42       1.5247      1.00000
     43       1.6882      1.00000
     44       1.7099      1.00000
     45       1.9058      1.00000
     46       2.0153      1.00000
     47       2.2724      1.00000
     48       2.3476      1.00000
     49       2.4059      1.00000
     50       2.4979      1.00000
     51       2.5355      1.00000
     52       2.7367      1.00000
     53       2.8259      1.00000
     54       3.1928      1.00000
     55       3.5054      1.00000
     56       3.6128      1.00000
     57       3.7300      1.00000
     58       3.7376      1.00000
     59       3.9828      1.00000
     60       3.9933      1.00000
[...]
    102       8.4690      0.00000
    103       8.5782      0.00000
    104       8.7179      0.00000
    105       8.7295      0.00000
    106       8.8386      0.00000
    107       8.8930      0.00000
    108       8.9198      0.00000
    109       9.2201      0.00000
    110       9.2300      0.00000
    111       9.4159      0.00000
    112       9.4184      0.00000
    113       9.4991      0.00000
    114       9.5248      0.00000
    115       9.7898      0.00000
    116       9.8079      0.00000
 Fermi energy:         8.0033241846

 spin component 2

[...]

 k-point    26 :       0.5000    0.5000    0.3333
  band No.  band energies     occupation
      1      -7.9323      1.00000
      2      -7.1803      1.00000
      3      -7.1604      1.00000
      4      -6.1345      1.00000
      5      -5.9156      1.00000
      6      -5.1742      1.00000
      7      -4.3374      1.00000
      8      -3.9126      1.00000
      9      -3.6565      1.00000
     10      -3.6548      1.00000
     11      -3.2256      1.00000
     12      -2.8714      1.00000
     13      -2.8357      1.00000
     14      -2.7605      1.00000
     15      -2.5403      1.00000
     16      -2.5200      1.00000
     17      -2.3054      1.00000
     18      -2.1303      1.00000
     19      -2.1063      1.00000
     20      -1.7727      1.00000
     21      -1.3959      1.00000
     22      -1.2989      1.00000
     23      -1.1694      1.00000
     24      -1.1663      1.00000
     25      -1.0177      1.00000
     26      -0.8811      1.00000
     27      -0.8785      1.00000
     28      -0.5893      1.00000
     29      -0.4290      1.00000
     30      -0.3685      1.00000
     31       0.1563      1.00000
     32       0.4087      1.00000
     33       0.6394      1.00000
     34       0.8378      1.00000
     35       0.9106      1.00000
     36       1.0696      1.00000
     37       1.1715      1.00000
     38       1.1992      1.00000
     39       1.3387      1.00000
     40       1.3766      1.00000
     41       1.5073      1.00000
     42       1.5534      1.00000
     43       1.7133      1.00000
     44       1.7349      1.00000
     45       1.9328      1.00000
     46       2.0402      1.00000
     47       2.2983      1.00000
     48       2.3726      1.00000
     49       2.4293      1.00000
     50       2.5189      1.00000
     51       2.5614      1.00000
     52       2.7566      1.00000
     53       2.8487      1.00000
     54       3.2162      1.00000
     55       3.5251      1.00000
     56       3.6327      1.00000
     57       3.7598      1.00000
     58       3.7613      1.00000
     59       4.0037      1.00000
     60       4.0178      1.00000
[...]
    102       8.4947      0.00000
    103       8.6080      0.00000
    104       8.7470      0.00000
    105       8.7593      0.00000
    106       8.8691      0.00000
    107       8.9178      0.00000
    108       8.9464      0.00000
    109       9.2469      0.00000
    110       9.2592      0.00000
    111       9.4370      0.00000
    112       9.4430      0.00000
    113       9.5251      0.00000
    114       9.5500      0.00000
    115       9.8188      0.00000
    116       9.8267      0.00000

 soft charge-density along one line, spin component           1
         0         1         2         3         4         5         6         7         8         9
 total charge-density along one line

 soft charge-density along one line, spin component           2
         0         1         2         3         4         5         6         7         8         9
 total charge-density along one line

------------------------ aborting loop because EDIFF is reached ----------------------------------------

  FORCE on cell =-STRESS in cart. coord.  units (eV):
  Direction    XX          YY          ZZ          XY          YZ          ZX
  Alpha Z    96.83390    96.83390    96.83390
  Ewald   -1368.73784 -1749.02413 -1878.24709  -275.47666   144.02960  -499.53623
  Hartree   411.87739   484.91269   -11.40306    27.80050    46.64051  -129.11787
  E(xc)    -651.87370  -649.96727  -654.56409     2.08502     0.09172     3.88916
  Local   -1461.49983 -1348.53519  -565.21069    76.87255  -122.13526   457.22663
  n-local  2100.23334  2068.52080  2179.54732   -22.70438   -14.03517   -53.54456
  augment  -302.29800  -311.40298  -305.23034    -7.42748     3.69242    -5.69600
  Kinetic  1560.43946  1597.05506  1553.68446    22.14527    -4.34924    12.31775
  Fock        0.00000     0.00000     0.00000     0.00000     0.00000     0.00000
  Total     384.97473   188.39287   415.41040  -176.70519    53.93457  -214.46112
  in kB     770.07538   376.84737   830.95668  -353.46818   107.88679  -428.99238

 VOLUME and BASIS-vectors are now :
  energy-cutoff  :      700.00
  volume of cell :      800.96
      direct lattice vectors                 reciprocal lattice vectors
    12.144085884  0.000000000  0.000000000     0.082344609  0.109792808  0.000000000
    -9.715268135  7.286451340  0.000000000     0.000000000  0.137241018  0.000000000
     0.000000000  0.000000000  9.051669121     0.000000000  0.000000000  0.110476862

  length of vectors
    12.144085884 12.144085312  9.051669121     0.137241012  0.137241018  0.110476862

 FORCES acting on ions
    electron-ion (+dipol)            ewald-force                    non-local-force                 convergence-correction
   0.258E+02 0.167E+01 -.696E+02   -.214E+02 -.216E+01 0.675E+02   -.149E+02 0.343E+01 0.106E+02   -.217E-03 0.903E-04 0.244E-03
   -.108E+02 0.320E+01 -.121E+02   0.106E+02 -.371E+01 0.126E+02   0.194E+00 0.446E+00 -.350E+00   0.933E-04 -.351E-04 0.505E-04
   -.397E+02 0.180E-01 0.141E+03   0.421E+02 -.391E+00 -.149E+03   0.133E+02 0.538E+01 -.439E+02   0.295E-03 -.704E-04 -.320E-03
   -.415E+02 0.129E+02 -.715E+02   0.418E+02 -.133E+02 0.717E+02   0.136E+01 0.214E+00 0.805E+00   0.311E-03 -.894E-04 0.240E-03
   -.283E+01 0.821E+00 -.306E+01   0.308E+01 -.105E+01 0.312E+01   -.210E+00 0.184E+00 -.872E-01   -.673E-04 0.185E-04 0.948E-05
   0.306E+00 0.821E-01 0.268E+02   -.439E+00 0.196E+00 -.263E+02   0.154E+00 -.143E+00 -.671E+00   -.542E-04 0.216E-04 -.579E-04
   0.114E+03 -.603E+02 -.391E+02   -.192E+03 0.110E+03 0.824E+02   -.398E+02 0.281E+02 0.246E+02   0.235E-04 -.409E-04 -.410E-04
   0.132E+02 -.499E+01 -.468E+02   -.133E+02 0.522E+01 0.473E+02   -.147E+00 -.167E+00 0.274E-01   -.380E-04 0.146E-04 0.862E-04
   0.260E+02 -.701E+01 0.596E+02   -.250E+02 0.665E+01 -.603E+02   -.103E+01 0.416E+00 0.130E+00   -.170E-03 0.623E-04 -.240E-03
   0.332E+01 -.102E+01 -.259E+02   -.296E+01 0.101E+01 0.255E+02   -.671E+00 0.243E+00 0.560E+00   -.692E-04 0.248E-04 0.495E-04
   0.369E+01 -.147E+01 0.277E+01   -.411E+01 0.140E+01 -.244E+01   0.228E+00 0.689E-01 -.331E+00   -.219E-04 0.719E-06 0.496E-05
   0.223E+02 -.818E+01 0.749E+02   -.255E+02 0.829E+01 -.733E+02   0.537E+01 -.194E+00 -.460E+01   -.163E-03 0.520E-04 -.801E-04
   -.251E+02 0.661E+01 -.682E+02   0.257E+02 -.654E+01 0.687E+02   -.294E+00 0.745E-01 0.673E+00   0.138E-03 -.368E-04 0.295E-03
   -.129E+02 0.561E+01 0.439E+02   0.132E+02 -.508E+01 -.435E+02   -.290E+00 -.713E+00 -.922E+00   0.878E-04 -.284E-04 -.159E-03
   -.715E+02 0.392E+02 0.984E+01   0.707E+02 -.362E+02 -.984E+01   0.459E+01 -.883E+01 -.107E+01   0.917E-04 -.249E-04 -.201E-04
   0.123E+02 0.378E+01 -.101E+03   -.108E+02 -.307E+01 0.991E+02   -.104E+01 -.249E+01 0.577E+01   -.122E-03 0.410E-04 0.791E-04
   0.102E+02 -.306E+01 0.146E+02   -.995E+01 0.347E+01 -.141E+02   -.355E+00 -.465E+00 -.820E+00   -.517E-04 0.181E-04 -.952E-04
   0.302E+02 -.339E+02 0.109E+03   -.291E+02 0.336E+02 -.114E+03   -.146E+02 0.205E+02 -.477E+02   -.108E-04 0.644E-04 -.302E-03
   0.114E+03 -.603E+02 -.391E+02   -.192E+03 0.110E+03 0.824E+02   -.398E+02 0.281E+02 0.246E+02   0.287E-04 -.415E-04 -.413E-04
   0.132E+02 -.499E+01 -.468E+02   -.133E+02 0.522E+01 0.473E+02   -.147E+00 -.167E+00 0.274E-01   -.411E-04 0.245E-05 0.851E-04
   0.260E+02 -.701E+01 0.596E+02   -.250E+02 0.665E+01 -.603E+02   -.103E+01 0.416E+00 0.130E+00   -.165E-03 0.591E-04 -.241E-03
   -.415E+02 0.129E+02 -.715E+02   0.418E+02 -.133E+02 0.717E+02   0.136E+01 0.214E+00 0.805E+00   0.307E-03 -.873E-04 0.247E-03
   -.283E+01 0.821E+00 -.306E+01   0.308E+01 -.105E+01 0.312E+01   -.210E+00 0.184E+00 -.872E-01   -.664E-04 0.240E-04 0.994E-05
   0.306E+00 0.821E-01 0.268E+02   -.439E+00 0.196E+00 -.263E+02   0.154E+00 -.143E+00 -.671E+00   -.542E-04 0.217E-04 -.531E-04
   0.258E+02 0.167E+01 -.696E+02   -.214E+02 -.216E+01 0.675E+02   -.149E+02 0.343E+01 0.106E+02   -.210E-03 0.834E-04 0.241E-03
   -.108E+02 0.320E+01 -.121E+02   0.106E+02 -.371E+01 0.126E+02   0.194E+00 0.446E+00 -.350E+00   0.941E-04 -.316E-04 0.502E-04
   -.397E+02 0.180E-01 0.141E+03   0.421E+02 -.391E+00 -.149E+03   0.133E+02 0.538E+01 -.439E+02   0.294E-03 -.671E-04 -.330E-03
   0.123E+02 0.378E+01 -.101E+03   -.108E+02 -.307E+01 0.991E+02   -.104E+01 -.249E+01 0.577E+01   -.119E-03 0.441E-04 0.705E-04
   0.102E+02 -.306E+01 0.146E+02   -.995E+01 0.347E+01 -.141E+02   -.355E+00 -.465E+00 -.820E+00   -.527E-04 0.137E-04 -.958E-04
   0.302E+02 -.339E+02 0.109E+03   -.291E+02 0.336E+02 -.114E+03   -.146E+02 0.205E+02 -.477E+02   0.529E-06 0.585E-04 -.304E-03
   0.332E+01 -.102E+01 -.259E+02   -.296E+01 0.101E+01 0.255E+02   -.671E+00 0.243E+00 0.560E+00   -.720E-04 0.261E-04 0.525E-04
   0.369E+01 -.147E+01 0.277E+01   -.411E+01 0.140E+01 -.244E+01   0.228E+00 0.689E-01 -.331E+00   -.201E-04 0.832E-05 0.501E-05
   0.223E+02 -.818E+01 0.749E+02   -.255E+02 0.829E+01 -.733E+02   0.537E+01 -.194E+00 -.460E+01   -.164E-03 0.533E-04 -.739E-04
   -.251E+02 0.661E+01 -.682E+02   0.257E+02 -.654E+01 0.687E+02   -.294E+00 0.745E-01 0.673E+00   0.143E-03 -.414E-04 0.297E-03
   -.129E+02 0.561E+01 0.439E+02   0.132E+02 -.508E+01 -.435E+02   -.290E+00 -.713E+00 -.922E+00   0.863E-04 -.359E-04 -.159E-03
   -.715E+02 0.392E+02 0.984E+01   0.707E+02 -.362E+02 -.984E+01   0.459E+01 -.883E+01 -.107E+01   0.951E-04 -.256E-04 -.198E-04
   -.349E+02 0.430E+02 -.303E+02   0.317E+02 -.446E+02 0.372E+02   0.132E+02 -.183E+02 0.449E+02   0.473E-03 -.203E-03 -.611E-04
   0.102E+02 -.242E+02 0.406E+02   -.105E+02 0.237E+02 -.399E+02   0.111E+01 0.217E+01 -.249E+01   -.238E-03 0.103E-03 -.305E-04
   0.204E+02 0.243E+02 0.499E+02   0.552E+02 -.773E+02 -.967E+02   0.357E+02 -.245E+02 -.205E+02   -.151E-03 0.107E-03 0.516E-04
   -.349E+02 0.430E+02 -.303E+02   0.317E+02 -.446E+02 0.372E+02   0.132E+02 -.183E+02 0.449E+02   0.469E-03 -.205E-03 -.586E-04
   0.102E+02 -.242E+02 0.406E+02   -.105E+02 0.237E+02 -.399E+02   0.111E+01 0.217E+01 -.249E+01   -.231E-03 0.112E-03 -.333E-04
   0.204E+02 0.243E+02 0.499E+02   0.552E+02 -.773E+02 -.967E+02   0.357E+02 -.245E+02 -.205E+02   -.160E-03 0.103E-03 0.502E-04
   -.564E+02 -.766E+01 -.293E+02   0.567E+02 0.545E+01 0.265E+02   -.301E+00 0.734E+01 0.540E+01   0.263E-03 -.598E-04 0.301E-04
   -.167E+02 0.335E+02 -.705E+02   0.841E+01 -.324E+02 0.781E+02   0.255E+01 -.116E+02 0.360E+02   -.426E-04 -.381E-04 0.317E-03
   0.137E+02 -.263E+02 -.101E+02   -.147E+02 0.265E+02 0.989E+01   0.290E+01 0.205E+01 -.178E+01   -.156E-03 0.348E-04 0.877E-04
   -.564E+02 -.766E+01 -.293E+02   0.567E+02 0.545E+01 0.265E+02   -.301E+00 0.734E+01 0.540E+01   0.257E-03 -.780E-04 0.293E-04
   -.167E+02 0.335E+02 -.705E+02   0.841E+01 -.324E+02 0.781E+02   0.255E+01 -.116E+02 0.360E+02   -.319E-04 -.438E-04 0.307E-03
   0.137E+02 -.263E+02 -.101E+02   -.147E+02 0.265E+02 0.989E+01   0.290E+01 0.205E+01 -.178E+01   -.163E-03 0.940E-05 0.892E-04
   -.140E+02 -.663E+01 -.853E+01   -.213E-12 0.249E-13 0.906E-13   0.140E+02 0.661E+01 0.852E+01   0.427E-03 -.116E-04 0.261E-03

 POSITION                                       TOTAL-FORCE (eV/Angst)
     -2.34237      4.90086      0.00000       -10.477517      2.952539      8.526658
      0.08645      6.11527      2.71550         0.027665     -0.064590      0.101277
      0.08645      0.04323      5.43100        15.698741      5.004439    -52.085394
      0.08645      0.04323      0.00000         1.658345     -0.147591      0.997994
      2.51527      1.25763      2.71550         0.034576     -0.048913     -0.028530
      4.94408      2.47204      5.43100         0.021169      0.135931     -0.173649
      4.94409      2.47204      0.00000      -117.320079     77.952397     67.826882
     -4.77118      3.68645      2.71550        -0.246110      0.069411      0.500187
     -2.34237      4.90086      5.43100        -0.078744      0.058148     -0.509823
     -7.80721      6.72247      1.35775        -0.316639      0.228115      0.158234
      4.33688      0.65043      4.07325        -0.190110     -0.005027     -0.007041
      6.76570      1.86484      6.78875         2.139679     -0.080976     -3.024150
     -0.52075      4.29366      1.35775         0.306078      0.149486      1.179744
      1.90806      5.50807      4.07325         0.050938     -0.186747     -0.587796
     -7.80720      6.72247      6.78875         3.736000     -5.875206     -1.065350
      6.76570      1.86484      1.35775         0.489105     -1.781239      4.321355
     -2.94957      3.07925      4.07325        -0.139572     -0.049276     -0.274931
     -0.52075      4.29366      6.78875       -13.552458     20.260660    -52.841146
     -5.98559      6.11527      0.00000      -117.320079     77.952397     67.826882
      6.15849      0.04323      2.71550        -0.246110      0.069411      0.500187
      8.58731      1.25763      5.43100        -0.078744      0.058148     -0.509823
      1.30086      3.68645      0.00000         1.658345     -0.147591      0.997994
      3.72968      4.90086      2.71550         0.034576     -0.048913     -0.028530
     -5.98559      6.11527      5.43100         0.021169      0.135931     -0.173649
      8.58731      1.25763      0.00000       -10.477517      2.952539      8.526658
     -1.12796      2.47204      2.71550         0.027665     -0.064590      0.101277
      1.30086      3.68645      5.43100        15.698741      5.004439    -52.085394
     -4.16398      5.50806      1.35775         0.489105     -1.781239      4.321355
     -1.73516      6.72247      4.07325        -0.139572     -0.049276     -0.274931
     10.40892      0.65043      6.78875       -13.552458     20.260660    -52.841146
      3.12247      3.07925      1.35775        -0.316639      0.228115      0.158234
      5.55129      4.29366      4.07325        -0.190110     -0.005027     -0.007041
     -4.16398      5.50807      6.78875         2.139679     -0.080976     -3.024150
     10.40892      0.65043      1.35775         0.306078      0.149486      1.179744
      0.69366      1.86484      4.07325         0.050938     -0.186747     -0.587796
      3.12247      3.07925      6.78875         3.736000     -5.875206     -1.065350
      2.08075      7.20910      6.78875        10.053606    -19.872271     51.797568
     -1.56247      6.39950      7.69392         0.855187      1.706653     -1.801522
     -5.20570      5.58989      8.59909       111.201809    -77.420403    -67.179292
      0.86635      3.56588      6.78875        10.053606    -19.872271     51.797568
     -2.77688      2.75627      7.69392         0.855187      1.706653     -1.801522
      5.72398      1.94667      8.59909       111.201809    -77.420403    -67.179292
      2.68796      4.98269      7.24133        -0.050895      5.125516      2.616164
     -0.95527      4.17308      8.14650        -5.751316    -10.413540     43.520745
      7.54559      3.36348      9.05167         1.850543      2.302484     -1.968185
      1.47355      1.33946      7.24133        -0.050895      5.125516      2.616164
      9.97441      0.52986      8.14650        -5.751316    -10.413540     43.520745
     -3.38409      7.00670      9.05167         1.850543      2.302484     -1.968185
    total drift:                                0.010301     -0.027654     -0.004994

  FREE ENERGIE OF THE ION-ELECTRON SYSTEM (eV)
  free  energy   TOTEN  =       -45.18717047 eV

  energy  without entropy=      -45.18609114  energy(sigma->0) =      -45.18663080