 vasp.6.4.3 19Mar24 (build Oct 22 2024 11:23:12) complex

 executed on             LinuxIFC date 2025.06.09  17:14:23

 INCAR:
   SYSTEM = Si and Ge interface calculation
   ISTART = 0
   ICHARG = 2
   LWAVE = .FALSE.
   LREAL = AUTO
   ENCUT = 700
   ENAUG = 900
   ADDGRID = .TRUE.
   LMAXMIX = 6
   LASPH = .TRUE.
   LMIXTAU = .TRUE.
   NCORE = 16
   NELM = 100
   NBANDS = 548
   EDIFF = 1d-7
   AMIX = 0.6
   ISMEAR = 0
   SIGMA = 0.01
   NELECT = 912
   ISPIN = 2
   NUPDOWN = 1
   LVTOT = .FALSE.
   LVHAR = .TRUE.

 POTCAR:    PAW_PBE Si 05Jan2001
 POTCAR:    PAW_PBE Ge 05Jan2001
|           W    W    AA    RRRRR   N    N  II  N    N   GGGG   !!!           |
|           W    W   A  A   R    R  NN   N  II  NN   N  G    G  !!!           |
|           W    W  A    A  R    R  N N  N  II  N N  N  G       !!!           |
|           W WW W  AAAAAA  RRRRR   N  N N  II  N  N N  G  GGG   !            |
|           WW  WW  A    A  R   R   N   NN  II  N   NN  G    G                |
|           W    W  A    A  R    R  N    N  II  N    N   GGGG   !!!           |
|     You use a magnetic or noncollinear calculation, but did not specify     |
|     the initial magnetic moment with the MAGMOM tag. Note that a            |
|     default of 4.386e-3 will be used for all atoms. This ferromagnetic      |
|     setup may break the symmetry of the crystal, in particular it may       |
|     rule out finding an antiferromagnetic solution. Thence, we              |
|     recommend setting the initial magnetic moment manually or verifying     |
|     carefully that this magnetic setup is desired.                          |

 POTCAR:    PAW_PBE Si 05Jan2001
   VRHFIN =Si: s2p2

   TITEL  = PAW_PBE Si 05Jan2001
   POMASS =   28.085; ZVAL   =    4.000    mass and valenz
   ENMAX  =  245.345; ENMIN  =  184.009 eV

 POTCAR:    PAW_PBE Ge 05Jan2001
   VRHFIN =Ge: s2p2

   TITEL  = PAW_PBE Ge 05Jan2001
   POMASS =   72.610; ZVAL   =    4.000    mass and valenz
   ENMAX  =  173.807; ENMIN  =  130.355 eV

 Optimization of the real space projectors (new method)

 maximal supplied QI-value         = 19.84
 optimisation between [QCUT,QGAM] = [ 13.49, 26.99] = [ 50.98,203.92] Ry
 Optimized for a Real-space Cutoff    1.07 Angstroem

   l    n(q)    QCUT    max X(q) W(low)/X(q) W(high)/X(q)  e(spline)
   0      9    13.493   159.560    0.22E-03    0.15E-03    0.72E-07
   0      9    13.493   115.863    0.21E-03    0.15E-03    0.71E-07
   1      8    13.493    88.339    0.15E-03    0.11E-03    0.13E-06
   1      8    13.493    48.592    0.15E-03    0.10E-03    0.13E-06
 Optimization of the real space projectors (new method)

 maximal supplied QI-value         = 16.25
 optimisation between [QCUT,QGAM] = [ 13.49, 26.98] = [ 50.95,203.80] Ry
 Optimized for a Real-space Cutoff    1.25 Angstroem

   l    n(q)    QCUT    max X(q) W(low)/X(q) W(high)/X(q)  e(spline)
   0     10    13.489    65.336    0.91E-04    0.11E-03    0.34E-06
   0     10    13.489    52.220    0.89E-04    0.11E-03    0.34E-06
   1     10    13.489    36.409    0.22E-03    0.27E-03    0.14E-06
   1     10    13.489    21.334    0.21E-03    0.27E-03    0.14E-06
   2      9    13.489     4.673    0.11E-03    0.12E-03    0.19E-06
  PAW_PBE Si 05Jan2001                  :
  PAW_PBE Ge 05Jan2001                  :

 POSCAR: Si+Ge
  positions in direct lattice

 exchange-correlation table for PE
   RHO(1)=    0.500       N(1)  =     2000
   RHO(2)=  100.500       N(2)  =     4000

 ion  position               nearest neighbor table
   1  0.996  0.975  0.000- 204 2.08 118 2.35  34 2.35
   2  0.946  0.625  0.152-  58 2.35  35 2.35 119 2.35  91 2.35
   3  0.896  0.275  0.304-  59 2.35 120 2.35  36 2.35  92 2.35
   4  0.096  0.675  0.000-  37 2.35  91 2.35 207 2.55
   5  0.046  0.325  0.152-  31 2.35  94 2.35  92 2.35  38 2.35
   6  0.996  0.975  0.304-  93 2.35  32 2.35  39 2.35  95 2.35
   7  0.196  0.375  0.000-  94 2.35  40 2.35
   8  0.146  0.025  0.152-  34 2.35  95 2.35  41 2.35  97 2.35
   9  0.096  0.675  0.304-  35 2.35  42 2.35  96 2.35  98 2.35
  10  0.296  0.075  0.000-  97 2.35  43 2.35 213 2.42
  11  0.246  0.725  0.152-  37 2.35  98 2.35  44 2.35 100 2.35
  12  0.196  0.375  0.304-  38 2.35  45 2.35  99 2.35 101 2.35
  13  0.396  0.775  0.000- 100 2.35  46 2.35 216 2.83 171 2.95
  14  0.346  0.425  0.152-  40 2.35 101 2.35  47 2.35 103 2.35
  15  0.296  0.075  0.304-  41 2.35  48 2.35 102 2.35 104 2.35
  16  0.496  0.475  0.000- 174 2.08 103 2.35  49 2.35
  17  0.446  0.125  0.152-  43 2.35 104 2.35 106 2.35  50 2.35
  18  0.396  0.775  0.304-  44 2.35  51 2.35 105 2.35 107 2.35
  19  0.596  0.175  0.000- 106 2.35  52 2.35 168 2.55
  20  0.546  0.825  0.152-  46 2.35 107 2.35  53 2.35 109 2.35
  21  0.496  0.475  0.304-  47 2.35 108 2.35  54 2.35 110 2.35
  22  0.696  0.875  0.000-  55 2.35 109 2.35
  23  0.646  0.525  0.152-  56 2.35  49 2.35 112 2.35 110 2.35
  24  0.596  0.175  0.304-  57 2.35 111 2.35 113 2.35  50 2.35
  25  0.796  0.575  0.000- 112 2.35  58 2.35 156 2.42
  26  0.746  0.225  0.152-  52 2.35 113 2.35 115 2.35  59 2.35
  27  0.696  0.875  0.304-  53 2.35 114 2.35  60 2.35 116 2.35
  28  0.896  0.275  0.000-  31 2.35 115 2.35 150 2.83 210 2.95
  29  0.846  0.925  0.152-  55 2.35  32 2.35 118 2.35 116 2.35
  30  0.796  0.575  0.304-  33 2.35  56 2.35 119 2.35 117 2.35
  31  0.996  0.225  0.076-   5 2.35  28 2.35  64 2.35  62 2.35
  32  0.946  0.875  0.228-  29 2.35   6 2.35  65 2.35  63 2.35
  33  0.896  0.525  0.380-  30 2.35  66 2.35 199 2.68
  34  0.096  0.925  0.076-   8 2.35  65 2.35  67 2.35   1 2.35
  35  0.046  0.575  0.228-   9 2.35   2 2.35  68 2.35  66 2.35
  36  0.996  0.225  0.380-   3 2.35  69 2.35 127 2.60
  37  0.196  0.625  0.076-  11 2.35  70 2.35   4 2.35  68 2.35
  38  0.146  0.275  0.228-  12 2.35  71 2.35   5 2.35  69 2.35
  39  0.096  0.925  0.380- 121 2.01  72 2.35   6 2.35
  40  0.296  0.325  0.076-  14 2.35  73 2.35  71 2.35   7 2.35
  41  0.246  0.975  0.228-  15 2.35  74 2.35   8 2.35  72 2.35
  42  0.196  0.625  0.380-   9 2.35  75 2.35 124 2.80
  43  0.396  0.025  0.076-  17 2.35  74 2.35  76 2.35  10 2.35
  44  0.346  0.675  0.228-  18 2.35  77 2.35  11 2.35  75 2.35
  45  0.296  0.325  0.380-  12 2.35  78 2.35 181 2.72
  46  0.496  0.725  0.076-  20 2.35  79 2.35  13 2.35  77 2.35
  47  0.446  0.375  0.228-  21 2.35  80 2.35  14 2.35  78 2.35
  48  0.396  0.025  0.380-  81 2.35  15 2.35 130 2.68
  49  0.596  0.425  0.076-  80 2.35  82 2.35  23 2.35  16 2.35
  50  0.546  0.075  0.228-  83 2.35  17 2.35  81 2.35  24 2.35
  51  0.496  0.725  0.380-  84 2.35  18 2.35 187 2.60
  52  0.696  0.125  0.076-  26 2.35  85 2.35  19 2.35  83 2.35
  53  0.646  0.775  0.228-  27 2.35  86 2.35  20 2.35  84 2.35
  54  0.596  0.425  0.380- 190 2.01  87 2.35  21 2.35
  55  0.796  0.825  0.076-  29 2.35  22 2.35  88 2.35  86 2.35
  56  0.746  0.475  0.228-  30 2.35  23 2.35  89 2.35  87 2.35
  57  0.696  0.125  0.380-  24 2.35  90 2.35 184 2.80
  58  0.896  0.525  0.076-   2 2.35  61 2.35  89 2.35  25 2.35
  59  0.846  0.175  0.228-   3 2.35  62 2.35  26 2.35  90 2.35
  60  0.796  0.825  0.380-  63 2.35  27 2.35 139 2.72
[...]
 214  0.671  0.674  0.571- 142 2.47 197 2.47 187 2.47 143 2.47
 215  0.505  0.674  0.730- 198 2.47 143 2.47 188 2.47 144 2.47
 216  0.338  0.674  0.888- 144 2.47 189 2.47  70 2.72  13 2.83
 217  0.671  0.341  0.571- 200 2.47 145 2.47 190 2.47 146 2.47
 218  0.505  0.341  0.730- 201 2.47 146 2.47 191 2.47 147 2.47
 219  0.338  0.341  0.888- 147 2.47 192 2.47  73 2.51
 220  0.005  0.007  0.571- 121 2.47 122 2.47 176 2.47 193 2.47
 221  0.838  0.007  0.730- 122 2.47 123 2.47 177 2.47 194 2.47
 222  0.671  0.007  0.888- 123 2.47 195 2.47
 223  0.005  0.674  0.571- 124 2.47 179 2.47 125 2.47 196 2.47
 224  0.838  0.674  0.730- 180 2.47 197 2.47 125 2.47 126 2.47
 225  0.671  0.674  0.888-  79 2.38 198 2.47 126 2.47
 226  0.005  0.341  0.571- 182 2.47 127 2.47 199 2.47 128 2.47
 227  0.838  0.341  0.730- 183 2.47 200 2.47 128 2.47 129 2.47
 228  0.671  0.341  0.888-  82 2.13 201 2.47 129 2.47

  LATTYP: Found a simple tetragonal cell.
 ALAT       =    17.1743316650
 C/A-ratio  =     1.0399822485

  Lattice vectors:

 A1 = (  17.1743316650,   0.0000000000,   0.0000000000)
 A2 = (   0.0000000000,  17.1743297580,   0.0000000000)
 A3 = (   0.0000000000,   0.0000000000,  17.8610000610)

Analysis of symmetry for initial positions (statically):
 Subroutine PRICEL returns following result:

[...]

   2 primitive cells build up your supercell.

 Routine SETGRP: Setting up the symmetry group for a
 simple tetragonal supercell.

 Subroutine GETGRP returns: Found  1 space group operations
 (whereof  1 operations were pure point group operations)
 out of a pool of 16 trial point group operations.

The static configuration has the point symmetry C_1 .

Analysis of symmetry for dynamics (positions and initial velocities):
 Subroutine PRICEL returns following result:

[...]

The dynamic configuration has the point symmetry C_1 .

Analysis of structural, dynamic, and magnetic symmetry:
 Subroutine PRICEL returns following result:

  LATTYP: Found a simple tetragonal cell.
 ALAT       =    12.1440835225
 C/A-ratio  =     1.4707573468

  Lattice vectors:

 A1 = (   8.5871648020,  -8.5871628181,   0.0000000000)
 A2 = (   8.5871648020,   8.5871669399,   0.0000000000)
 A3 = (   0.0000000000,   0.0000000000,  17.8610000610)

   2 primitive cells build up your supercell.

 Routine SETGRP: Setting up the symmetry group for a
 simple tetragonal supercell.

 Subroutine GETGRP returns: Found  1 space group operations
 (whereof  1 operations were pure point group operations)
 out of a pool of 16 trial point group operations.

The overall configuration has the point symmetry C_1 .

 Subroutine INISYM returns: Found  1 space group operations
 (whereof  1 operations are pure point group operations),
 and found     2 'primitive' translations

                                     Primitive cell

  volume of cell :    2634.1189

  direct lattice vectors                    reciprocal lattice vectors
     8.587164802 -8.587162818  0.000000000     0.058226450 -0.058226435  0.000000000
     8.587164802  8.587166940  0.000000000     0.058226422  0.058226435  0.000000000
     0.000000000  0.000000000 17.861000061     0.000000000  0.000000000  0.055987906

  length of vectors
    12.144083523 12.144086437 17.861000061     0.082344625  0.082344605  0.055987906

  position of ions in fractional coordinates (direct lattice)
     0.021574022  0.971234917  0.000000000
     0.321574075  0.571234828  0.152035162
     0.621574128  0.171234619  0.304070383
     0.421573703  0.771235126  0.000000000
     0.721573702  0.371234981  0.152035162
     0.021574082  0.971234619  0.304070383
     0.821573986  0.571235215  0.000000000
     0.121573797  0.171234920  0.152035162
     0.421573860  0.771234687  0.304070383
     0.221573840  0.371235015  0.000000000
     0.521574006  0.971234873  0.152035162
     0.821574045  0.571234678  0.304070383
     0.621574129  0.171235096  0.000000000
     0.921574122  0.771234947  0.152035162
     0.221573951  0.371234724  0.304070383
     0.771574096  0.221234961  0.076017611
     0.071574075  0.821234708  0.228052765
[...]
     0.000000000  0.000000000 17.861000061     0.000000000  0.000000000  0.055987906

  length of vectors
    17.174331665 17.174329758 17.861000061     0.058226429  0.058226435  0.055987906

 FORCES acting on ions
    electron-ion (+dipol)            ewald-force                    non-local-force                 convergence-correction
   0.260E+01 0.100E+02 0.331E+02   -.290E+01 -.929E+01 -.338E+02   -.289E+00 -.171E+01 0.435E+01   -.504E-05 -.161E-05 0.113E-04
   -.110E+00 -.234E+00 0.133E+02   -.107E+00 -.857E-01 -.130E+02   0.158E+00 0.335E+00 -.236E+00   0.322E-05 -.600E-06 0.303E-04
   -.848E+00 0.585E+00 -.374E+02   0.442E+00 -.259E+00 0.369E+02   0.284E+00 -.240E+00 0.904E+00   -.358E-05 0.738E-05 0.369E-05
   -.109E+02 -.419E+00 0.538E+02   0.993E+01 0.124E+01 -.523E+02   0.870E-01 -.423E+00 -.195E+01   0.289E-05 0.488E-05 0.338E-04
   0.121E+00 0.482E+00 0.132E+02   0.110E+00 -.113E-01 -.129E+02   -.200E+00 -.494E+00 -.189E+00   -.297E-05 0.835E-05 0.198E-04
   0.103E+01 0.587E-01 -.360E+02   -.750E+00 -.161E+00 0.356E+02   -.171E+00 0.129E+00 0.938E+00   -.114E-04 -.889E-05 0.150E-04
   0.283E+01 0.425E+01 0.585E+02   -.309E+01 -.433E+01 -.581E+02   -.890E-02 0.167E+00 -.117E+01   -.135E-04 0.157E-04 0.429E-04
   0.124E+00 0.422E+00 0.135E+02   0.555E-01 -.285E-01 -.132E+02   -.119E+00 -.390E+00 -.197E+00   -.562E-05 -.401E-06 0.212E-04
   0.102E+01 -.184E+01 -.358E+02   0.178E+00 0.132E+01 0.355E+02   -.782E+00 0.586E+00 0.489E+00   -.647E-05 -.593E-05 0.627E-05
   0.489E+01 -.812E+01 0.485E+02   -.313E+01 0.820E+01 -.469E+02   -.795E+00 -.919E-01 -.154E+01   -.518E-05 -.154E-04 0.375E-04
   -.665E-01 -.695E-01 0.132E+02   -.973E-01 -.376E-01 -.131E+02   0.746E-01 0.125E+00 -.121E+00   -.406E-05 -.633E-05 0.171E-04
   0.929E+00 0.571E+00 -.344E+02   -.858E+00 -.671E+00 0.352E+02   -.115E+00 -.135E-01 -.794E+00   -.245E-06 0.727E-05 0.996E-05
   0.156E+01 -.342E+01 0.569E+02   -.123E+01 0.311E+01 -.555E+02   0.240E+00 -.115E+00 -.313E+01   0.189E-05 -.846E-05 0.384E-04
   -.269E+00 -.559E+00 0.134E+02   0.388E-01 0.163E+00 -.131E+02   0.191E+00 0.408E+00 -.286E+00   -.267E-05 0.108E-04 0.254E-04
   -.192E+01 0.628E+00 -.337E+02   0.997E+00 -.236E+00 0.340E+02   0.562E+00 -.428E+00 -.214E+00   -.192E-06 -.274E-05 0.145E-04
   0.260E+01 0.100E+02 0.331E+02   -.290E+01 -.929E+01 -.338E+02   -.289E+00 -.171E+01 0.435E+01   0.627E-05 0.139E-04 0.141E-04
   -.110E+00 -.234E+00 0.133E+02   -.107E+00 -.857E-01 -.130E+02   0.158E+00 0.335E+00 -.236E+00   0.130E-04 -.863E-05 0.302E-04
   -.848E+00 0.585E+00 -.374E+02   0.442E+00 -.259E+00 0.369E+02   0.284E+00 -.240E+00 0.904E+00   0.385E-05 0.146E-05 0.273E-05
   -.109E+02 -.419E+00 0.538E+02   0.993E+01 0.124E+01 -.523E+02   0.870E-01 -.423E+00 -.195E+01   0.130E-04 0.251E-05 0.370E-04
   0.121E+00 0.482E+00 0.132E+02   0.110E+00 -.113E-01 -.129E+02   -.200E+00 -.494E+00 -.189E+00   0.833E-05 0.636E-06 0.208E-04
   0.103E+01 0.586E-01 -.360E+02   -.750E+00 -.161E+00 0.356E+02   -.171E+00 0.129E+00 0.938E+00   0.726E-06 0.727E-05 0.137E-04
   0.283E+01 0.425E+01 0.585E+02   -.309E+01 -.433E+01 -.581E+02   -.890E-02 0.167E+00 -.117E+01   -.617E-05 0.154E-05 0.379E-04
   0.124E+00 0.422E+00 0.135E+02   0.554E-01 -.286E-01 -.132E+02   -.119E+00 -.390E+00 -.197E+00   0.303E-05 0.119E-04 0.221E-04
   0.102E+01 -.184E+01 -.358E+02   0.178E+00 0.132E+01 0.355E+02   -.782E+00 0.586E+00 0.489E+00   0.795E-05 -.129E-04 0.386E-05
   0.489E+01 -.812E+01 0.485E+02   -.313E+01 0.820E+01 -.469E+02   -.795E+00 -.919E-01 -.154E+01   -.259E-05 -.787E-06 0.321E-04
   -.664E-01 -.695E-01 0.132E+02   -.974E-01 -.376E-01 -.131E+02   0.746E-01 0.125E+00 -.121E+00   0.295E-08 -.504E-05 0.172E-04
   0.929E+00 0.571E+00 -.344E+02   -.858E+00 -.671E+00 0.352E+02   -.115E+00 -.135E-01 -.794E+00   0.638E-05 -.485E-05 0.167E-04
   0.156E+01 -.342E+01 0.569E+02   -.123E+01 0.311E+01 -.555E+02   0.240E+00 -.115E+00 -.313E+01   -.330E-05 -.357E-05 0.368E-04
   -.269E+00 -.559E+00 0.134E+02   0.387E-01 0.163E+00 -.131E+02   0.191E+00 0.408E+00 -.286E+00   -.635E-05 -.285E-05 0.263E-04
   -.192E+01 0.628E+00 -.337E+02   0.997E+00 -.236E+00 0.340E+02   0.562E+00 -.428E+00 -.214E+00   0.150E-05 0.106E-04 0.226E-04
   -.104E+01 0.157E+01 0.370E+02   -.357E-01 -.970E+00 -.365E+02   0.791E+00 -.553E+00 -.912E+00   -.727E-05 0.431E-06 0.257E-04
   -.279E+00 -.664E+00 -.135E+02   -.143E-01 0.102E+00 0.132E+02   0.216E+00 0.555E+00 0.232E+00   -.112E-04 -.913E-05 0.266E-04
   -.147E+00 -.756E+01 -.548E+02   0.133E+01 0.795E+01 0.537E+02   -.279E+00 -.579E+00 0.174E+01   -.239E-05 0.156E-04 -.168E-04
   0.214E+00 -.378E+00 0.360E+02   0.145E-01 0.214E+00 -.354E+02   -.166E+00 0.153E+00 -.109E+01   -.450E-05 -.657E-05 0.149E-04
   -.978E-01 -.338E+00 -.132E+02   -.125E+00 -.632E-01 0.129E+02   0.160E+00 0.431E+00 0.205E+00   -.275E-05 0.235E-05 0.235E-04
   0.876E+01 0.101E+01 -.551E+02   -.792E+01 -.154E+01 0.537E+02   -.991E-01 0.591E-03 0.248E+01   -.823E-06 -.101E-05 -.233E-04
   0.108E+01 -.130E+01 0.368E+02   -.178E+00 0.810E+00 -.365E+02   -.621E+00 0.436E+00 -.636E+00   -.232E-05 0.973E-06 0.240E-04
   0.142E+00 0.493E+00 -.132E+02   0.150E+00 0.594E-01 0.130E+02   -.201E+00 -.574E+00 0.162E+00   -.452E-05 0.669E-05 0.208E-04
   -.319E+01 -.289E+00 -.271E+02   0.283E+01 0.477E+00 0.284E+02   0.654E+00 -.851E-01 -.704E+01   -.110E-04 -.720E-05 0.727E-05
   0.139E+01 0.215E+00 0.334E+02   -.105E+01 -.444E+00 -.341E+02   -.234E+00 0.103E+00 0.814E+00   -.690E-05 0.140E-04 0.355E-04
   0.315E+00 0.548E+00 -.135E+02   -.178E-01 -.126E+00 0.132E+02   -.252E+00 -.435E+00 0.262E+00   0.227E-05 -.236E-05 0.233E-04
   -.640E+01 0.776E+00 -.580E+02   0.567E+01 -.483E+00 0.565E+02   -.130E+00 0.236E+00 0.272E+01   -.935E-05 -.280E-05 -.207E-04
   -.169E+01 -.132E+00 0.341E+02   0.125E+01 0.389E+00 -.347E+02   0.291E+00 -.161E+00 0.568E+00   0.885E-05 -.129E-04 0.346E-04
   -.473E-01 -.108E+00 -.132E+02   0.712E-02 0.269E-01 0.131E+02   0.676E-01 0.644E-01 0.148E+00   0.175E-06 -.837E-06 0.166E-04
   0.552E+00 0.593E+01 -.540E+02   -.146E+01 -.636E+01 0.529E+02   0.264E+00 0.559E+00 0.155E+01   -.279E-05 0.921E-05 -.214E-04
   -.104E+01 0.157E+01 0.370E+02   -.358E-01 -.970E+00 -.365E+02   0.791E+00 -.553E+00 -.912E+00   0.291E-05 -.871E-06 0.261E-04
   -.279E+00 -.664E+00 -.135E+02   -.144E-01 0.102E+00 0.132E+02   0.216E+00 0.555E+00 0.232E+00   -.126E-05 0.410E-05 0.239E-04
   -.147E+00 -.756E+01 -.548E+02   0.133E+01 0.795E+01 0.537E+02   -.279E+00 -.579E+00 0.174E+01   0.756E-05 -.248E-05 -.249E-04
   0.214E+00 -.378E+00 0.360E+02   0.144E-01 0.214E+00 -.354E+02   -.166E+00 0.153E+00 -.109E+01   0.591E-05 0.699E-05 0.153E-04
   -.978E-01 -.338E+00 -.132E+02   -.125E+00 -.630E-01 0.129E+02   0.160E+00 0.431E+00 0.205E+00   0.902E-05 -.112E-04 0.233E-04
   0.876E+01 0.101E+01 -.551E+02   -.792E+01 -.154E+01 0.537E+02   -.991E-01 0.591E-03 0.248E+01   0.136E-04 -.175E-06 -.236E-04
   0.108E+01 -.130E+01 0.368E+02   -.178E+00 0.810E+00 -.365E+02   -.621E+00 0.436E+00 -.636E+00   0.407E-05 -.681E-05 0.247E-04
   0.142E+00 0.493E+00 -.132E+02   0.150E+00 0.594E-01 0.130E+02   -.201E+00 -.574E+00 0.162E+00   0.569E-05 0.249E-05 0.264E-04
   -.319E+01 -.289E+00 -.271E+02   0.283E+01 0.477E+00 0.284E+02   0.654E+00 -.851E-01 -.704E+01   0.264E-05 0.112E-04 0.593E-05
   0.139E+01 0.215E+00 0.334E+02   -.105E+01 -.444E+00 -.341E+02   -.234E+00 0.103E+00 0.814E+00   -.664E-05 0.502E-05 0.322E-04
   0.315E+00 0.548E+00 -.135E+02   -.179E-01 -.126E+00 0.132E+02   -.252E+00 -.435E+00 0.262E+00   0.605E-05 0.126E-04 0.253E-04
   -.640E+01 0.776E+00 -.580E+02   0.567E+01 -.483E+00 0.565E+02   -.130E+00 0.236E+00 0.272E+01   -.215E-05 -.136E-04 -.207E-04
   -.169E+01 -.132E+00 0.341E+02   0.125E+01 0.389E+00 -.347E+02   0.291E+00 -.161E+00 0.568E+00   0.192E-05 0.788E-06 0.313E-04
   -.472E-01 -.108E+00 -.132E+02   0.705E-02 0.269E-01 0.131E+02   0.676E-01 0.644E-01 0.148E+00   -.234E-05 -.400E-05 0.167E-04
   0.552E+00 0.593E+01 -.540E+02   -.146E+01 -.636E+01 0.529E+02   0.264E+00 0.559E+00 0.155E+01   -.248E-05 -.593E-05 -.156E-04
[...]
   0.260E+00 0.951E-01 0.183E+00   -.746E-01 -.506E-01 -.284E+00   -.167E+00 -.745E-01 0.573E-01   0.662E-05 -.456E-05 -.140E-04
   0.390E+00 -.158E+01 0.124E+02   -.204E+00 0.151E+01 -.117E+02   0.443E-01 0.138E-01 0.145E+01   -.138E-05 -.254E-05 0.157E-04
   0.124E+00 0.639E+00 -.389E+01   -.171E+00 -.649E+00 0.407E+01   -.125E+00 0.595E-01 -.497E+00   -.221E-05 0.142E-04 -.289E-04
   -.335E+00 -.188E+00 0.256E-01   0.510E-01 -.132E-01 -.213E+00   0.316E+00 0.199E+00 0.578E-01   0.123E-04 0.130E-04 -.162E-04
   0.327E+01 -.739E+01 0.160E+02   -.271E+01 0.720E+01 -.154E+02   -.145E+00 -.249E+00 0.220E+00   0.547E-05 0.206E-04 0.117E-04
   -.661E+00 -.232E+00 -.401E+01   0.380E+00 0.443E+00 0.422E+01   0.361E+00 -.182E+00 -.556E+00   -.233E-05 -.175E-04 -.298E-04
   -.282E+00 -.224E+00 0.247E+00   0.145E-01 -.964E-01 -.310E+00   0.318E+00 0.243E+00 -.171E-01   0.459E-06 -.796E-05 -.144E-04
   0.252E+01 -.226E+01 0.770E+01   -.231E+01 0.204E+01 -.646E+01   0.361E+00 -.313E+00 0.453E+00   0.877E-05 -.406E-05 0.142E-04
   -.508E+00 0.154E+01 -.562E+01   0.994E-01 -.953E+00 0.522E+01   0.244E+00 -.286E+00 0.683E+00   -.542E-05 0.377E-05 -.257E-04
   0.103E+00 0.288E-01 0.871E-01   -.464E-02 0.154E-01 -.298E+00   -.106E+00 -.398E-01 0.122E+00   0.159E-05 -.824E-06 -.222E-04
   -.946E+01 -.976E+00 0.187E+02   0.931E+01 0.199E+01 -.182E+02   -.526E-01 -.157E+00 -.209E+00   -.498E-05 -.289E-05 0.147E-04
   0.105E+01 -.736E+00 -.390E+01   -.421E+00 0.329E+00 0.381E+01   -.320E+00 0.253E+00 0.151E+00   -.411E-05 0.127E-04 -.230E-04
   0.202E+00 0.147E+00 0.284E+00   -.979E-02 0.805E-01 -.300E+00   -.234E+00 -.157E+00 -.263E-01   -.209E-05 0.856E-05 -.131E-04
   0.601E+01 0.849E+01 0.276E+02   -.612E+01 -.852E+01 -.273E+02   -.525E+00 -.956E+00 -.264E+01   0.250E-05 0.916E-05 0.219E-04
   -.941E+00 -.698E+00 0.245E+00   0.115E-12 0.266E-13 0.142E-11   0.838E+00 0.737E+00 0.121E+00   -.516E-05 -.275E-05 0.295E-03

 POSITION                                       TOTAL-FORCE (eV/Angst)
     17.11258     16.74206      0.00000        -0.586543     -0.978386      3.712944
     16.25386     10.73105      2.71550        -0.057827      0.014845      0.023852
     15.39514      4.72003      5.43100        -0.120973      0.086067      0.420737
      1.65568     11.58977      0.00000        -0.902296      0.395861     -0.503587
      0.79696      5.57875      2.71550         0.031359     -0.023611      0.064931
     17.11258     16.74206      5.43100         0.114123      0.026095      0.495202
      3.37311      6.43747      0.00000        -0.270131      0.084237     -0.697279
      2.51440      0.42645      2.71550         0.061201      0.003965      0.046602
      1.65568     11.58976      5.43100         0.414007      0.071134      0.223503
      5.09055      1.28517      0.00000         0.965877     -0.010236      0.083874
      4.23183     12.44848      2.71550        -0.088690      0.018154     -0.001456
      3.37311      6.43746      5.43100        -0.044035     -0.113558     -0.019466
      6.80798     13.30720      0.00000         0.567074     -0.430448     -1.666499
      5.94926      7.29618      2.71550        -0.039121      0.011756      0.061984
      5.09055      1.28516      5.43100        -0.363116     -0.036190      0.067918
      8.52541      8.15490      0.00000        -0.586543     -0.978386      3.712944
      7.66670      2.14388      2.71550        -0.057827      0.014845      0.023852
      6.80798     13.30719      5.43100        -0.120973      0.086067      0.420737
     10.24285      3.00260      0.00000        -0.902296      0.395861     -0.503587
      9.38413     14.16591      2.71550         0.031359     -0.023611      0.064931
      8.52541      8.15489      5.43100         0.114123      0.026095      0.495202
     11.96028     15.02463      0.00000        -0.270131      0.084237     -0.697279
     11.10156      9.01361      2.71550         0.061201      0.003965      0.046602
     10.24285      3.00260      5.43100         0.414007      0.071134      0.223503
     13.67771      9.87233      0.00000         0.965877     -0.010236      0.083874
     12.81900      3.86132      2.71550        -0.088690      0.018154     -0.001456
     11.96028     15.02463      5.43100        -0.044035     -0.113558     -0.019466
     15.39515      4.72003      0.00000         0.567074     -0.430448     -1.666499
     14.53643     15.88335      2.71550        -0.039121      0.011756      0.061984
     13.67771      9.87233      5.43100        -0.363116     -0.036190      0.067918
     17.11258      3.86132      1.35775        -0.284598      0.047081     -0.389121
     16.25386     15.02463      4.07325        -0.077101     -0.006412     -0.072186
     15.39514      9.01361      6.78875         0.900265     -0.185156      0.603211
      1.65568     15.88335      1.35775         0.063033     -0.011365     -0.549036
      0.79696      9.87233      4.07325        -0.061695      0.029074     -0.054261
     17.11258      3.86131      6.78875         0.736474     -0.531387      1.074327
      3.37311     10.73105      1.35775         0.280716     -0.058628     -0.338395
      2.51440      4.72003      4.07325         0.091316     -0.021823     -0.059955
      1.65568     15.88334      6.78875         0.298182      0.102591     -5.791040
      5.09055      5.57875      1.35775         0.100871     -0.126435      0.084464
      4.23183     16.74206      4.07325         0.046137     -0.013580     -0.055626
      3.37311     10.73104      6.78875        -0.859802      0.529896      1.228717
      6.80798      0.42645      1.35775        -0.144882      0.095815     -0.022200
      5.94926     11.58976      4.07325         0.027884     -0.017035      0.013616
      5.09054      5.57875      6.78875        -0.639499      0.132339      0.509839
      8.52542     12.44848      1.35775        -0.284598      0.047081     -0.389121
      7.66670      6.43746      4.07325        -0.077101     -0.006412     -0.072186
      6.80798      0.42645      6.78875         0.900265     -0.185156      0.603211
     10.24285      7.29618      1.35775         0.063033     -0.011365     -0.549036
      9.38413      1.28516      4.07325        -0.061695      0.029074     -0.054261
      8.52541     12.44848      6.78875         0.736474     -0.531387      1.074327
     11.96028      2.14388      1.35775         0.280716     -0.058628     -0.338395
     11.10156     13.30720      4.07325         0.091316     -0.021823     -0.059955
     10.24285      7.29618      6.78875         0.298182      0.102591     -5.791040
     13.67771     14.16591      1.35775         0.100871     -0.126435      0.084464
     12.81900      8.15490      4.07325         0.046137     -0.013580     -0.055626
     11.96028      2.14388      6.78875        -0.859802      0.529896      1.228717
     15.39515      9.01361      1.35775        -0.144882      0.095815     -0.022200
     14.53643      3.00260      4.07325         0.027884     -0.017035      0.013616
     13.67771     14.16591      6.78875        -0.639499      0.132339      0.509839
[...]
     11.52752     11.57510     10.20320         0.162413     -0.406599      0.138843
      8.66513     11.57510     13.03210         0.018733     -0.030132     -0.045624
      5.80274     11.57510     15.86100         0.230737     -0.055382      2.123698
     11.52752      5.85032     10.20320        -0.171001      0.048591     -0.317265
      8.66513      5.85032     13.03210         0.031778     -0.001930     -0.131568
      5.80274      5.85032     15.86100         0.412758     -0.441933      0.807274
      0.07796      0.12554     10.20320         0.080286      0.029354     -0.341309
     14.38990      0.12554     13.03210         0.050585     -0.076991     -0.081193
     11.52751      0.12554     15.86100         0.575473     -0.529586      1.695469
      0.07796     11.57510     10.20320        -0.164481      0.302974      0.279608
     14.38990     11.57510     13.03210        -0.006662      0.004219     -0.090240
     11.52751     11.57510     15.86100        -0.204401      0.861215      0.358562
      0.07796      5.85032     10.20320         0.309911     -0.153750      0.065914
     14.38990      5.85032     13.03210        -0.041419      0.070287     -0.043038
     11.52751      5.85032     15.86100        -0.628422     -0.984177     -2.325275
    total drift:                               -0.102925      0.038672      0.366469

  FREE ENERGIE OF THE ION-ELECTRON SYSTEM (eV)
  free  energy   TOTEN  =     -1064.01666235 eV

  energy  without entropy=    -1064.01420569  energy(sigma->0) =    -1064.01543402