 vasp.6.4.3 19Mar24 (build Oct 22 2024 11:23:12) complex

 executed on             LinuxIFC date 2025.06.08  15:47:44

 INCAR:
   SYSTEM = Si and Ge interface calculation
   ISTART = 0
   ICHARG = 2
   LWAVE = .FALSE.
   LREAL = AUTO
   ENCUT = 700
   ENAUG = 900
   ADDGRID = .TRUE.
   LMAXMIX = 6
   LASPH = .TRUE.
   LMIXTAU = .TRUE.
   NCORE = 16
   NELM = 100
   NBANDS = 288
   EDIFF = 1d-7
   AMIX = 0.6
   ISMEAR = 0
   SIGMA = 0.01
   NELECT = 480
   ISPIN = 2
   NUPDOWN = 1
   LVTOT = .FALSE.
   LVHAR = .TRUE.

 POTCAR:    PAW_PBE Si 05Jan2001
 POTCAR:    PAW_PBE Sn 08Apr2002
|           W    W    AA    RRRRR   N    N  II  N    N   GGGG   !!!           |
|           W    W   A  A   R    R  NN   N  II  NN   N  G    G  !!!           |
|           W    W  A    A  R    R  N N  N  II  N N  N  G       !!!           |
|           W WW W  AAAAAA  RRRRR   N  N N  II  N  N N  G  GGG   !            |
|           WW  WW  A    A  R   R   N   NN  II  N   NN  G    G                |
|           W    W  A    A  R    R  N    N  II  N    N   GGGG   !!!           |
|     You use a magnetic or noncollinear calculation, but did not specify     |
|     the initial magnetic moment with the MAGMOM tag. Note that a            |
|     default of 8.333e-3 will be used for all atoms. This ferromagnetic      |
|     setup may break the symmetry of the crystal, in particular it may       |
|     rule out finding an antiferromagnetic solution. Thence, we              |
|     recommend setting the initial magnetic moment manually or verifying     |
|     carefully that this magnetic setup is desired.                          |

 POTCAR:    PAW_PBE Si 05Jan2001
   VRHFIN =Si: s2p2

   TITEL  = PAW_PBE Si 05Jan2001
   POMASS =   28.085; ZVAL   =    4.000    mass and valenz
   ENMAX  =  245.345; ENMIN  =  184.009 eV

 POTCAR:    PAW_PBE Sn 08Apr2002
   VRHFIN =Sn: s2p2

   TITEL  = PAW_PBE Sn 08Apr2002
   POMASS =  118.710; ZVAL   =    4.000    mass and valenz
   ENMAX  =  103.236; ENMIN  =   77.427 eV

 Optimization of the real space projectors (new method)

 maximal supplied QI-value         = 19.84
 optimisation between [QCUT,QGAM] = [ 13.49, 26.99] = [ 50.98,203.92] Ry
 Optimized for a Real-space Cutoff    1.07 Angstroem

   l    n(q)    QCUT    max X(q) W(low)/X(q) W(high)/X(q)  e(spline)
   0      9    13.493   159.560    0.22E-03    0.15E-03    0.72E-07
   0      9    13.493   115.863    0.21E-03    0.15E-03    0.71E-07
   1      8    13.493    88.339    0.15E-03    0.11E-03    0.13E-06
   1      8    13.493    48.592    0.15E-03    0.10E-03    0.13E-06
 Optimization of the real space projectors (new method)

 maximal supplied QI-value         = 12.47
 optimisation between [QCUT,QGAM] = [ 12.47, 27.06] = [ 43.56,205.12] Ry
 Optimized for a Real-space Cutoff    1.58 Angstroem

   l    n(q)    QCUT    max X(q) W(low)/X(q) W(high)/X(q)  e(spline)
   0     13    12.472    14.688    0.45E-04    0.45E-04    0.25E-05
   0     13    12.472     7.308    0.94E-04    0.11E-03    0.61E-05
   1     12    12.472    45.102    0.34E-03    0.14E-03    0.21E-05
   1     12    12.472    30.691    0.31E-03    0.13E-03    0.20E-05
   2     12    12.472     7.156    0.86E-04    0.11E-03    0.17E-05
 WARNING: PSMAXN for non-local potential too small
          PSMAXN should be >   13.5545592237991       NTYP=           2
  PAW_PBE Si 05Jan2001                  :
  PAW_PBE Sn 08Apr2002                  :

 POSCAR: Si+Sn
  positions in direct lattice

 exchange-correlation table for PE
   RHO(1)=    0.500       N(1)  =     2000
   RHO(2)=  100.500       N(2)  =     4000

 ion  position               nearest neighbor table
   1  0.979  0.979  0.000- 114 2.19  49 2.35  62 2.35  55 2.35  77 2.36 113 3.36
   2  0.729  0.729  0.091- 120 2.24  50 2.35  56 2.35  63 2.35  49 2.35  90 2.95  84 3.21
   3  0.479  0.479  0.182-  51 2.35  64 2.35  57 2.35  50 2.35
   4  0.229  0.229  0.273-  52 2.35  65 2.35  58 2.35  51 2.35
   5  0.979  0.979  0.364-  73 2.00  53 2.35  59 2.35  66 2.35  52 2.35 109 3.12 103 3.37
   6  0.729  0.729  0.456-  54 2.35  60 2.35  53 2.35 116 2.57  79 2.81 109 3.09  86 3.21 103 3.34
                            80 3.45
   7  0.979  0.312  0.000-  78 0.85  37 2.35  68 2.35  61 2.35 101 2.61 108 2.84
   8  0.729  0.062  0.091-  62 2.35  69 2.35  38 2.35  37 2.35 108 2.81  78 3.40
   9  0.479  0.812  0.182-  70 2.35  63 2.35  39 2.35  38 2.35
  10  0.229  0.562  0.273-  71 2.35  64 2.35  39 2.35  40 2.35
  11  0.979  0.312  0.364-  97 2.29  40 2.35  41 2.35  65 2.35  72 2.35
  12  0.729  0.062  0.456-  91 1.83 103 2.33  42 2.35  66 2.35  41 2.35  73 3.02 104 3.07
  13  0.979  0.645  0.000- 102 1.40  90 1.89  56 2.35  67 2.35  43 2.35  89 3.18 120 3.30
  14  0.729  0.395  0.091-  57 2.35  43 2.35  68 2.35  44 2.35  96 2.73
  15  0.479  0.145  0.182-  58 2.35  69 2.35  44 2.35  45 2.35
  16  0.229  0.895  0.273-  59 2.35  70 2.35  45 2.35  46 2.35
  17  0.979  0.645  0.364-  46 2.35  47 2.35  71 2.35  60 2.35  85 2.92
  18  0.729  0.395  0.456- 115 0.95  85 2.15  72 2.35  48 2.35  47 2.35  92 3.01
  19  0.479  0.145  0.000- 108 1.40  96 1.89  44 2.35  55 2.35  37 2.35  95 3.18 114 3.30
  20  0.229  0.895  0.091-  45 2.35  56 2.35  38 2.35  55 2.35  90 2.73
  21  0.979  0.645  0.182-  46 2.35  39 2.35  57 2.35  56 2.35
  22  0.729  0.395  0.273-  47 2.35  58 2.35  57 2.35  40 2.35
  23  0.479  0.145  0.364-  48 2.35  59 2.35  41 2.35  58 2.35  91 2.92
  24  0.229  0.895  0.456- 109 0.95  91 2.15  60 2.35  42 2.35  59 2.35  86 3.01
  25  0.479  0.479  0.000- 120 2.19  50 2.35  61 2.35  43 2.35  83 2.36 119 3.36
  26  0.229  0.229  0.091- 114 2.24  51 2.35  62 2.35  61 2.35  44 2.35  96 2.95  78 3.21
  27  0.979  0.979  0.182-  45 2.35  52 2.35  63 2.35  62 2.35
  28  0.729  0.729  0.273-  53 2.35  64 2.35  63 2.35  46 2.35
  29  0.479  0.479  0.364-  79 2.00  65 2.35  47 2.35  54 2.35  64 2.35 115 3.12  97 3.37
  30  0.229  0.229  0.456-  66 2.35  65 2.35  48 2.35 110 2.57  73 2.81 115 3.09  92 3.21  97 3.34
                            74 3.45
  31  0.479  0.812  0.000-  84 0.85  38 2.35  67 2.35  49 2.35 107 2.61 102 2.84
  32  0.229  0.562  0.091-  39 2.35  50 2.35  68 2.35  67 2.35 102 2.81  84 3.40
  33  0.979  0.312  0.182-  40 2.35  51 2.35  69 2.35  68 2.35
  34  0.729  0.062  0.273-  41 2.35  70 2.35  52 2.35  69 2.35
  35  0.479  0.812  0.364- 103 2.29  42 2.35  71 2.35  53 2.35  70 2.35
  36  0.229  0.562  0.456-  85 1.83  97 2.33  72 2.35  54 2.35  71 2.35  79 3.02  98 3.07
  37  0.729  0.145  0.000- 108 0.95  78 2.15   7 2.35   8 2.35  19 2.35  95 3.01
  38  0.479  0.895  0.091-  31 2.35   8 2.35   9 2.35  20 2.35  84 2.92
  39  0.229  0.645  0.182-  32 2.35   9 2.35  21 2.35  10 2.35
  40  0.979  0.395  0.273-  33 2.35  11 2.35  10 2.35  22 2.35
  41  0.729  0.145  0.364-  34 2.35  11 2.35  23 2.35  12 2.35  91 2.73
  42  0.479  0.895  0.456- 103 1.40  91 1.89  35 2.35  12 2.35  24 2.35  80 3.18 109 3.30
  43  0.729  0.479  0.000-  14 2.35  13 2.35  25 2.35 119 2.57  96 2.81 102 3.09  89 3.21 120 3.34
                            83 3.45
  44  0.479  0.229  0.091-  96 2.00  19 2.35  15 2.35  14 2.35  26 2.35 108 3.12 114 3.37
  45  0.229  0.979  0.182-  20 2.35  15 2.35  27 2.35  16 2.35
  46  0.979  0.729  0.273-  17 2.35  21 2.35  16 2.35  28 2.35
  47  0.729  0.479  0.364- 115 2.24  22 2.35  17 2.35  29 2.35  18 2.35  85 2.95  79 3.21
  48  0.479  0.229  0.456- 115 2.19  23 2.35  18 2.35  30 2.35  92 2.36 104 3.36
  49  0.729  0.812  0.000-  84 1.83 120 2.33   1 2.35  31 2.35   2 2.35  90 3.02 107 3.07
  50  0.479  0.562  0.091- 120 2.29   2 2.35  32 2.35  25 2.35   3 2.35
  51  0.229  0.312  0.182-   3 2.35  33 2.35  26 2.35   4 2.35
  52  0.979  0.062  0.273-   4 2.35  27 2.35  34 2.35   5 2.35
  53  0.729  0.812  0.364-   5 2.35  28 2.35  35 2.35   6 2.35 103 2.81  73 3.40
  54  0.479  0.562  0.456-  79 0.85   6 2.35  36 2.35  29 2.35 116 2.61  97 2.84
  55  0.229  0.979  0.000-   1 2.35  19 2.35  20 2.35 113 2.57  90 2.81 108 3.09  95 3.21 114 3.34
                            77 3.45
  56  0.979  0.729  0.091-  90 2.00  13 2.35   2 2.35  20 2.35  21 2.35 102 3.12 120 3.37
  57  0.729  0.479  0.182-  14 2.35   3 2.35  22 2.35  21 2.35
  58  0.479  0.229  0.273-  15 2.35  22 2.35   4 2.35  23 2.35
  59  0.229  0.979  0.364- 109 2.24  16 2.35  23 2.35   5 2.35  24 2.35  91 2.95  73 3.21
  60  0.979  0.729  0.456- 109 2.19   6 2.35  24 2.35  17 2.35  86 2.36  98 3.36
  61  0.229  0.312  0.000-  78 1.83 114 2.33   7 2.35  26 2.35  25 2.35  96 3.02 101 3.07
  62  0.979  0.062  0.091- 114 2.29   1 2.35   8 2.35  26 2.35  27 2.35
  63  0.729  0.812  0.182-   9 2.35   2 2.35  28 2.35  27 2.35
  64  0.479  0.562  0.273-   3 2.35  28 2.35  10 2.35  29 2.35
  65  0.229  0.312  0.364-   4 2.35  29 2.35  11 2.35  30 2.35  97 2.81  79 3.40
  66  0.979  0.062  0.456-  73 0.85  12 2.35   5 2.35  30 2.35 110 2.61 103 2.84
  67  0.229  0.645  0.000- 102 0.95  84 2.15  31 2.35  13 2.35  32 2.35  89 3.01
  68  0.979  0.395  0.091-  14 2.35  32 2.35   7 2.35  33 2.35  78 2.92
  69  0.729  0.145  0.182-  15 2.35  33 2.35   8 2.35  34 2.35
  70  0.479  0.895  0.273-   9 2.35  34 2.35  16 2.35  35 2.35
  71  0.229  0.645  0.364-  10 2.35  35 2.35  17 2.35  36 2.35  85 2.73
  72  0.979  0.395  0.456-  97 1.40  85 1.89  18 2.35  36 2.35  11 2.35  74 3.18 115 3.30
  73  0.000  0.018  0.456-  66 0.85   5 2.00  30 2.81 110 2.83 103 2.88 109 2.88  12 3.02  59 3.21
                            53 3.40
  74  0.000  0.268  0.564- 111 2.83  97 2.83 104 2.88 110 2.88  72 3.18  30 3.45
  75  0.000  0.518  0.673-  98 2.83 112 2.83 105 2.88 111 2.88
  76  0.000  0.768  0.782-  99 2.83 113 2.83 112 2.88 106 2.88
  77  0.000  0.018  0.891-   1 2.36 100 2.83 114 2.83 113 2.88 107 2.88  55 3.45
  78  1.000  0.268  0.000-   7 0.85  61 1.83  37 2.15 101 2.83 108 2.88 114 2.88  68 2.92  26 3.21
                             8 3.40
  79  0.500  0.518  0.456-  54 0.85  29 2.00   6 2.81 116 2.83 115 2.88  97 2.88  36 3.02  47 3.21
                            65 3.40
  80  0.500  0.768  0.564- 117 2.83 103 2.83  98 2.88 116 2.88  42 3.18   6 3.45
  81  0.500  0.018  0.673- 104 2.83 118 2.83  99 2.88 117 2.88
  82  0.500  0.268  0.782- 119 2.83 105 2.83 118 2.88 100 2.88
  83  0.500  0.518  0.891-  25 2.36 106 2.83 120 2.83 101 2.88 119 2.88  43 3.45
  84  0.500  0.768  0.000-  31 0.85  49 1.83  67 2.15 107 2.83 102 2.88 120 2.88  38 2.92   2 3.21
                            32 3.40
  85  1.000  0.518  0.456-  36 1.83  72 1.89  18 2.15  71 2.73  98 2.83  97 2.88 115 2.88  17 2.92
                            47 2.95
  86  0.000  0.768  0.564-  60 2.36  99 2.83 109 2.83 116 2.88  98 2.88  24 3.01   6 3.21
  87  1.000  0.018  0.673- 110 2.83 100 2.83 117 2.88  99 2.88
  88  1.000  0.268  0.782- 111 2.83 101 2.83 100 2.88 118 2.88
  89  0.000  0.518  0.891- 112 2.83 102 2.83 101 2.88 119 2.88  67 3.01  13 3.18  43 3.21
  90  0.000  0.768  0.000-  13 1.89  56 2.00  20 2.73  55 2.81 113 2.83 120 2.88 102 2.88   2 2.95
                            49 3.02
  91  0.500  0.018  0.456-  12 1.83  42 1.89  24 2.15  41 2.73 104 2.83 109 2.88 103 2.88  23 2.92
                            59 2.95
[...]
     0.000000000  0.000000000 21.072139740     0.000000000  0.000000000  0.047456025

  length of vectors
     9.406767845 16.293001272 21.072139740     0.130198268  0.075169998  0.047456025

 FORCES acting on ions
    electron-ion (+dipol)            ewald-force                    non-local-force                 convergence-correction
   0.917E+01 0.156E+02 0.128E+03   -.725E+01 -.181E+02 -.128E+03   -.899E+00 -.449E+01 0.304E+01   0.603E-03 0.751E-03 -.308E-03
   0.403E+00 -.118E+02 0.253E+02   0.703E+00 0.133E+02 -.248E+02   -.680E+00 0.175E+01 0.549E+01   0.609E-03 0.537E-04 0.304E-03
   0.296E+00 0.557E+00 0.162E+02   -.584E-01 -.876E+00 -.155E+02   0.625E-02 0.178E+00 -.526E+00   0.117E-03 -.221E-03 0.300E-03
   -.986E-01 0.777E+00 -.155E+02   -.106E+00 -.378E+00 0.157E+02   0.174E+00 -.466E+00 -.422E+00   0.734E-04 -.288E-04 -.139E-03
   -.234E+01 0.603E+01 -.126E+02   0.271E+01 -.582E+01 0.127E+02   0.645E+00 -.396E+01 -.139E+02   0.296E-03 -.466E-03 -.224E-02
   0.108E+02 -.238E+02 -.135E+03   -.108E+02 0.200E+02 0.134E+03   -.100E+01 0.353E+01 -.108E+01   0.186E-03 0.104E-02 -.238E-03
   0.182E+02 -.380E+02 0.146E+03   -.233E+03 0.238E+03 -.144E+03   -.655E+01 0.734E+01 -.191E+01   0.202E-03 0.417E-03 0.106E-03
   -.695E+01 0.179E+02 0.481E+02   0.582E+01 -.171E+02 -.495E+02   0.156E+01 -.123E+01 0.174E+01   0.284E-03 0.481E-04 0.596E-03
   0.363E+00 -.232E+01 0.108E+02   -.404E+00 0.264E+01 -.110E+02   0.751E-01 -.313E+00 0.358E+00   0.450E-04 0.379E-03 0.905E-03
   0.194E-01 -.265E+01 -.124E+02   0.222E+00 0.268E+01 0.116E+02   -.192E+00 0.774E-01 0.622E+00   0.240E-05 0.101E-04 -.747E-04
   0.612E+01 0.219E+02 -.405E+02   -.575E+01 -.229E+02 0.376E+02   -.169E+01 -.138E+01 -.155E+01   0.231E-03 -.494E-03 -.114E-02
   -.201E+02 -.548E+02 -.151E+03   0.282E+02 0.582E+02 0.151E+03   0.149E+02 0.853E+01 -.591E+00   -.635E-03 0.102E-02 -.302E-03
   0.417E+02 0.259E+02 0.155E+03   -.876E+02 -.274E+02 -.155E+03   -.324E+02 -.129E+02 0.808E+00   -.287E-02 -.610E-03 -.252E-03
   -.469E+01 -.121E+02 0.524E+02   0.499E+01 0.127E+02 -.518E+02   0.273E+00 0.277E+00 0.244E+00   -.515E-03 -.622E-03 -.651E-04
   0.330E+00 0.168E+01 0.994E+01   -.386E+00 -.174E+01 -.963E+01   0.197E+00 -.462E-01 -.898E-01   -.177E-03 0.560E-04 0.153E-03
   -.577E+00 0.182E+01 -.925E+01   0.231E+00 -.161E+01 0.941E+01   0.398E+00 -.310E+00 -.225E+00   -.151E-03 0.124E-03 -.277E-03
   0.282E+01 -.100E+02 -.546E+02   -.306E+01 0.101E+02 0.542E+02   0.335E-01 0.133E+00 -.163E+00   -.176E-04 0.979E-04 -.955E-03
   0.647E+01 0.155E+02 -.152E+03   0.215E+03 -.476E+01 0.154E+03   0.942E+01 -.885E+01 -.174E+01   0.212E-03 -.363E-03 -.392E-03
   0.417E+02 0.259E+02 0.155E+03   -.876E+02 -.274E+02 -.155E+03   -.324E+02 -.129E+02 0.808E+00   -.122E-02 -.411E-04 -.220E-03
   -.469E+01 -.121E+02 0.524E+02   0.499E+01 0.127E+02 -.518E+02   0.273E+00 0.277E+00 0.244E+00   -.626E-03 0.802E-03 0.176E-03
   0.330E+00 0.168E+01 0.994E+01   -.386E+00 -.174E+01 -.963E+01   0.197E+00 -.462E-01 -.898E-01   -.331E-03 -.756E-04 0.796E-03
   -.577E+00 0.182E+01 -.925E+01   0.231E+00 -.161E+01 0.941E+01   0.398E+00 -.310E+00 -.225E+00   -.148E-03 -.168E-03 -.315E-03
   0.282E+01 -.100E+02 -.546E+02   -.306E+01 0.101E+02 0.542E+02   0.335E-01 0.133E+00 -.163E+00   -.325E-04 0.119E-03 -.102E-02
   0.647E+01 0.155E+02 -.152E+03   0.215E+03 -.476E+01 0.154E+03   0.942E+01 -.885E+01 -.174E+01   0.197E-03 -.237E-03 -.408E-03
   0.917E+01 0.156E+02 0.128E+03   -.725E+01 -.181E+02 -.128E+03   -.899E+00 -.449E+01 0.304E+01   0.534E-03 -.546E-03 -.197E-03
   0.404E+00 -.118E+02 0.253E+02   0.703E+00 0.133E+02 -.248E+02   -.680E+00 0.175E+01 0.549E+01   0.437E-03 -.224E-03 -.310E-03
   0.296E+00 0.556E+00 0.162E+02   -.584E-01 -.876E+00 -.155E+02   0.625E-02 0.178E+00 -.526E+00   0.135E-03 0.289E-03 0.214E-03
   -.986E-01 0.777E+00 -.155E+02   -.106E+00 -.378E+00 0.157E+02   0.174E+00 -.466E+00 -.422E+00   0.864E-04 0.805E-04 0.302E-04
   -.234E+01 0.603E+01 -.126E+02   0.271E+01 -.582E+01 0.127E+02   0.645E+00 -.396E+01 -.139E+02   0.326E-03 -.639E-03 -.221E-02
   0.108E+02 -.238E+02 -.135E+03   -.108E+02 0.200E+02 0.134E+03   -.100E+01 0.353E+01 -.108E+01   0.175E-03 0.952E-03 -.254E-03
   0.182E+02 -.380E+02 0.146E+03   -.233E+03 0.238E+03 -.144E+03   -.655E+01 0.734E+01 -.191E+01   0.407E-03 0.266E-02 -.599E-04
   -.695E+01 0.179E+02 0.481E+02   0.582E+01 -.171E+02 -.495E+02   0.156E+01 -.123E+01 0.174E+01   0.758E-03 -.137E-02 0.162E-02
   0.363E+00 -.232E+01 0.108E+02   -.404E+00 0.264E+01 -.110E+02   0.751E-01 -.313E+00 0.358E+00   0.667E-05 -.177E-03 0.345E-03
   0.194E-01 -.265E+01 -.124E+02   0.222E+00 0.268E+01 0.116E+02   -.192E+00 0.774E-01 0.622E+00   -.959E-05 0.188E-03 -.255E-03
   0.612E+01 0.219E+02 -.405E+02   -.575E+01 -.229E+02 0.376E+02   -.169E+01 -.138E+01 -.155E+01   0.240E-03 -.326E-03 -.113E-02
   -.201E+02 -.548E+02 -.151E+03   0.282E+02 0.582E+02 0.151E+03   0.149E+02 0.853E+01 -.591E+00   -.738E-03 0.899E-03 -.275E-03
   -.159E+02 0.438E+02 0.156E+03   0.234E+03 -.323E+02 -.154E+03   0.140E+02 -.867E+01 -.162E+01   -.427E-03 -.977E-03 -.253E-04
   0.589E+01 -.130E+02 0.533E+02   -.467E+01 0.124E+02 -.542E+02   -.973E+00 0.366E+00 0.355E+00   -.510E-03 0.152E-02 0.139E-02
   -.227E+00 0.174E+01 0.954E+01   0.397E+00 -.185E+01 -.941E+01   -.145E+00 0.129E+00 0.217E-01   -.340E-04 -.167E-03 0.110E-02
   0.121E+00 0.199E+01 -.104E+02   -.220E+00 -.197E+01 0.963E+01   0.172E-01 0.183E+00 0.670E+00   -.326E-04 -.214E-03 -.205E-03
   -.331E+01 -.153E+02 -.520E+02   0.337E+01 0.149E+02 0.518E+02   0.303E+00 0.118E+01 -.758E+00   -.223E-03 0.334E-03 -.110E-02
   0.127E+02 0.526E+02 -.152E+03   -.681E+02 -.549E+02 0.155E+03   -.247E+02 -.129E+02 -.324E+01   0.827E-03 -.763E-03 -.419E-03
   -.945E+01 0.859E+01 0.134E+03   0.870E+01 -.752E+01 -.134E+03   -.672E-01 -.104E+01 0.170E+01   -.761E-03 -.118E-02 -.277E-03
   -.201E+01 0.268E+01 0.151E+02   0.110E+01 -.354E+01 -.127E+02   0.143E+01 -.224E+01 0.116E+02   -.354E-03 0.389E-04 -.324E-03
   0.179E+00 0.619E+00 0.158E+02   0.603E-01 -.613E+00 -.157E+02   -.232E+00 0.469E-01 0.287E-01   -.817E-04 0.238E-03 0.197E-03
   0.112E+00 0.894E+00 -.153E+02   0.108E+00 -.111E+01 0.155E+02   -.266E+00 0.292E+00 -.298E+00   -.358E-04 0.518E-05 0.242E-04
   0.379E+00 -.162E+02 -.250E+02   -.909E+00 0.155E+02 0.248E+02   0.992E+00 0.335E+01 -.562E+01   -.267E-03 0.629E-03 -.222E-02
   -.129E+02 0.476E+02 -.128E+03   0.122E+02 -.456E+02 0.128E+03   0.144E+01 -.893E+01 -.336E+01   -.366E-03 -.146E-02 -.332E-03
   -.450E+02 -.290E+02 0.151E+03   0.477E+02 0.307E+02 -.151E+03   0.201E+02 0.874E+01 0.422E+00   0.243E-02 0.857E-03 -.294E-03
   0.580E+01 0.201E+02 0.389E+02   -.736E+01 -.206E+02 -.376E+02   -.341E+00 -.200E+01 0.298E+01   0.623E-03 -.531E-03 0.239E-03
   -.517E+00 -.278E+01 0.118E+02   0.388E+00 0.245E+01 -.116E+02   -.116E+00 0.237E+00 -.193E-01   0.198E-03 -.160E-03 0.189E-03
   0.222E+00 -.235E+01 -.108E+02   -.237E+00 0.240E+01 0.110E+02   -.120E+00 0.133E+00 -.275E+00   0.124E-03 0.814E-04 -.322E-03
   -.285E+01 0.149E+02 -.494E+02   0.421E+01 -.148E+02 0.495E+02   -.820E+00 -.637E+00 -.773E+00   0.381E-04 -.993E-04 -.883E-03
   0.220E+01 -.659E+01 -.142E+03   -.214E+03 0.210E+03 0.144E+03   -.858E+01 0.548E+01 -.912E+00   -.121E-04 0.661E-03 -.420E-03
   -.945E+01 0.859E+01 0.134E+03   0.870E+01 -.752E+01 -.134E+03   -.672E-01 -.104E+01 0.170E+01   -.456E-03 0.570E-03 -.338E-03
   -.201E+01 0.268E+01 0.151E+02   0.110E+01 -.354E+01 -.127E+02   0.143E+01 -.224E+01 0.116E+02   -.891E-03 0.500E-03 0.724E-03
   0.179E+00 0.619E+00 0.158E+02   0.603E-01 -.613E+00 -.157E+02   -.232E+00 0.469E-01 0.287E-01   -.149E-03 -.333E-03 0.337E-03
   0.112E+00 0.895E+00 -.153E+02   0.108E+00 -.111E+01 0.155E+02   -.266E+00 0.292E+00 -.298E+00   -.606E-05 -.107E-03 -.188E-03
   0.379E+00 -.162E+02 -.250E+02   -.909E+00 0.155E+02 0.248E+02   0.992E+00 0.335E+01 -.562E+01   -.295E-03 0.797E-03 -.227E-02
   -.129E+02 0.476E+02 -.128E+03   0.122E+02 -.456E+02 0.128E+03   0.144E+01 -.893E+01 -.336E+01   -.339E-03 -.143E-02 -.316E-03
[...]
   0.395E+01 -.144E+02 0.176E+03   -.446E+01 0.141E+02 -.176E+03   -.124E+00 0.122E+01 -.194E+01   0.471E-03 0.114E-02 -.988E-03
   -.160E+01 0.165E+02 0.143E+03   -.143E+03 -.223E+02 -.142E+03   -.312E+01 -.355E+01 -.124E+01   -.147E-02 -.473E-03 -.194E-03
   0.552E+02 -.866E+01 -.159E+03   -.242E+03 0.339E+01 0.159E+03   -.489E+02 0.222E+01 0.501E+01   -.135E-02 -.333E-03 -.376E-03
   -.269E+01 0.277E+00 -.187E+03   0.218E+01 0.283E+00 0.186E+03   0.103E+00 -.261E+00 0.293E+01   0.301E-03 0.726E-03 0.947E-03
   -.386E+00 -.642E+00 -.586E+02   0.488E+00 0.568E+00 0.586E+02   -.166E+00 0.405E+00 0.134E+00   0.136E-03 -.222E-03 0.146E-03
   -.734E-02 -.137E+01 0.598E+02   0.740E-01 0.109E+01 -.597E+02   0.546E-02 0.693E+00 -.213E+00   -.968E-04 -.134E-03 0.478E-04
   -.448E+01 0.990E+01 0.173E+03   0.478E+01 -.964E+01 -.173E+03   0.723E-02 -.183E+00 -.868E+00   -.246E-03 0.737E-03 0.323E-03
   -.184E+01 0.553E+01 0.177E+03   0.239E+01 -.463E+01 -.178E+03   0.508E+00 0.106E+01 -.801E+01   0.588E-03 -.117E-03 0.125E-04
   0.552E+02 -.866E+01 -.159E+03   -.242E+03 0.339E+01 0.159E+03   -.489E+02 0.222E+01 0.501E+01   -.131E-02 -.469E-03 -.362E-03
   -.269E+01 0.277E+00 -.187E+03   0.218E+01 0.283E+00 0.186E+03   0.103E+00 -.261E+00 0.293E+01   0.328E-03 0.690E-03 0.100E-02
   -.386E+00 -.643E+00 -.586E+02   0.488E+00 0.568E+00 0.586E+02   -.166E+00 0.405E+00 0.134E+00   0.156E-03 -.867E-04 0.168E-03
   -.737E-02 -.137E+01 0.598E+02   0.740E-01 0.109E+01 -.597E+02   0.546E-02 0.693E+00 -.213E+00   -.943E-04 -.840E-04 0.578E-03
   -.448E+01 0.990E+01 0.173E+03   0.478E+01 -.964E+01 -.173E+03   0.723E-02 -.183E+00 -.868E+00   -.169E-03 -.284E-03 0.481E-03
   -.184E+01 0.553E+01 0.177E+03   0.239E+01 -.463E+01 -.178E+03   0.508E+00 0.106E+01 -.801E+01   0.854E-03 -.494E-03 -.754E-04
   -.136E+02 0.116E+03 0.111E+02   0.199E-12 -.373E-12 0.938E-12   0.141E+02 -.116E+03 -.114E+02   0.105E-02 -.117E-02 -.113E-01

 POSITION                                       TOTAL-FORCE (eV/Angst)
     -0.00000     13.01739      0.00000         1.021983     -6.965444      3.029376
     -0.00000      9.69159      1.92015         0.423140      3.197207      6.075652
      0.00000      6.36580      3.84030         0.239427     -0.140257      0.120306
      0.00000      3.04000      5.76045        -0.034943     -0.066816     -0.223355
      0.00000     13.01739      7.68059         1.017331     -3.743762    -13.822185
      0.00000      9.69159      9.60074        -0.983004     -0.235972     -1.986778
      6.27118      4.14861      0.00000      -221.406597    207.246471      0.220645
      6.27118      0.82281      1.92015         0.427679     -0.338453      0.297942
     -3.13559     10.80019      3.84030         0.030261      0.007104      0.158496
     -3.13559      7.47440      5.76045         0.045163      0.110704     -0.091928
      6.27118      4.14860      7.68059        -1.317501     -2.351064     -4.458022
      6.27118      0.82280      9.60074        22.995453     11.884537     -0.222642
      3.13559      8.58300      0.00000       -78.254023    -14.454987      0.444372
      3.13559      5.25720      1.92015         0.562821      0.812929      0.891129
      3.13559      1.93141      3.84030         0.136738     -0.104441      0.223145
     -6.27118     11.90879      5.76045         0.046754     -0.103657     -0.067693
      3.13559      8.58299      7.68059        -0.206280      0.266399     -0.551044
      3.13559      5.25720      9.60074       230.565384      1.852542     -0.529914
      3.13559      1.93141      0.00000       -78.254023    -14.454987      0.444372
     -6.27118     11.90879      1.92015         0.562821      0.812929      0.891129
      3.13559      8.58300      3.84030         0.136738     -0.104441      0.223145
      3.13559      5.25720      5.76045         0.046754     -0.103657     -0.067693
      3.13559      1.93140      7.68059        -0.206280      0.266399     -0.551044
     -6.27118     11.90879      9.60074       230.565384      1.852542     -0.529914
     -0.00000      6.36580      0.00000         1.021983     -6.965444      3.029376
     -0.00000      3.04001      1.92015         0.423140      3.197207      6.075652
     -0.00000     13.01739      3.84030         0.239427     -0.140257      0.120306
     -0.00000      9.69159      5.76045        -0.034943     -0.066816     -0.223355
      0.00000      6.36580      7.68059         1.017331     -3.743762    -13.822185
      0.00000      3.04000      9.60074        -0.983004     -0.235972     -1.986778
     -3.13559     10.80020      0.00000      -221.406597    207.246471      0.220645
     -3.13559      7.47440      1.92015         0.427679     -0.338453      0.297942
      6.27118      4.14860      3.84030         0.030261      0.007104      0.158496
      6.27118      0.82281      5.76045         0.045163      0.110704     -0.091928
     -3.13559     10.80019      7.68059        -1.317501     -2.351064     -4.458022
     -3.13559      7.47439      9.60074        22.995453     11.884537     -0.222642
      5.48728      1.93141      0.00000       232.134929      2.838030      0.552868
     -3.91949     11.90879      1.92015         0.240438     -0.230827     -0.547631
     -3.91949      8.58300      3.84030         0.021302      0.023382      0.155375
      5.48728      5.25720      5.76045        -0.086497      0.199744     -0.093950
      5.48728      1.93140      7.68059         0.359312      0.771318     -1.016298
     -3.91949     11.90879      9.60074       -80.077965    -15.183892     -0.122973
      2.35169      6.36580      0.00000        -0.831219      0.033691      1.372840
      2.35169      3.04001      1.92015         0.518052     -3.098362     14.044686
     -7.05508     13.01739      3.84030         0.003044      0.053715      0.114615
      2.35169      9.69159      5.76045        -0.050654      0.076026     -0.125769
      2.35169      6.36580      7.68059         0.456747      2.729746     -5.875687
      2.35169      3.04000      9.60074         0.725142     -6.966599     -3.343944
     -0.78390     10.80020      0.00000        22.759290     10.448510      0.301227
     -0.78390      7.47440      1.92015        -1.902190     -2.519283      4.318662
     -0.78390      4.14860      3.84030        -0.248378     -0.098671      0.162107
      8.62287      0.82281      5.76045        -0.140099      0.189499     -0.142408
     -0.78390     10.80019      7.68059         0.541505     -0.494839     -0.646189
     -0.78390      7.47440      9.60074      -220.032617    209.291615      0.810914
     -7.05508     13.01739      0.00000        -0.831219      0.033691      1.372840
      2.35169      9.69159      1.92015         0.518052     -3.098362     14.044686
      2.35169      6.36580      3.84030         0.003044      0.053715      0.114615
      2.35169      3.04000      5.76045        -0.050654      0.076026     -0.125769
     -7.05508     13.01739      7.68059         0.456747      2.729746     -5.875687
      2.35169      9.69159      9.60074         0.725142     -6.966599     -3.343944
[...]
     -0.16913      8.55367     16.48358        -0.045254      0.441542     -0.069889
     -2.52082     11.87947     18.77786        -0.635084      1.001370     -1.001994
      4.53425      1.90208     21.07214      -147.837552     -9.331905     -0.547098
     -7.22421     11.87947      9.60074      -235.832765     -3.044718      4.536210
     -0.16913      1.90208     11.89502        -0.418582      0.300630      2.600741
     -2.52082      5.22788     14.18930        -0.068152      0.331413      0.099821
     -4.87251      8.55367     16.48358         0.067448      0.414534     -0.042604
     -7.22421     11.87947     18.77786         0.302090      0.075414     -1.385631
     -0.16913      1.90208     21.07214         1.055212      1.964783     -8.735725
      2.18256      5.22788      9.60074      -235.832765     -3.044718      4.536210
     -0.16913      8.55367     11.89502        -0.418582      0.300630      2.600741
     -2.52082     11.87947     14.18930        -0.068152      0.331413      0.099821
      4.53425      1.90208     16.48358         0.067448      0.414534     -0.042604
      2.18256      5.22788     18.77786         0.302090      0.075414     -1.385631
     -0.16913      8.55367      0.00000         1.055212      1.964783     -8.735725
    total drift:                                0.543852     -0.094171     -0.294407

  FREE ENERGIE OF THE ION-ELECTRON SYSTEM (eV)
  free  energy   TOTEN  =       553.60259185 eV

  energy  without entropy=      553.60611448  energy(sigma->0) =      553.60435317