 vasp.6.4.3 19Mar24 (build Oct 22 2024 11:23:12) complex

 executed on             LinuxIFC date 2025.06.04  03:28:49

 INCAR:
   SYSTEM = Si and Ge interface calculation
   ISTART = 0
   ICHARG = 2
   LWAVE = .FALSE.
   LREAL = AUTO
   ENCUT = 700
   ENAUG = 900
   ADDGRID = .TRUE.
   LMAXMIX = 6
   LASPH = .TRUE.
   LMIXTAU = .TRUE.
   NCORE = 16
   NELM = 100
   NBANDS = 173
   EDIFF = 1d-7
   AMIX = 0.6
   ISMEAR = 0
   SIGMA = 0.01
   NELECT = 288
   ISPIN = 2
   NUPDOWN = 1
   LVTOT = .FALSE.
   LVHAR = .TRUE.

 POTCAR:    PAW_PBE Si 05Jan2001
 POTCAR:    PAW_PBE Ge 05Jan2001
|           W    W    AA    RRRRR   N    N  II  N    N   GGGG   !!!           |
|           W    W   A  A   R    R  NN   N  II  NN   N  G    G  !!!           |
|           W    W  A    A  R    R  N N  N  II  N N  N  G       !!!           |
|           W WW W  AAAAAA  RRRRR   N  N N  II  N  N N  G  GGG   !            |
|           WW  WW  A    A  R   R   N   NN  II  N   NN  G    G                |
|           W    W  A    A  R    R  N    N  II  N    N   GGGG   !!!           |
|     You use a magnetic or noncollinear calculation, but did not specify     |
|     the initial magnetic moment with the MAGMOM tag. Note that a            |
|     default of 0.014 will be used for all atoms. This ferromagnetic         |
|     setup may break the symmetry of the crystal, in particular it may       |
|     rule out finding an antiferromagnetic solution. Thence, we              |
|     recommend setting the initial magnetic moment manually or verifying     |
|     carefully that this magnetic setup is desired.                          |

 POTCAR:    PAW_PBE Si 05Jan2001
   VRHFIN =Si: s2p2

   TITEL  = PAW_PBE Si 05Jan2001
   POMASS =   28.085; ZVAL   =    4.000    mass and valenz
   ENMAX  =  245.345; ENMIN  =  184.009 eV

 POTCAR:    PAW_PBE Ge 05Jan2001
   VRHFIN =Ge: s2p2

   TITEL  = PAW_PBE Ge 05Jan2001
   POMASS =   72.610; ZVAL   =    4.000    mass and valenz
   ENMAX  =  173.807; ENMIN  =  130.355 eV

 Optimization of the real space projectors (new method)

 maximal supplied QI-value         = 19.84
 optimisation between [QCUT,QGAM] = [ 13.49, 26.99] = [ 50.98,203.92] Ry
 Optimized for a Real-space Cutoff    1.07 Angstroem

   l    n(q)    QCUT    max X(q) W(low)/X(q) W(high)/X(q)  e(spline)
   0      9    13.493   159.560    0.22E-03    0.15E-03    0.72E-07
   0      9    13.493   115.863    0.21E-03    0.15E-03    0.71E-07
   1      8    13.493    88.339    0.15E-03    0.11E-03    0.13E-06
   1      8    13.493    48.592    0.15E-03    0.10E-03    0.13E-06
 Optimization of the real space projectors (new method)

 maximal supplied QI-value         = 16.25
 optimisation between [QCUT,QGAM] = [ 13.49, 26.98] = [ 50.95,203.80] Ry
 Optimized for a Real-space Cutoff    1.25 Angstroem

   l    n(q)    QCUT    max X(q) W(low)/X(q) W(high)/X(q)  e(spline)
   0     10    13.489    65.336    0.91E-04    0.11E-03    0.34E-06
   0     10    13.489    52.220    0.89E-04    0.11E-03    0.34E-06
   1     10    13.489    36.409    0.22E-03    0.27E-03    0.14E-06
   1     10    13.489    21.334    0.21E-03    0.27E-03    0.14E-06
   2      9    13.489     4.673    0.11E-03    0.12E-03    0.19E-06
  PAW_PBE Si 05Jan2001                  :
  PAW_PBE Ge 05Jan2001                  :

 POSCAR: Si+Ge
  positions in direct lattice

 exchange-correlation table for PE
   RHO(1)=    0.500       N(1)  =     2000
   RHO(2)=  100.500       N(2)  =     4000

 ion  position               nearest neighbor table
   1  0.944  0.912  0.000-  33 2.00  63 2.06   9 2.35  15 2.35  45 2.66  38 2.93
   2  0.694  0.523  0.062-  69 0.86  16 2.35  13 2.35  10 2.35  57 2.61  58 3.03
   3  0.444  0.134  0.125-  14 2.35  17 2.35  11 2.35  31 2.67  72 2.71  52 2.99  45 3.02
   4  0.194  0.745  0.187-  66 1.96  55 2.01   7 2.35  15 2.35  18 2.35  12 2.35  34 2.62  67 2.72

   5  0.944  0.357  0.249-  49 1.95   8 2.35  16 2.35  28 2.38
   6  0.694  0.968  0.312-  64 1.53  52 1.62  25 2.33   9 2.35  17 2.35
   7  0.194  0.662  0.000-  66 1.41   4 2.35  20 2.35  54 2.50  48 2.74  27 3.02
   8  0.944  0.273  0.062-  42 1.74  60 2.13   5 2.35  21 2.35  72 2.42  49 2.63
   9  0.694  0.884  0.125-  63 2.25   6 2.35  19 2.35   1 2.35  22 2.35  39 2.62
  10  0.444  0.495  0.187-  58 1.33  20 2.35  23 2.35   2 2.35  48 2.47  69 2.99
  11  0.194  0.107  0.249-  21 2.35  24 2.35   3 2.35  25 2.47  37 2.76  49 2.82  52 2.98
  12  0.944  0.718  0.312-  55 0.59  46 2.15  22 2.35   4 2.35  67 2.73
  13  0.694  0.662  0.000-  39 1.41  22 2.35   2 2.35  27 2.50  69 2.74  54 3.02
  14  0.444  0.273  0.062-  72 1.74  30 2.13  23 2.35   3 2.35  42 2.42  31 2.63
  15  0.194  0.884  0.125-  45 2.25  24 2.35   1 2.35   4 2.35  19 2.35  66 2.62
  16  0.944  0.495  0.187-  28 1.33   5 2.35  20 2.35   2 2.35  69 2.47  48 2.99
  17  0.694  0.107  0.249-   3 2.35  21 2.35   6 2.35  52 2.47  64 2.76  31 2.82  25 2.98
  18  0.444  0.718  0.312-  34 0.59  67 2.15   4 2.35  22 2.35  46 2.73
  19  0.444  0.912  0.000-  51 2.00  45 2.06   9 2.35  15 2.35  63 2.66  65 2.93
  20  0.194  0.523  0.062-  48 0.86  10 2.35  16 2.35   7 2.35  36 2.61  28 3.03
  21  0.944  0.134  0.125-   8 2.35  11 2.35  17 2.35  49 2.67  42 2.71  25 2.99  63 3.02
  22  0.694  0.745  0.187-  39 1.96  34 2.01  13 2.35  12 2.35   9 2.35  18 2.35  55 2.62  46 2.72

  23  0.444  0.357  0.249-  31 1.95  14 2.35  10 2.35  58 2.38
  24  0.194  0.968  0.312-  37 1.53  25 1.62  52 2.33  15 2.35  11 2.35
  25  0.991  0.996  0.312-  24 1.62   6 2.33  37 2.38  64 2.38  11 2.47  17 2.98  21 2.99
  26  0.741  0.871  0.587-  38 2.38  65 2.38  64 2.48  46 2.48
  27  0.491  0.746  0.862-  39 2.38  66 2.38  65 2.48  47 2.48  13 2.50   7 3.02
  28  0.991  0.496  0.312-  16 1.33   5 2.38  40 2.38  70 2.38  20 3.03
  29  0.741  0.371  0.587-  41 2.38  71 2.38  70 2.48  43 2.48
  30  0.491  0.246  0.862-  14 2.13  42 2.38  72 2.38  44 2.48  71 2.48
  31  0.491  0.246  0.312-  23 1.95  61 2.38  43 2.38  14 2.63   3 2.67  17 2.82
  32  0.241  0.121  0.587-  62 2.38  44 2.38  37 2.48  61 2.48
  33  0.991  0.996  0.862-   1 2.00  45 2.38  63 2.38  62 2.48  38 2.48
  34  0.491  0.746  0.312-  18 0.59  22 2.01  67 2.38  46 2.38   4 2.62
  35  0.241  0.621  0.587-  47 2.38  68 2.38  67 2.48  40 2.48
  36  0.991  0.496  0.862-  69 2.38  48 2.38  41 2.48  68 2.48  20 2.61
  37  0.241  0.996  0.449-  24 1.53  52 2.38  25 2.38  32 2.48  53 2.48  11 2.76
  38  0.991  0.871  0.725-  53 2.38  26 2.38  33 2.48  54 2.48   1 2.93
  39  0.741  0.746  0.000-  13 1.41  22 1.96  27 2.38  54 2.38   9 2.62
  40  0.241  0.496  0.449-  28 2.38  58 2.38  59 2.48  35 2.48
  41  0.991  0.371  0.725-  29 2.38  59 2.38  60 2.48  36 2.48
  42  0.741  0.246  0.000-   8 1.74  30 2.38  60 2.38  14 2.42  21 2.71
  43  0.741  0.246  0.449-  49 2.38  31 2.38  29 2.48  50 2.48
  44  0.491  0.121  0.725-  50 2.38  32 2.38  30 2.48  51 2.48
  45  0.241  0.996  0.000-  19 2.06  15 2.25  33 2.38  51 2.38   1 2.66   3 3.02
  46  0.741  0.746  0.449-  12 2.15  55 2.38  34 2.38  56 2.48  26 2.48  22 2.72  18 2.73
  47  0.491  0.621  0.725-  35 2.38  56 2.38  57 2.48  27 2.48
  48  0.241  0.496  0.000-  20 0.86  36 2.38  57 2.38  10 2.47   7 2.74  16 2.99
  49  0.991  0.246  0.312-   5 1.95  61 2.38  43 2.38   8 2.63  21 2.67  11 2.82
  50  0.741  0.121  0.587-  62 2.38  44 2.38  64 2.48  43 2.48
  51  0.491  0.996  0.862-  19 2.00  63 2.38  45 2.38  44 2.48  65 2.48
  52  0.491  0.996  0.312-   6 1.62  24 2.33  64 2.38  37 2.38  17 2.47  11 2.98   3 2.99
  53  0.241  0.871  0.587-  38 2.38  65 2.38  37 2.48  67 2.48
  54  0.991  0.746  0.862-  66 2.38  39 2.38  38 2.48  68 2.48   7 2.50  13 3.02
  55  0.991  0.746  0.312-  12 0.59   4 2.01  46 2.38  67 2.38  22 2.62
  56  0.741  0.621  0.587-  68 2.38  47 2.38  46 2.48  70 2.48
  57  0.491  0.496  0.862-  69 2.38  48 2.38  47 2.48  71 2.48   2 2.61
  58  0.491  0.496  0.312-  10 1.33  23 2.38  70 2.38  40 2.38   2 3.03
  59  0.241  0.371  0.587-  71 2.38  41 2.38  40 2.48  61 2.48
  60  0.991  0.246  0.862-   8 2.13  72 2.38  42 2.38  41 2.48  62 2.48
  61  0.241  0.246  0.449-  31 2.38  49 2.38  32 2.48  59 2.48
  62  0.991  0.121  0.725-  32 2.38  50 2.38  33 2.48  60 2.48
  63  0.741  0.996  0.000-   1 2.06   9 2.25  33 2.38  51 2.38  19 2.66  21 3.02
  64  0.741  0.996  0.449-   6 1.53  52 2.38  25 2.38  50 2.48  26 2.48  17 2.76
  65  0.491  0.871  0.725-  53 2.38  26 2.38  51 2.48  27 2.48  19 2.93
  66  0.241  0.746  0.000-   7 1.41   4 1.96  54 2.38  27 2.38  15 2.62
  67  0.241  0.746  0.449-  18 2.15  34 2.38  55 2.38  35 2.48  53 2.48   4 2.72  12 2.73
  68  0.991  0.621  0.725-  35 2.38  56 2.38  36 2.48  54 2.48
  69  0.741  0.496  0.000-   2 0.86  36 2.38  57 2.38  16 2.47  13 2.74  10 2.99
  70  0.741  0.496  0.449-  58 2.38  28 2.38  29 2.48  56 2.48
  71  0.491  0.371  0.725-  59 2.38  29 2.38  30 2.48  57 2.48
  72  0.241  0.246  0.000-  14 1.74  60 2.38  30 2.38   8 2.42   3 2.71

  LATTYP: Found a simple orthorhombic cell.
 ALAT       =     7.6805944440
 B/A-ratio  =     1.3374618358
 C/A-ratio  =     2.1213200862

  Lattice vectors:

 A1 = (  -7.6805944440,   0.0000000000,   0.0000000000)
 A2 = (   0.0000000000,   0.0000000000,  10.2725019450)
 A3 = (   0.0000000000,  16.2929992680,   0.0000000000)

Analysis of symmetry for initial positions (statically):
 Subroutine PRICEL returns following result:

[...]

   2 primitive cells build up your supercell.

 Routine SETGRP: Setting up the symmetry group for a
 simple orthorhombic supercell.

 Subroutine GETGRP returns: Found  1 space group operations
 (whereof  1 operations were pure point group operations)
 out of a pool of  8 trial point group operations.

The static configuration has the point symmetry C_1 .

Analysis of symmetry for dynamics (positions and initial velocities):
 Subroutine PRICEL returns following result:

[...]

The dynamic configuration has the point symmetry C_1 .

Analysis of structural, dynamic, and magnetic symmetry:
 Subroutine PRICEL returns following result:

  LATTYP: Found a simple orthorhombic cell.
 ALAT       =     3.8402974524
 B/A-ratio  =     2.6749235111
 C/A-ratio  =     4.2426399178

  Lattice vectors:

 A1 = (  -3.8402974524,   0.0000000000,   0.0000000000)
 A2 = (   0.0000000000,   0.0000000000,  10.2725019450)
 A3 = (   0.0000000000,  16.2929992680,   0.0000000000)

   2 primitive cells build up your supercell.

 Routine SETGRP: Setting up the symmetry group for a
 simple orthorhombic supercell.

 Subroutine GETGRP returns: Found  1 space group operations
 (whereof  1 operations were pure point group operations)
 out of a pool of  8 trial point group operations.

The overall configuration has the point symmetry C_1 .

 Subroutine INISYM returns: Found  1 space group operations
 (whereof  1 operations are pure point group operations),
 and found     2 'primitive' translations

                                     Primitive cell

  volume of cell :     642.7501

  direct lattice vectors                    reciprocal lattice vectors
    -3.840297452  0.000000000  0.000000000    -0.260396496  0.000000000  0.000000000
     0.000000000  0.000000000 10.272501945     0.000000000  0.000000000  0.097347268
[...]
  Fock        0.00000     0.00000     0.00000     0.00000     0.00000     0.00000
  Total     747.63449   903.71514   816.38937   289.22605   200.07808   -71.05686
  in kB     931.81094  1126.34138  1017.50328   360.47562   249.36643   -88.56140

 VOLUME and BASIS-vectors are now :
  energy-cutoff  :      700.00
  volume of cell :     1285.50
      direct lattice vectors                 reciprocal lattice vectors
     7.680594444  0.000000000  0.000000000     0.130198256  0.000000000  0.000000000
     0.000000000 16.292999268  0.000000000     0.000000000  0.061376054  0.000000000
     0.000000000  0.000000000 10.272501945     0.000000000  0.000000000  0.097347268

  length of vectors
     7.680594444 16.292999268 10.272501945     0.130198256  0.061376054  0.097347268

 FORCES acting on ions
    electron-ion (+dipol)            ewald-force                    non-local-force                 convergence-correction
   -.681E+01 0.156E+02 0.303E+02   0.739E+01 -.154E+02 -.294E+02   0.185E+01 -.912E+01 0.442E+01   -.795E-04 -.982E-04 0.394E-03
   0.115E+02 0.101E+02 -.637E+01   -.119E+03 0.118E+03 0.193E+03   -.118E+02 0.156E+02 0.188E+02   0.933E-04 0.954E-04 0.316E-03
   -.866E+00 -.330E+01 0.329E+02   0.190E+01 0.304E+01 -.326E+02   -.108E+01 -.180E+00 -.839E+00   0.109E-04 -.822E-03 0.393E-03
   -.105E+02 0.173E+02 -.607E+01   0.847E+01 -.156E+02 0.109E+02   0.531E+01 -.251E+01 0.111E+01   0.245E-03 0.974E-03 -.123E-02
   0.444E+01 -.989E+01 -.235E+02   -.683E+01 0.557E+01 0.229E+02   0.491E+00 0.114E+02 -.268E+01   -.524E-05 0.119E-03 0.218E-03
   -.249E+02 0.344E+02 0.462E+01   0.257E+02 -.388E+02 -.155E+02   0.176E+02 -.182E+02 -.305E+02   -.558E-04 -.116E-04 0.318E-03
   0.131E+02 0.791E+02 0.415E+02   -.187E+02 -.104E+03 -.417E+02   -.127E+02 -.406E+02 0.880E+00   0.165E-04 0.927E-03 0.238E-03
   -.261E+02 -.438E+02 0.393E+01   0.263E+02 0.441E+02 -.330E+01   0.158E+02 0.673E+01 0.101E+02   0.590E-05 -.701E-04 0.814E-04
   0.207E+01 -.279E+01 -.263E+01   -.266E+01 0.300E+01 0.423E+01   0.469E+00 -.132E+01 -.447E+00   0.235E-03 0.326E-03 0.166E-04
   0.141E+02 0.153E+02 0.239E+02   -.234E+02 -.128E+02 -.591E+02   -.140E+02 -.198E+01 -.491E+02   -.125E-03 0.188E-03 -.533E-04
   -.420E+01 -.520E+02 -.162E+02   0.503E+01 0.528E+02 0.162E+02   -.433E+00 0.191E+00 -.414E+00   -.502E-04 -.133E-02 0.320E-03
   -.122E+01 0.658E+02 -.373E+02   -.399E+03 -.552E+03 0.396E+02   0.576E+01 -.850E+01 -.511E+01   -.447E-03 -.277E-03 0.227E-03
   0.131E+02 0.791E+02 0.415E+02   -.187E+02 -.104E+03 -.417E+02   -.127E+02 -.406E+02 0.880E+00   0.262E-03 0.969E-03 0.192E-03
   -.261E+02 -.438E+02 0.393E+01   0.263E+02 0.441E+02 -.330E+01   0.158E+02 0.673E+01 0.101E+02   0.123E-04 -.875E-04 0.655E-04
   0.207E+01 -.279E+01 -.263E+01   -.266E+01 0.300E+01 0.423E+01   0.469E+00 -.132E+01 -.447E+00   -.117E-03 0.310E-03 -.104E-04
   0.141E+02 0.153E+02 0.239E+02   -.234E+02 -.128E+02 -.591E+02   -.140E+02 -.198E+01 -.491E+02   -.797E-04 0.316E-03 -.191E-03
   -.420E+01 -.520E+02 -.162E+02   0.503E+01 0.528E+02 0.162E+02   -.433E+00 0.191E+00 -.414E+00   -.144E-04 -.134E-02 0.333E-03
   -.122E+01 0.658E+02 -.373E+02   -.399E+03 -.552E+03 0.396E+02   0.576E+01 -.850E+01 -.511E+01   -.435E-03 -.123E-04 0.237E-03
   -.681E+01 0.156E+02 0.303E+02   0.739E+01 -.154E+02 -.294E+02   0.185E+01 -.912E+01 0.442E+01   -.135E-03 0.264E-05 0.270E-03
   0.115E+02 0.101E+02 -.637E+01   -.119E+03 0.118E+03 0.193E+03   -.118E+02 0.156E+02 0.188E+02   -.517E-04 0.120E-03 0.293E-03
   -.866E+00 -.330E+01 0.329E+02   0.190E+01 0.304E+01 -.326E+02   -.108E+01 -.180E+00 -.839E+00   -.313E-04 -.868E-03 0.396E-03
   -.105E+02 0.173E+02 -.607E+01   0.847E+01 -.156E+02 0.109E+02   0.531E+01 -.251E+01 0.111E+01   0.438E-03 0.106E-02 -.113E-02
   0.444E+01 -.989E+01 -.235E+02   -.683E+01 0.557E+01 0.229E+02   0.491E+00 0.114E+02 -.268E+01   -.759E-05 0.944E-04 0.232E-03
   -.249E+02 0.344E+02 0.463E+01   0.257E+02 -.388E+02 -.155E+02   0.176E+02 -.182E+02 -.305E+02   -.219E-03 -.522E-04 0.355E-03
   0.388E+02 -.241E+02 -.284E+02   -.517E+02 0.271E+02 0.267E+02   -.177E+02 0.569E+01 -.126E+00   0.313E-03 -.837E-03 0.227E-03
   -.569E+00 -.349E+01 -.226E+02   0.412E+00 0.382E+01 0.228E+02   0.948E-01 -.516E+00 -.398E+00   0.824E-04 0.206E-03 -.253E-03
   0.409E+01 0.107E+01 0.689E+02   -.557E+01 -.337E+00 -.699E+02   0.117E+01 0.364E+00 -.108E+01   -.507E-04 0.811E-03 0.587E-04
   -.168E+02 0.376E+01 -.884E+02   0.318E+02 -.205E+01 0.138E+03   0.955E+01 -.370E+00 0.341E+02   0.866E-04 0.418E-03 0.267E-03
   0.362E+00 0.608E+01 -.117E+02   -.450E+00 -.588E+01 0.116E+02   0.164E-01 0.594E-01 -.383E+00   0.172E-06 0.219E-04 -.158E-03
   -.506E+01 -.276E+01 0.713E+02   0.564E+01 0.299E+01 -.728E+02   0.923E+00 -.822E+00 -.442E+01   0.361E-04 -.275E-03 -.349E-03
   -.806E+01 0.475E+01 -.473E+02   0.830E+01 -.586E+01 0.479E+02   0.162E+01 -.650E+01 0.241E+01   0.435E-04 -.174E-03 0.351E-03
   -.530E+00 -.237E+02 -.233E+02   0.526E+00 0.241E+02 0.233E+02   0.125E-01 -.551E+00 -.379E+00   -.836E-05 -.690E-03 -.674E-04
   -.536E+01 -.544E+02 0.735E+02   0.631E+01 0.550E+02 -.752E+02   0.612E+00 0.416E+01 -.513E+01   -.211E-04 -.714E-03 0.227E-03
   -.424E+01 -.121E+02 -.491E+02   0.394E+03 0.497E+03 0.498E+02   0.224E+01 0.982E+01 0.160E+01   0.297E-03 0.105E-02 0.137E-03
   0.372E+00 0.248E+02 -.111E+02   -.465E+00 -.248E+02 0.108E+02   -.252E-01 -.998E-01 0.412E-01   -.112E-03 0.556E-03 -.369E-03
   0.401E+01 0.342E+02 0.655E+02   -.446E+01 -.341E+02 -.666E+02   0.132E+00 -.775E-01 -.548E+00   0.273E-04 0.152E-03 0.108E-04
   -.144E+02 -.292E+02 -.114E+03   0.201E+02 0.354E+02 0.135E+03   0.597E+01 0.695E+01 0.236E+02   -.192E-03 -.677E-03 -.782E-03
   -.703E+00 -.542E+01 0.247E+02   0.833E+00 0.554E+01 -.251E+02   0.961E-01 -.850E-01 0.713E-01   0.595E-05 0.711E-04 -.260E-03
   -.210E+02 -.346E+02 0.612E+02   0.322E+02 0.705E+02 -.638E+02   0.869E+01 0.284E+02 -.493E+01   0.176E-03 0.967E-03 0.220E-03
   0.231E+01 0.152E+02 -.492E+02   -.233E+01 -.153E+02 0.500E+02   -.250E+00 -.201E-01 0.121E+01   -.672E-04 0.363E-03 0.127E-04
   -.103E+00 0.732E+01 0.127E+02   0.187E+00 -.750E+01 -.129E+02   0.117E-01 0.516E-01 0.739E+00   -.491E-05 -.125E-04 -.292E-03
   0.306E+02 -.391E+01 0.467E+02   -.371E+02 0.228E+01 -.482E+02   -.115E+02 -.378E+01 -.485E+01   -.654E-04 -.216E-03 -.121E-03
   0.100E+01 -.143E+02 -.490E+02   -.958E+00 0.141E+02 0.494E+02   -.961E-01 -.337E+00 0.815E+00   0.338E-05 -.229E-03 0.140E-03
   -.198E+00 -.188E+02 0.722E+01   0.217E+00 0.193E+02 -.755E+01   -.148E+00 -.499E+00 0.820E+00   0.763E-05 -.547E-03 -.385E-03
   0.106E+02 -.700E+02 0.442E+02   -.114E+02 0.720E+02 -.429E+02   -.256E+01 0.456E+01 -.670E+00   0.127E-04 -.107E-02 0.250E-03
   0.118E+02 0.529E+01 -.891E+02   -.103E+02 -.575E+01 0.890E+02   -.376E+01 0.808E+00 0.359E+01   -.555E-04 0.546E-03 0.120E-02
   0.131E+01 0.208E+02 0.266E+02   -.119E+01 -.209E+02 -.272E+02   -.911E-01 -.122E+00 0.113E+01   -.346E-04 0.447E-03 -.444E-03
   -.132E+02 0.622E+02 0.638E+02   0.120E+03 -.194E+03 -.248E+03   0.122E+02 -.130E+02 -.215E+02   -.835E-04 0.192E-03 0.358E-03
   -.806E+01 0.475E+01 -.473E+02   0.830E+01 -.586E+01 0.479E+02   0.162E+01 -.650E+01 0.241E+01   -.163E-05 -.178E-03 0.360E-03
   -.530E+00 -.237E+02 -.233E+02   0.526E+00 0.241E+02 0.233E+02   0.125E-01 -.551E+00 -.379E+00   0.797E-05 -.673E-03 -.826E-04
   -.536E+01 -.544E+02 0.735E+02   0.631E+01 0.550E+02 -.752E+02   0.612E+00 0.416E+01 -.513E+01   -.372E-04 -.712E-03 0.186E-03
   0.388E+02 -.241E+02 -.284E+02   -.517E+02 0.271E+02 0.267E+02   -.177E+02 0.569E+01 -.126E+00   0.378E-03 -.692E-03 0.259E-03
   -.568E+00 -.349E+01 -.226E+02   0.413E+00 0.382E+01 0.228E+02   0.948E-01 -.516E+00 -.398E+00   -.965E-04 0.182E-03 -.243E-03
   0.409E+01 0.107E+01 0.689E+02   -.557E+01 -.337E+00 -.699E+02   0.117E+01 0.364E+00 -.108E+01   -.305E-04 0.836E-03 0.195E-03
   -.424E+01 -.121E+02 -.491E+02   0.394E+03 0.497E+03 0.498E+02   0.224E+01 0.982E+01 0.160E+01   0.447E-03 0.124E-02 0.166E-03
   0.372E+00 0.248E+02 -.111E+02   -.465E+00 -.248E+02 0.108E+02   -.252E-01 -.998E-01 0.412E-01   0.925E-04 0.526E-03 -.363E-03
   0.401E+01 0.342E+02 0.655E+02   -.446E+01 -.341E+02 -.666E+02   0.132E+00 -.775E-01 -.548E+00   -.267E-04 0.151E-03 -.644E-04
   -.168E+02 0.376E+01 -.884E+02   0.318E+02 -.205E+01 0.138E+03   0.955E+01 -.370E+00 0.341E+02   0.721E-04 0.256E-03 0.225E-03
   0.362E+00 0.608E+01 -.117E+02   -.450E+00 -.588E+01 0.116E+02   0.164E-01 0.594E-01 -.383E+00   -.139E-04 0.374E-04 -.151E-03
   -.506E+01 -.276E+01 0.713E+02   0.564E+01 0.299E+01 -.728E+02   0.923E+00 -.822E+00 -.442E+01   0.266E-04 -.293E-03 -.360E-03
   0.100E+01 -.143E+02 -.490E+02   -.958E+00 0.141E+02 0.494E+02   -.961E-01 -.337E+00 0.815E+00   0.548E-05 -.227E-03 0.143E-03
   -.198E+00 -.188E+02 0.722E+01   0.217E+00 0.193E+02 -.755E+01   -.148E+00 -.499E+00 0.820E+00   0.331E-05 -.555E-03 -.385E-03
   0.106E+02 -.700E+02 0.442E+02   -.114E+02 0.720E+02 -.429E+02   -.256E+01 0.456E+01 -.670E+00   0.101E-03 -.105E-02 0.281E-03
   -.144E+02 -.292E+02 -.114E+03   0.201E+02 0.354E+02 0.135E+03   0.597E+01 0.695E+01 0.236E+02   -.118E-03 -.678E-03 -.817E-03
   -.703E+00 -.542E+01 0.247E+02   0.833E+00 0.554E+01 -.251E+02   0.961E-01 -.850E-01 0.713E-01   -.887E-05 0.949E-04 -.199E-03
   -.210E+02 -.346E+02 0.612E+02   0.322E+02 0.705E+02 -.638E+02   0.869E+01 0.284E+02 -.493E+01   -.104E-03 0.947E-03 0.166E-03
   0.118E+02 0.529E+01 -.891E+02   -.103E+02 -.575E+01 0.890E+02   -.376E+01 0.808E+00 0.359E+01   -.371E-03 0.436E-03 0.115E-02
   0.131E+01 0.208E+02 0.266E+02   -.119E+01 -.209E+02 -.272E+02   -.911E-01 -.122E+00 0.113E+01   0.231E-04 0.480E-03 -.543E-03
   -.132E+02 0.622E+02 0.638E+02   0.120E+03 -.194E+03 -.248E+03   0.122E+02 -.130E+02 -.215E+02   0.237E-04 0.159E-03 0.350E-03
   0.231E+01 0.152E+02 -.492E+02   -.233E+01 -.153E+02 0.500E+02   -.250E+00 -.201E-01 0.121E+01   0.493E-04 0.336E-03 0.669E-05
   -.103E+00 0.732E+01 0.127E+02   0.187E+00 -.750E+01 -.129E+02   0.117E-01 0.516E-01 0.739E+00   0.207E-04 -.174E-04 -.273E-03
   0.306E+02 -.391E+01 0.467E+02   -.371E+02 0.228E+01 -.482E+02   -.115E+02 -.378E+01 -.485E+01   -.301E-04 -.197E-03 -.119E-03
   -.287E+02 0.290E+02 0.566E+02   0.178E-12 -.277E-12 -.369E-12   0.289E+02 -.289E+02 -.561E+02   0.272E-03 0.130E-02 0.215E-02

 POSITION                                       TOTAL-FORCE (eV/Angst)
      7.24675     14.86138      0.00000         2.418553     -8.932082      5.287986
      5.32660      8.52521      0.64005      -119.197678    143.982363    205.787704
      3.40645      2.18905      1.28010        -0.045228     -0.442331     -0.489560
      1.48630     12.14588      1.92015         3.232211     -0.852212      5.898899
      7.24675      5.80971      2.56020        -1.906810      7.040341     -3.306632
      5.32660     15.76654      3.20025        18.347701    -22.572250    -41.401838
      1.48630     10.78813      0.00000       -18.220929    -65.784666      0.734594
      7.24675      4.45196      0.64005        15.943538      6.986083     10.700593
      5.32660     14.40880      1.28010        -0.125249     -1.112674      1.143500
      3.40645      8.07263      1.92015       -23.284484      0.502778    -84.290329
      1.48630      1.73646      2.56020         0.393430      0.966465     -0.391277
      7.24675     11.69329      3.20025      -394.929258   -494.381047     -2.824142
      5.32660     10.78813      0.00000       -18.220929    -65.784666      0.734594
      3.40645      4.45196      0.64005        15.943538      6.986083     10.700593
      1.48630     14.40880      1.28010        -0.125249     -1.112674      1.143500
      7.24675      8.07263      1.92015       -23.284484      0.502778    -84.290329
      5.32660      1.73646      2.56020         0.393430      0.966465     -0.391277
      3.40645     11.69329      3.20025      -394.929258   -494.381047     -2.824142
      3.40645     14.86138      0.00000         2.418553     -8.932082      5.287986
      1.48630      8.52521      0.64005      -119.197678    143.982363    205.787704
      7.24675      2.18905      1.28010        -0.045228     -0.442331     -0.489560
      5.32660     12.14588      1.92015         3.232211     -0.852212      5.898899
      3.40645      5.80971      2.56020        -1.906810      7.040341     -3.306632
      1.48630     15.76654      3.20025        18.347701    -22.572250    -41.401838
      7.61499     16.22341      3.20025       -30.566006      8.668999     -1.795258
      5.69484     14.18679      6.02915        -0.064013     -0.185463     -0.289125
      3.77469     12.15016      8.85805        -0.311583      1.093777     -2.068107
      7.61499      8.07691      3.20025        24.555287      1.338096     84.165993
      5.69484      6.04029      6.02915        -0.074322      0.257303     -0.488316
      3.77469      4.00366      8.85805         1.506126     -0.595332     -5.890859
      3.77469      4.00366      3.20025         1.852073     -7.617249      2.983906
      1.85454      1.96704      6.02915         0.005996     -0.238587     -0.378114
      7.61499     16.22341      8.85805         1.561496      4.695517     -6.826823
      3.77469     12.15016      3.20025       392.427065    494.230122      2.338348
      1.85454     10.11354      6.02915        -0.121743     -0.050537     -0.337287
      7.61499      8.07691      8.85805        -0.326441      0.021547     -1.597099
      1.85454     16.22341      4.61470        11.623705     13.154218     44.505110
      7.61499     14.18679      7.44360         0.223762      0.039151     -0.245358
      5.69484     12.15016      0.00000        19.901304     64.284742     -7.539764
      1.85454      8.07691      4.61470        -0.273281     -0.070665      1.967600
      7.61499      6.04029      7.44360         0.092524     -0.125771      0.513000
      5.69484      4.00366      0.00000       -17.933483     -5.414041     -6.353339
      5.69484      4.00366      4.61470        -0.052942     -0.556898      1.253664
      3.77469      1.96704      7.44360        -0.132489      0.016266      0.482107
      1.85454     16.22341      0.00000        -3.390806      6.619545      0.585433
      5.69484     12.15016      4.61470        -2.189746      0.342352      3.446770
      3.77469     10.11354      7.44360         0.023699     -0.218447      0.572672
      1.85454      8.07691      0.00000       119.038021   -145.089416   -205.854652
      7.61499      4.00366      3.20025         1.852073     -7.617249      2.983906
      5.69484      1.96704      6.02915         0.005996     -0.238587     -0.378114
      3.77469     16.22341      8.85805         1.561496      4.695517     -6.826823
      3.77469     16.22341      3.20025       -30.566006      8.668999     -1.795258
      1.85454     14.18679      6.02915        -0.064013     -0.185463     -0.289125
      7.61499     12.15016      8.85805        -0.311583      1.093777     -2.068107
      7.61499     12.15016      3.20025       392.427065    494.230122      2.338348
      5.69484     10.11354      6.02915        -0.121743     -0.050537     -0.337287
      3.77469      8.07691      8.85805        -0.326441      0.021547     -1.597099
      3.77469      8.07691      3.20025        24.555287      1.338096     84.165993
      1.85454      6.04029      6.02915        -0.074322      0.257303     -0.488316
      7.61499      4.00366      8.85805         1.506126     -0.595332     -5.890859
      1.85454      4.00366      4.61470        -0.052942     -0.556898      1.253664
      7.61499      1.96704      7.44360        -0.132489      0.016266      0.482107
      5.69484     16.22341      0.00000        -3.390806      6.619545      0.585433
      5.69484     16.22341      4.61470        11.623705     13.154218     44.505110
      3.77469     14.18679      7.44360         0.223762      0.039151     -0.245358
      1.85454     12.15016      0.00000        19.901304     64.284742     -7.539764
      1.85454     12.15016      4.61470        -2.189746      0.342352      3.446770
      7.61499     10.11354      7.44360         0.023699     -0.218447      0.572672
      5.69484      8.07691      0.00000       119.038021   -145.089416   -205.854652
      5.69484      8.07691      4.61470        -0.273281     -0.070665      1.967600
      3.77469      6.04029      7.44360         0.092524     -0.125771      0.513000
      1.85454      4.00366      0.00000       -17.933483     -5.414041     -6.353339
    total drift:                                0.205178      0.065343      0.499672

  FREE ENERGIE OF THE ION-ELECTRON SYSTEM (eV)
  free  energy   TOTEN  =       491.22749014 eV

  energy  without entropy=      491.22914345  energy(sigma->0) =      491.22831680