 vasp.6.4.3 19Mar24 (build Oct 22 2024 11:23:12) complex

 executed on             LinuxIFC date 2025.06.04  05:38:43

 INCAR:
   SYSTEM = Si and Ge interface calculation
   ISTART = 0
   ICHARG = 2
   LWAVE = .FALSE.
   LREAL = AUTO
   ENCUT = 700
   ENAUG = 900
   ADDGRID = .TRUE.
   LMAXMIX = 6
   LASPH = .TRUE.
   LMIXTAU = .TRUE.
   NCORE = 16
   NELM = 100
   NBANDS = 231
   EDIFF = 1d-7
   AMIX = 0.6
   ISMEAR = 0
   SIGMA = 0.01
   NELECT = 384
   ISPIN = 2
   NUPDOWN = 1
   LVTOT = .FALSE.
   LVHAR = .TRUE.

 POTCAR:    PAW_PBE Ge 05Jan2001
|           W    W    AA    RRRRR   N    N  II  N    N   GGGG   !!!           |
|           W    W   A  A   R    R  NN   N  II  NN   N  G    G  !!!           |
|           W    W  A    A  R    R  N N  N  II  N N  N  G       !!!           |
|           W WW W  AAAAAA  RRRRR   N  N N  II  N  N N  G  GGG   !            |
|           WW  WW  A    A  R   R   N   NN  II  N   NN  G    G                |
|           W    W  A    A  R    R  N    N  II  N    N   GGGG   !!!           |
|     You use a magnetic or noncollinear calculation, but did not specify     |
|     the initial magnetic moment with the MAGMOM tag. Note that a            |
|     default of 0.01 will be used for all atoms. This ferromagnetic          |
|     setup may break the symmetry of the crystal, in particular it may       |
|     rule out finding an antiferromagnetic solution. Thence, we              |
|     recommend setting the initial magnetic moment manually or verifying     |
|     carefully that this magnetic setup is desired.                          |

 POTCAR:    PAW_PBE Ge 05Jan2001
   VRHFIN =Ge: s2p2

   TITEL  = PAW_PBE Ge 05Jan2001
   POMASS =   72.610; ZVAL   =    4.000    mass and valenz
   ENMAX  =  173.807; ENMIN  =  130.355 eV

 Optimization of the real space projectors (new method)

 maximal supplied QI-value         = 16.25
 optimisation between [QCUT,QGAM] = [ 13.49, 26.98] = [ 50.95,203.80] Ry
 Optimized for a Real-space Cutoff    1.25 Angstroem

   l    n(q)    QCUT    max X(q) W(low)/X(q) W(high)/X(q)  e(spline)
   0     10    13.489    65.336    0.91E-04    0.11E-03    0.34E-06
   0     10    13.489    52.220    0.89E-04    0.11E-03    0.34E-06
   1     10    13.489    36.409    0.22E-03    0.27E-03    0.14E-06
   1     10    13.489    21.334    0.21E-03    0.27E-03    0.14E-06
   2      9    13.489     4.673    0.11E-03    0.12E-03    0.19E-06
  PAW_PBE Ge 05Jan2001                  :

 POSCAR: Ge+Ge
  positions in direct lattice

 exchange-correlation table for PE
   RHO(1)=    0.500       N(1)  =     2000
   RHO(2)=  100.500       N(2)  =     4000

 ion  position               nearest neighbor table
   1  0.784  0.490  0.500-  12 1.53  14 2.45  37 2.45  58 2.65  92 2.83
   2  0.993  0.948  0.000-  90 1.58  38 2.45   8 2.45  39 2.45  53 2.65
   3  0.490  0.784  0.000-  23 1.53  85 2.45  71 2.45  25 2.65  44 2.83
   4  0.909  0.365  0.200-  46 2.45  41 2.45  14 2.45  67 2.45  55 2.65
   5  0.243  0.698  0.000-  72 1.58  23 2.45  39 2.45  73 2.45  83 2.65
   6  0.409  0.115  0.500-  75 1.58  62 2.45   7 2.45  36 2.45  88 2.65
   7  0.284  0.990  0.500-  68 1.53  17 2.45   6 2.45  52 2.65  18 2.83
   8  0.826  0.031  0.100-  26 2.45  31 2.45   2 2.45   9 2.45  33 2.45  90 2.65
   9  0.743  0.198  0.000-  66 1.58   8 2.45  46 2.45  45 2.45  77 2.65
  10  0.034  0.240  0.500-  18 1.53  41 2.45  22 2.45  76 2.65  12 2.83
  11  0.198  0.743  0.500-  86 1.58  69 2.45  68 2.45  93 2.45  29 2.65
  12  0.823  0.368  0.500-   1 1.53  58 2.45  74 2.45  14 2.65  10 2.83
  13  0.784  0.740  0.200-  43 2.45  49 2.45  34 2.45  33 2.45  40 2.65
  14  0.743  0.448  0.300-  35 2.45  34 2.45   1 2.45   4 2.45  12 2.65
  15  0.240  0.034  0.000-  38 1.53  61 2.45  89 2.45  28 2.65  23 2.83
  16  0.284  0.240  0.200-  62 2.45  28 2.45  32 2.45  27 2.45  61 2.65
  17  0.243  0.948  0.300-  28 2.45   7 2.45  25 2.45  29 2.45  68 2.65
  18  0.073  0.118  0.500-  10 1.53  50 2.45  76 2.45  41 2.65   7 2.83
  19  0.701  0.156  0.400-  74 1.58  36 2.45  26 2.45  31 2.45  35 2.45  87 2.65
  20  0.534  0.990  0.200-  36 2.45  33 2.45  25 2.45  32 2.45  85 2.65
  21  0.493  0.448  0.000-  96 1.58  45 2.45  73 2.45  44 2.45  59 2.65
  22  0.159  0.365  0.500-  57 1.58  10 2.45  62 2.45  30 2.45  64 2.65
  23  0.368  0.823  0.000-   3 1.53  25 2.45   5 2.45  71 2.65  15 2.83
  24  0.659  0.865  0.500-  51 1.58  43 2.45  36 2.45  70 2.65
  25  0.409  0.865  0.200-  23 2.45  47 2.45  17 2.45  20 2.45   3 2.65
  26  0.868  0.073  0.300-  31 0.00   8 2.45  41 2.45  19 2.45  42 2.45  50 2.65
  27  0.201  0.406  0.100-  91 1.58  73 2.45  67 2.45  16 2.45  60 2.65
  28  0.159  0.115  0.200-  17 2.45  38 2.45  16 2.45  41 2.45  15 2.65
  29  0.118  0.823  0.300-  42 2.45  39 2.45  17 2.45  86 2.45  11 2.65
  30  0.076  0.531  0.400-  67 2.45  37 2.45  22 2.45  86 2.45  57 2.65
  31  0.868  0.073  0.300-  26 0.00   8 2.45  41 2.45  19 2.45  42 2.45  50 2.65
  32  0.451  0.156  0.100-  61 1.58  45 2.45  16 2.45  20 2.45  78 2.65
  33  0.701  0.906  0.100-  85 1.58  20 2.45   8 2.45  13 2.45  54 2.65
  34  0.659  0.615  0.200-  14 2.45  44 2.45  13 2.45  47 2.45  79 2.65
  35  0.618  0.323  0.300-  14 2.45  19 2.45  45 2.45  48 2.45  74 2.65
  36  0.576  0.031  0.400-  20 2.45  19 2.45  24 2.45   6 2.45  51 2.65
  37  0.909  0.615  0.500-  81 1.58   1 2.45  43 2.45  30 2.45  94 2.65
  38  0.118  0.073  0.000-  15 1.53   2 2.45  28 2.45  89 2.65  55 2.83
  39  0.076  0.781  0.100-  49 2.45  29 2.45   5 2.45   2 2.45  72 2.65
  40  0.865  0.659  0.000-  49 1.58  79 2.45  54 2.45  84 2.45  13 2.65
  41  0.993  0.198  0.300-  26 2.45  31 2.45   4 2.45  10 2.45  28 2.45  18 2.65
  42  0.951  0.906  0.400-  50 1.58  29 2.45  31 2.45  26 2.45  43 2.45  69 2.65
  43  0.826  0.781  0.400-  13 2.45  42 2.45  24 2.45  37 2.45  81 2.65
  44  0.618  0.573  0.000-  79 1.53  34 2.45  21 2.45  95 2.65   3 2.83
  45  0.576  0.281  0.100-  21 2.45  32 2.45  35 2.45   9 2.45  66 2.65
  46  0.868  0.323  0.000-  55 1.53   4 2.45   9 2.45  65 2.65  79 2.83
  47  0.493  0.698  0.300-  80 2.45  25 2.45  34 2.45  92 2.65
  48  0.451  0.406  0.400-  56 1.58  62 2.45  80 2.45  35 2.45  63 2.65
  49  0.951  0.656  0.100-  40 1.58  13 2.45  39 2.45  67 2.45  84 2.65
  50  0.948  0.993  0.500-  42 1.58  18 2.45  69 2.45  87 2.45  31 2.65  26 2.65
  51  0.656  0.951  0.600-  24 1.58  88 2.45  70 2.45  87 2.45  36 2.65
  52  0.365  0.909  0.700-  68 2.45  71 2.45  89 2.45  88 2.45   7 2.65
  53  0.073  0.868  0.800-  69 2.45  89 2.45  90 2.45  72 2.45   2 2.65
  54  0.781  0.826  0.900-  40 2.45  90 2.45  70 2.45  85 2.45  33 2.65
  55  0.990  0.284  0.000-  46 1.53  65 2.45  91 2.45   4 2.65  38 2.83
  56  0.448  0.493  0.500-  48 1.58  93 2.45  63 2.45  92 2.45  80 2.65
  57  0.156  0.451  0.600-  22 1.58  94 2.45  93 2.45  64 2.45  30 2.65
  58  0.865  0.409  0.700-  12 2.45  94 2.45  95 2.45  65 2.45   1 2.65
  59  0.573  0.368  0.800-  95 2.45  63 2.45  96 2.45  66 2.45  21 2.65
  60  0.281  0.326  0.900-  64 2.45  91 2.45  96 2.45  61 2.45  27 2.65
[...]
  82  0.615  0.659  0.700-  71 2.45  92 2.45  70 2.45  95 2.45
  83  0.323  0.618  0.800-  71 2.45  72 2.45  93 2.45  96 2.45   5 2.65
  84  0.031  0.576  0.900-  72 2.45  94 2.45  40 2.45  91 2.45  49 2.65
  85  0.615  0.909  0.000-  33 1.58   3 2.45  78 2.45  54 2.45  20 2.65
  86  0.201  0.656  0.400-  11 1.58  80 2.45  29 2.45  30 2.45  93 2.65
  87  0.781  0.076  0.600-  77 2.45  74 2.45  51 2.45  50 2.45  19 2.65
  88  0.490  0.034  0.700-  78 2.45  51 2.45  75 2.45  52 2.45   6 2.65
  89  0.198  0.993  0.800-  76 2.45  53 2.45  52 2.45  15 2.45  38 2.65
  90  0.906  0.951  0.900-   2 1.58  54 2.45  53 2.45  77 2.45   8 2.65
  91  0.115  0.409  0.000-  27 1.58  60 2.45  84 2.45  55 2.45  67 2.65
  92  0.573  0.618  0.500-  82 2.45  56 2.45  47 2.65   1 2.83
  93  0.281  0.576  0.600-  57 2.45  56 2.45  83 2.45  11 2.45  86 2.65
  94  0.990  0.534  0.700-  57 2.45  84 2.45  58 2.45  81 2.45  37 2.65
  95  0.698  0.493  0.800-  59 2.45  82 2.45  58 2.45  79 2.45  44 2.65
  96  0.406  0.451  0.900-  21 1.58  60 2.45  59 2.45  83 2.45  73 2.65

  LATTYP: Found a base centered orthorhombic cell.
 ALAT       =    16.0026764918
 B/A-ratio  =     1.2247448613
 C/A-ratio  =     0.7216883050

  Lattice vectors:

 A1 = (  -2.5302453040, -12.3956203460,   0.0000000000)
 A2 = (  12.6512260440,   0.0000000000,   0.0000000000)
 A3 = (   0.0000000000,   0.0000000000,  11.5489444730)

Analysis of symmetry for initial positions (statically):
 Subroutine PRICEL returns:
 Original cell was already a primitive cell.

 Routine SETGRP: Setting up the symmetry group for a
 base centered orthorhombic supercell.

 Subroutine GETGRP returns: Found  1 space group operations
 (whereof  1 operations were pure point group operations)
 out of a pool of  8 trial point group operations.

The static configuration has the point symmetry C_1 .

Analysis of symmetry for dynamics (positions and initial velocities):
 Subroutine PRICEL returns:
 Original cell was already a primitive cell.

[...]

The dynamic configuration has the point symmetry C_1 .

Analysis of structural, dynamic, and magnetic symmetry:
 Subroutine PRICEL returns:
 Original cell was already a primitive cell.

 Routine SETGRP: Setting up the symmetry group for a
 base centered orthorhombic supercell.

 Subroutine GETGRP returns: Found  1 space group operations
 (whereof  1 operations were pure point group operations)
 out of a pool of  8 trial point group operations.

The overall configuration has the point symmetry C_1 .

 Subroutine INISYM returns: Found  1 space group operations
 (whereof  1 operations are pure point group operations),
 and found     1 'primitive' translations

                                     Primitive cell

  volume of cell :    1811.1031

  direct lattice vectors                    reciprocal lattice vectors
    12.651226044  0.000000000  0.000000000     0.079043722 -0.016134732  0.000000000
     2.530245304 12.395620346  0.000000000     0.000000000  0.080673655  0.000000000
     0.000000000  0.000000000 11.548944473     0.000000000  0.000000000  0.086588000

  length of vectors
    12.651226044 12.651227018 11.548944473     0.080673661  0.080673655  0.086588000

  position of ions in fractional coordinates (direct lattice)
     0.784256577  0.489798665  0.500000060
     0.992590368  0.948132515  0.000000027
     0.489798665  0.784256577  0.000000238
     0.909256816  0.364798903  0.200000063
     0.242590353  0.698132634  0.000000000
     0.409256607  0.114798844  0.500000060
     0.284256607  0.989798784  0.500000060
     0.825923681  0.031465776  0.100000039
     0.742590427  0.198132515  0.000000026
     0.034256559  0.239798784  0.500000060
     0.198132515  0.742590427  0.500000060
     0.823132634  0.367590398  0.500000060
     0.784256876  0.739798903  0.200000063
     0.742590129  0.448132336  0.300000012
     0.239798725  0.034256589  0.000000238
     0.284256876  0.239799008  0.200000092
     0.242590174  0.948132396  0.300000012
     0.073132515  0.117590360  0.500000060
     0.700923383  0.156465530  0.399999976
     0.534256935  0.989799023  0.200000092
[...]
     0.000000000  0.000000000 11.548944473     0.000000000  0.000000000  0.086588000

  length of vectors
    12.651226044 12.651227018 11.548944473     0.080673661  0.080673655  0.086588000

 FORCES acting on ions
    electron-ion (+dipol)            ewald-force                    non-local-force                 convergence-correction
   0.204E+02 -.561E+02 -.283E+01   -.249E+02 0.851E+02 0.294E+01   -.293E+01 0.262E+02 -.729E+00   -.671E-05 -.204E-04 -.218E-04
   -.303E+02 0.428E+01 -.299E+02   0.456E+02 -.506E+01 0.469E+02   0.153E+02 0.153E+00 0.168E+02   -.178E-04 0.275E-04 0.438E-04
   -.392E+02 0.224E+02 0.583E+00   0.666E+02 -.325E+02 -.570E+00   0.248E+02 -.786E+01 -.584E+00   0.265E-05 0.121E-04 0.620E-05
   0.262E+01 -.152E+02 -.150E+02   -.332E+01 0.151E+02 0.156E+02   0.224E+00 0.711E+00 0.929E+00   -.961E-05 -.872E-04 0.503E-04
   -.304E+02 -.512E+00 -.384E+02   0.456E+02 -.189E+00 0.555E+02   0.153E+02 0.998E-01 0.168E+02   -.850E-05 0.267E-04 0.815E-05
   0.732E+01 0.323E+02 0.376E+02   -.955E+01 -.474E+02 -.549E+02   -.333E+01 -.149E+02 -.168E+02   0.243E-04 -.508E-05 -.195E-04
   0.619E+00 -.319E+02 -.288E+01   -.487E+01 0.605E+02 0.294E+01   -.278E+01 0.261E+02 -.767E+00   -.122E-04 0.169E-04 -.963E-05
   0.102E+02 0.251E+01 0.563E+01   -.997E+01 -.217E+01 -.439E+01   -.129E+01 0.376E+00 -.335E+00   0.542E-04 0.384E-04 0.179E-03
   -.209E+02 -.706E+01 -.299E+02   0.361E+02 0.661E+01 0.469E+02   0.154E+02 -.636E-01 0.169E+02   0.402E-04 -.306E-04 0.639E-04
   0.375E+01 -.493E+02 -.758E+01   -.825E+01 0.782E+02 0.768E+01   -.271E+01 0.259E+02 -.485E+00   -.551E-04 -.470E-04 -.642E-04
   -.201E+02 -.216E+02 -.415E+02   0.224E+02 0.367E+02 0.588E+02   0.327E+01 0.149E+02 0.167E+02   -.320E-04 0.471E-04 0.936E-05
   -.902E+01 0.291E+02 -.461E+01   0.132E+02 -.582E+02 0.482E+01   0.305E+01 -.257E+02 0.471E+00   -.149E-04 -.705E-04 -.476E-04
   0.109E+02 0.732E+00 -.294E+02   -.105E+02 -.480E+00 0.306E+02   -.966E+00 0.619E+00 0.738E+00   0.208E-04 0.373E-04 0.357E-04
   0.688E+01 -.196E+02 0.133E+02   -.668E+01 0.203E+02 -.139E+02   -.639E+00 -.112E+00 -.109E+01   0.261E-04 -.552E-04 0.681E-05
   -.445E+02 0.227E+02 0.219E+01   0.719E+02 -.330E+02 -.203E+01   0.248E+02 -.777E+01 -.694E+00   -.212E-04 0.294E-05 0.119E-04
   -.155E+01 -.684E+01 -.263E+02   0.194E+01 0.705E+01 0.274E+02   -.102E+01 0.634E+00 0.793E+00   -.250E-04 -.249E-04 0.282E-04
   -.115E+02 0.295E+01 0.132E+02   0.116E+02 -.213E+01 -.139E+02   -.596E+00 -.182E+00 -.941E+00   -.389E-04 0.333E-04 0.186E-05
   -.252E+02 0.416E+02 -.957E+01   0.297E+02 -.710E+02 0.937E+01   0.294E+01 -.254E+02 0.754E+00   -.733E-04 -.932E-05 -.628E-04
   0.381E+02 0.126E+02 0.263E+02   -.413E+02 -.281E+02 -.432E+02   -.378E+01 -.139E+02 -.160E+02   0.134E-03 -.807E-04 -.758E-04
   0.992E+01 0.209E+01 -.295E+02   -.949E+01 -.177E+01 0.306E+02   -.101E+01 0.560E+00 0.785E+00   0.365E-04 0.173E-04 0.427E-04
   -.256E+02 -.634E+01 -.384E+02   0.408E+02 0.560E+01 0.555E+02   0.154E+02 0.916E-01 0.168E+02   0.144E-04 -.871E-05 0.110E-04
   0.337E+01 0.222E+02 0.380E+02   -.567E+01 -.372E+02 -.552E+02   -.317E+01 -.149E+02 -.168E+02   -.231E-04 -.359E-04 -.269E-04
   0.365E+02 -.171E+02 0.176E+01   -.638E+02 0.274E+02 -.188E+01   -.248E+02 0.779E+01 0.765E+00   -.113E-05 0.176E-04 0.896E-05
   0.402E+02 0.524E+02 0.356E+02   -.440E+02 -.685E+02 -.527E+02   -.207E+01 -.144E+02 -.166E+02   0.382E-04 0.355E-04 -.331E-04
   0.571E+00 0.498E+01 -.264E+02   -.156E+01 -.478E+01 0.270E+02   0.474E+00 0.381E+00 0.121E+01   0.421E-06 0.179E-04 0.119E-04
   0.767E+01 -.101E+01 0.256E+02   -.739E+01 0.103E+01 -.259E+02   -.618E+00 0.807E+00 -.706E+00   0.319E-05 0.239E-04 0.956E-05
   -.309E+02 -.424E+01 -.441E+02   0.465E+02 0.374E+01 0.612E+02   0.151E+02 -.640E-01 0.168E+02   -.173E-04 -.158E-04 0.274E-04
   -.812E+01 -.212E+01 -.150E+02   0.726E+01 0.219E+01 0.156E+02   0.445E+00 0.469E+00 0.935E+00   -.818E-04 0.103E-04 0.439E-04
   -.638E+01 0.850E+01 0.240E+02   0.573E+01 -.875E+01 -.248E+02   -.919E-01 0.905E+00 -.905E+00   -.626E-04 0.727E-04 0.430E-05
   0.449E+01 -.265E+01 0.263E+02   -.504E+01 0.185E+01 -.274E+02   -.311E+00 0.146E+01 -.925E+00   -.294E-04 -.260E-05 -.218E-04
   0.767E+01 -.101E+01 0.256E+02   -.739E+01 0.103E+01 -.259E+02   -.618E+00 0.807E+00 -.706E+00   0.319E-05 0.239E-04 0.956E-05
   -.253E+02 -.148E+01 -.435E+02   0.408E+02 0.958E+00 0.606E+02   0.152E+02 -.789E-01 0.168E+02   0.110E-04 -.843E-05 0.343E-04
   -.173E+02 0.673E+01 -.404E+02   0.328E+02 -.746E+01 0.573E+02   0.151E+02 -.444E-01 0.169E+02   0.518E-04 0.463E-04 0.543E-04
   0.109E+02 -.798E+01 -.263E+02   -.119E+02 0.790E+01 0.270E+02   0.429E+00 0.625E+00 0.979E+00   0.113E-04 -.953E-05 0.161E-04
   0.140E+02 -.162E+02 0.239E+02   -.143E+02 0.158E+02 -.248E+02   -.443E+00 0.120E+01 -.844E+00   0.571E-04 -.772E-04 0.301E-04
   0.222E+02 0.115E+02 0.211E+02   -.224E+02 -.124E+02 -.219E+02   -.581E+00 0.128E+01 -.967E+00   0.740E-04 0.399E-04 -.178E-04
   0.139E+02 0.239E+02 0.376E+02   -.164E+02 -.390E+02 -.549E+02   -.304E+01 -.149E+02 -.166E+02   -.136E-04 0.216E-04 -.251E-04
   0.326E+02 -.185E+02 0.622E+01   -.600E+02 0.289E+02 -.623E+01   -.248E+02 0.774E+01 0.679E+00   -.364E-04 0.169E-05 0.331E-04
   -.514E+01 0.419E+00 -.251E+02   0.590E+01 -.106E-01 0.262E+02   -.124E+01 0.598E+00 0.940E+00   -.225E-04 0.504E-04 0.304E-04
   0.292E+02 0.325E+01 0.418E+02   -.443E+02 -.247E+01 -.589E+02   -.154E+02 -.111E+00 -.168E+02   -.548E-05 0.648E-05 0.184E-05
   -.270E+02 -.284E+02 0.163E+02   0.273E+02 0.294E+02 -.171E+02   0.242E+00 0.554E+00 -.101E+01   -.149E-03 -.101E-03 -.104E-04
   -.551E+00 0.596E+02 0.255E+02   -.227E+01 -.759E+02 -.432E+02   -.207E+01 -.161E+02 -.155E+02   -.598E-04 0.136E-03 -.893E-04
   0.221E+02 0.120E+02 0.211E+02   -.224E+02 -.124E+02 -.219E+02   -.569E+00 0.976E+00 -.982E+00   0.431E-04 0.724E-04 -.159E-04
   0.418E+02 -.237E+02 0.182E+01   -.692E+02 0.339E+02 -.188E+01   -.247E+02 0.773E+01 0.627E+00   0.153E-04 -.473E-05 0.104E-04
   0.544E+01 -.125E+02 -.250E+02   -.468E+01 0.129E+02 0.262E+02   -.128E+01 0.591E+00 0.862E+00   0.322E-04 -.288E-04 0.414E-04
   0.395E+02 -.271E+02 0.609E+01   -.669E+02 0.374E+02 -.623E+01   -.248E+02 0.778E+01 0.740E+00   0.332E-05 -.337E-04 0.460E-04
   -.682E+01 -.128E+02 -.162E+02   0.724E+01 0.130E+02 0.166E+02   -.187E+00 0.224E-01 0.706E+00   0.190E-04 0.112E-04 0.137E-05
   0.643E+01 0.178E+02 0.416E+02   -.906E+01 -.332E+02 -.586E+02   -.308E+01 -.148E+02 -.169E+02   0.262E-04 -.413E-04 0.531E-05
   -.270E+02 0.699E+00 -.435E+02   0.426E+02 -.131E+01 0.606E+02   0.151E+02 0.186E-01 0.168E+02   0.212E-05 0.160E-04 0.305E-04
   -.161E+02 -.101E+02 -.665E+02   0.182E+02 0.262E+02 0.840E+02   0.331E+01 0.145E+02 0.169E+02   -.520E-04 0.546E-04 -.120E-03
   0.784E+01 -.127E+02 -.455E+02   -.485E+01 0.276E+02 0.613E+02   0.240E+01 0.149E+02 0.173E+02   0.362E-04 0.386E-04 -.314E-04
   -.101E+02 0.163E+02 -.799E+01   0.983E+01 -.172E+02 0.847E+01   0.660E+00 0.116E+00 0.107E+01   -.117E-04 0.201E-04 -.104E-04
   -.496E+01 0.957E+01 0.278E+02   0.463E+01 -.980E+01 -.289E+02   0.853E+00 -.556E+00 -.726E+00   -.163E-04 0.207E-04 -.293E-04
   0.553E+01 0.106E+02 0.329E+02   -.634E+01 -.111E+02 -.341E+02   0.131E+01 -.502E+00 -.894E+00   0.157E-04 0.218E-04 -.727E-05
   -.427E+02 0.149E+02 0.455E+01   0.702E+02 -.253E+02 -.446E+01   0.248E+02 -.770E+01 -.693E+00   -.245E-04 -.294E-04 0.430E-04
   -.137E+02 -.409E+02 -.406E+02   0.166E+02 0.563E+02 0.579E+02   0.257E+01 0.146E+02 0.167E+02   0.251E-04 -.247E-04 0.129E-04
   -.106E+02 -.299E+02 -.450E+02   0.133E+02 0.452E+02 0.621E+02   0.288E+01 0.149E+02 0.169E+02   -.212E-05 -.463E-05 0.163E-05
   0.959E+00 -.104E+01 -.173E+02   -.117E+01 0.129E+00 0.177E+02   0.672E+00 0.192E+00 0.115E+01   -.954E-05 -.243E-04 -.136E-04
   -.177E-01 0.287E+00 0.286E+02   -.391E+00 -.607E+00 -.298E+02   0.106E+01 -.643E+00 -.635E+00   0.504E-05 -.164E-04 -.340E-04
   -.138E+01 0.505E+01 0.296E+02   0.548E+00 -.552E+01 -.307E+02   0.133E+01 -.559E+00 -.923E+00   -.564E-05 -.156E-04 -.875E-05
[...]
   -.714E+01 0.355E+01 0.310E+02   0.676E+01 -.384E+01 -.322E+02   0.100E+01 -.592E+00 -.681E+00   -.270E-05 0.698E-05 -.169E-04
   -.964E-01 0.613E+01 0.299E+02   -.741E+00 -.657E+01 -.310E+02   0.131E+01 -.557E+00 -.894E+00   -.758E-05 0.958E-05 -.753E-05
   0.320E+02 0.677E+01 0.430E+02   -.471E+02 -.611E+01 -.602E+02   -.154E+02 -.377E-02 -.168E+02   0.180E-04 0.110E-04 0.922E-05
   -.168E+01 0.279E+02 0.413E+02   -.830E+00 -.433E+02 -.586E+02   -.299E+01 -.148E+02 -.167E+02   -.239E-04 0.229E-04 -.111E-04
   0.670E+00 0.262E+01 -.410E+02   -.925E+00 -.250E+01 0.421E+02   0.116E+01 -.419E+00 0.931E+00   0.225E-04 0.113E-04 -.964E-04
   -.310E+01 0.117E+02 -.220E+02   0.349E+01 -.113E+02 0.231E+02   0.334E+00 -.104E+01 0.809E+00   0.620E-05 0.163E-04 -.193E-04
   -.100E+02 0.610E+01 0.198E+02   0.109E+02 -.611E+01 -.203E+02   -.280E+00 -.548E+00 -.110E+01   -.316E-04 0.152E-06 -.165E-04
   0.288E+02 0.629E+01 0.507E+02   -.445E+02 -.570E+01 -.677E+02   -.149E+02 -.727E-01 -.170E+02   0.136E-04 0.785E-05 0.243E-05
   0.239E+02 -.322E+00 0.413E+02   -.391E+02 0.108E+01 -.584E+02   -.153E+02 -.104E+00 -.168E+02   -.221E-04 -.207E-04 0.158E-04
   -.212E+01 -.260E+02 -.102E+01   0.298E+01 0.262E+02 0.492E+00   0.319E-01 0.174E+00 0.108E-01   0.183E-04 -.127E-04 -.572E-05
   -.157E+02 -.380E+01 -.261E+02   0.164E+02 0.442E+01 0.272E+02   0.224E+00 -.124E+01 0.810E+00   0.460E-05 0.720E-06 0.664E-05
   -.431E+01 0.568E+00 -.253E+02   0.463E+01 -.225E+00 0.264E+02   0.357E+00 -.107E+01 0.684E+00   -.121E-04 0.757E-05 -.295E-05
   -.119E+01 -.459E+01 0.221E+02   0.207E+01 0.452E+01 -.229E+02   -.366E+00 -.391E+00 -.979E+00   0.247E-05 -.103E-04 -.108E-04
   0.270E+02 -.136E+01 0.469E+02   -.425E+02 0.192E+01 -.640E+02   -.152E+02 0.476E-01 -.168E+02   0.809E-05 -.121E-04 -.152E-04
   -.835E-01 -.234E+01 -.149E+01   0.199E-12 0.295E-13 0.284E-13   0.981E+00 0.307E+01 0.155E+01   -.392E-04 0.234E-04 -.147E-03

 POSITION                                       TOTAL-FORCE (eV/Angst)
     11.16112      6.07136      5.77447        -7.464037     55.132901     -0.625576
     14.95649     11.75269      0.00000        30.625985     -0.626771     33.825194
      8.18092      9.72135      0.00000        52.179394    -18.007294     -0.571438
     12.42624      4.52191      2.30979        -0.482322      0.600050      1.522120
      4.83551      8.65379      0.00000        30.502727     -0.608668     33.982441
      5.46807      1.42300      5.77447        -5.565845    -29.999187    -33.998237
      6.10063     12.26917      5.77447        -7.038604     54.578399     -0.712757
     10.52856      0.39004      1.15489        -1.023593      0.705566      0.901665
      9.89600      2.45598      0.00000        30.664575     -0.521623     33.923638
      1.04014      2.97245      5.77447        -7.218915     54.842268     -0.387934
      4.38556      9.20487      5.77447         5.590852     29.953460     34.030295
     11.34373      4.55651      5.77447         7.256622    -54.846952      0.678823
     11.79368      9.17027      2.30979        -0.581472      0.863470      1.884119
     10.52856      5.55488      3.46468        -0.441680      0.599015     -1.709369
      3.12043      0.42463      0.00000        52.231872    -18.003063     -0.539423
      4.20295      2.97246      2.30979        -0.636254      0.842769      1.883091
      5.46807     11.75269      3.46468        -0.452907      0.630217     -1.594570
      1.22275      1.45761      5.77447         7.400036    -54.788925      0.545582
      9.26344      1.93949      4.61958        -6.903601    -29.522895    -33.009953
      9.26344     12.26917      2.30979        -0.592245      0.870604      1.807177
      7.36576      5.55488      0.00000        30.594491     -0.654547     33.922565
      2.93782      4.52191      5.77447        -5.472888    -29.996325    -33.935500
      6.73320     10.20324      0.00000       -52.110578     18.023975      0.637089
     10.52856     10.71972      5.77447        -5.969062    -30.546206    -33.755603
      7.36575     10.71972      2.30979        -0.522820      0.569801      1.814167
     11.16112      0.90652      3.46468        -0.338429      0.819014     -1.070956
      3.57039      5.03840      1.15489        30.703307     -0.566617     33.925071
      2.30526      1.42300      2.30979        -0.426099      0.534604      1.504304
      3.57039     10.20324      3.46468        -0.757124      0.652459     -1.763361
      2.30526      6.58784      4.61958        -0.873980      0.661952     -2.029773
     11.16112      0.90652      3.46468        -0.338429      0.819014     -1.070956
      6.10063      1.93949      1.15489        30.731130     -0.608645     33.908045
     11.16112     11.23620      1.15489        30.574647     -0.775205     33.843294
      9.89600      7.62081      2.30979        -0.566102      0.536296      1.663934
      8.63088      4.00543      3.46468        -0.795917      0.830829     -1.769071
      7.36575      0.39003      4.61958        -0.840519      0.402325     -1.736984
     13.05880      7.62081      5.77447        -5.529890    -30.013063    -33.931569
      1.67271      0.90652      0.00000       -52.199015     18.115284      0.670391
      2.93783      9.68675      1.15489        -0.496286      0.998891      2.092581
     12.60884      8.17189      0.00000       -30.488528      0.664441    -33.956126
     13.05880      2.45597      3.46468         0.563390      1.486693     -1.819926
     14.32393     11.23620      4.61958        -4.895216    -32.331050    -33.281591
     12.42624      9.68675      4.61958        -0.958597      0.628579     -1.790760
      9.26344      7.10433      0.00000       -52.112712     18.002881      0.557904
      7.99832      3.48894      1.15489        -0.531066      1.024263      2.054524
     11.79369      4.00543      0.00000       -52.185953     18.000791      0.600377
      7.99832      8.65378      3.46468         0.219399      0.196703      1.083459
      6.73319      5.03839      4.61958        -5.718028    -30.197620    -33.840372
     13.69137      8.13730      1.15489        30.742952     -0.596937     33.896445
     14.50654     12.30377      5.77447         5.488199     30.661028     34.352903
     10.71117     11.78729      6.92937         5.376985     29.789203     33.166913
      6.91580     11.27080      8.08426         0.424381     -0.716222      1.543302
      3.12043     10.75432      9.23916         0.516666     -0.793101     -1.803958
     11.97629     10.23783     10.39405         0.486929     -1.013463     -2.029036
     13.24141      3.52354      0.00000        52.243782    -18.081736     -0.604207
      6.91580      6.10596      5.77447         5.514661     30.050250     33.984409
      3.12043      5.58948      6.92937         5.573558     30.186178     33.918026
     11.97629      5.07299      8.08426         0.451762     -0.727293      1.599942
      8.18092      4.55651      9.23916         0.644069     -0.970871     -1.831305
      4.38555      4.04002     10.39405         0.479794     -1.040719     -2.047099
[...]
      9.44604      8.17190      8.08426        -0.108558     -0.006359     -0.113817
      5.65067      7.65541      9.23916         0.619083     -0.898280     -1.890182
      1.85530      7.13893     10.39405         0.466699     -1.009570     -1.963938
     10.07860     11.27080      0.00000       -30.487239      0.641731    -33.920564
      4.20295      8.13730      4.61958        -5.511945    -30.241900    -33.990224
     10.07860      0.94112      6.92937         0.899976     -0.300871      2.018069
      6.28324      0.42464      8.08426         0.715708     -0.734942      1.868129
      5.01811     12.30377      9.23916         0.615434     -0.567969     -1.597537
     13.87397     11.78729     10.39405       -30.641901      0.510399    -34.049098
      2.48787      5.07299      0.00000       -30.559041      0.650303    -33.921246
      8.81349      7.65542      5.77447         0.873682      0.396282     -0.517830
      5.01812      7.13893      6.92937         0.868982     -0.623732      1.962095
     13.87397      6.62245      8.08426         0.662858     -0.737546      1.810513
     10.07860      6.10596      9.23916         0.496502     -0.464691     -1.797641
      6.28323      5.58948     10.39405       -30.749421      0.599816    -33.855512
    total drift:                                0.897089      0.727563      0.059487

  FREE ENERGIE OF THE ION-ELECTRON SYSTEM (eV)
  free  energy   TOTEN  =      -243.72038197 eV

  energy  without entropy=     -243.71848010  energy(sigma->0) =     -243.71943104