 vasp.6.4.3 19Mar24 (build Oct 22 2024 11:23:12) complex

 executed on             LinuxIFC date 2025.06.14  13:26:35

 INCAR:
   SYSTEM = Si and Ge interface calculation
   ISTART = 0
   ICHARG = 2
   LWAVE = .FALSE.
   LREAL = AUTO
   ENCUT = 700
   ENAUG = 900
   ADDGRID = .TRUE.
   LMAXMIX = 6
   LASPH = .TRUE.
   LMIXTAU = .TRUE.
   NCORE = 16
   NELM = 100
   NBANDS = 20
   EDIFF = 1d-7
   AMIX = 0.6
   ISMEAR = 0
   SIGMA = 0.01
   NELECT = 32
   ISPIN = 2
   NUPDOWN = 1
   LVTOT = .FALSE.
   LVHAR = .TRUE.

 POTCAR:    PAW_PBE C 08Apr2002
 POTCAR:    PAW_PBE Sn 08Apr2002
 POTCAR:    PAW_PBE C 08Apr2002
 POTCAR:    PAW_PBE Sn 08Apr2002
 POTCAR:    PAW_PBE C 08Apr2002
 POTCAR:    PAW_PBE Sn 08Apr2002
 POTCAR:    PAW_PBE C 08Apr2002
 POTCAR:    PAW_PBE Sn 08Apr2002
|           W    W    AA    RRRRR   N    N  II  N    N   GGGG   !!!           |
|           W    W   A  A   R    R  NN   N  II  NN   N  G    G  !!!           |
|           W    W  A    A  R    R  N N  N  II  N N  N  G       !!!           |
|           W WW W  AAAAAA  RRRRR   N  N N  II  N  N N  G  GGG   !            |
|           WW  WW  A    A  R   R   N   NN  II  N   NN  G    G                |
|           W    W  A    A  R    R  N    N  II  N    N   GGGG   !!!           |
|     You use a magnetic or noncollinear calculation, but did not specify     |
|     the initial magnetic moment with the MAGMOM tag. Note that a            |
|     default of 0.125 will be used for all atoms. This ferromagnetic         |
|     setup may break the symmetry of the crystal, in particular it may       |
|     rule out finding an antiferromagnetic solution. Thence, we              |
|     recommend setting the initial magnetic moment manually or verifying     |
|     carefully that this magnetic setup is desired.                          |

 POTCAR:    PAW_PBE C 08Apr2002
   VRHFIN =C: s2p2

   TITEL  = PAW_PBE C 08Apr2002
   POMASS =   12.011; ZVAL   =    4.000    mass and valenz
   ENMAX  =  400.000; ENMIN  =  300.000 eV

 POTCAR:    PAW_PBE Sn 08Apr2002
   VRHFIN =Sn: s2p2

[...]

 POTCAR:    PAW_PBE C 08Apr2002
   VRHFIN =C: s2p2

[...]

 POTCAR:    PAW_PBE Sn 08Apr2002
   VRHFIN =Sn: s2p2

   TITEL  = PAW_PBE Sn 08Apr2002
   POMASS =  118.710; ZVAL   =    4.000    mass and valenz
   ENMAX  =  103.236; ENMIN  =   77.427 eV

 Optimization of the real space projectors (new method)

 maximal supplied QI-value         = 25.13
 optimisation between [QCUT,QGAM] = [ 13.32, 26.89] = [ 49.69,202.52] Ry
 Optimized for a Real-space Cutoff    1.01 Angstroem

   l    n(q)    QCUT    max X(q) W(low)/X(q) W(high)/X(q)  e(spline)
   0      8    13.321   115.676    0.29E-03    0.42E-03    0.11E-06
   0      8    13.321    87.132    0.29E-03    0.42E-03    0.11E-06
   1      8    13.321     4.429    0.39E-03    0.33E-03    0.98E-07
   1      8    13.321     2.733    0.30E-03    0.26E-03    0.97E-07
 Optimization of the real space projectors (new method)

[...]

   l    n(q)    QCUT    max X(q) W(low)/X(q) W(high)/X(q)  e(spline)
   0     13    12.472    14.688    0.45E-04    0.45E-04    0.25E-05
   0     13    12.472     7.308    0.94E-04    0.11E-03    0.61E-05
   1     12    12.472    45.102    0.34E-03    0.14E-03    0.21E-05
   1     12    12.472    30.691    0.31E-03    0.13E-03    0.20E-05
   2     12    12.472     7.156    0.86E-04    0.11E-03    0.17E-05
 WARNING: PSMAXN for non-local potential too small
          PSMAXN should be >   13.5545592237991       NTYP=           2
 Optimization of the real space projectors (new method)

[...]

   l    n(q)    QCUT    max X(q) W(low)/X(q) W(high)/X(q)  e(spline)
   0     13    12.472    14.688    0.45E-04    0.45E-04    0.25E-05
   0     13    12.472     7.308    0.94E-04    0.11E-03    0.61E-05
   1     12    12.472    45.102    0.34E-03    0.14E-03    0.21E-05
   1     12    12.472    30.691    0.31E-03    0.13E-03    0.20E-05
   2     12    12.472     7.156    0.86E-04    0.11E-03    0.17E-05
 WARNING: PSMAXN for non-local potential too small
          PSMAXN should be >   13.5545592237991       NTYP=           6
 Optimization of the real space projectors (new method)

[...]

   l    n(q)    QCUT    max X(q) W(low)/X(q) W(high)/X(q)  e(spline)
   0      8    13.321   115.676    0.29E-03    0.42E-03    0.11E-06
   0      8    13.321    87.132    0.29E-03    0.42E-03    0.11E-06
   1      8    13.321     4.429    0.39E-03    0.33E-03    0.98E-07
   1      8    13.321     2.733    0.30E-03    0.26E-03    0.97E-07
 Optimization of the real space projectors (new method)

 maximal supplied QI-value         = 12.47
 optimisation between [QCUT,QGAM] = [ 12.47, 27.06] = [ 43.56,205.12] Ry
 Optimized for a Real-space Cutoff    1.58 Angstroem

   l    n(q)    QCUT    max X(q) W(low)/X(q) W(high)/X(q)  e(spline)
   0     13    12.472    14.688    0.45E-04    0.45E-04    0.25E-05
   0     13    12.472     7.308    0.94E-04    0.11E-03    0.61E-05
   1     12    12.472    45.102    0.34E-03    0.14E-03    0.21E-05
   1     12    12.472    30.691    0.31E-03    0.13E-03    0.20E-05
   2     12    12.472     7.156    0.86E-04    0.11E-03    0.17E-05
 WARNING: PSMAXN for non-local potential too small
          PSMAXN should be >   13.5545592237991       NTYP=           8
  PAW_PBE C 08Apr2002                   :
  PAW_PBE Sn 08Apr2002                  :
  PAW_PBE C 08Apr2002                   :
  PAW_PBE Sn 08Apr2002                  :
  PAW_PBE C 08Apr2002                   :
  PAW_PBE Sn 08Apr2002                  :
  PAW_PBE C 08Apr2002                   :
  PAW_PBE Sn 08Apr2002                  :

 POSCAR: C  Sn C  Sn C  Sn C  Sn
  positions in direct lattice

 exchange-correlation table for PE
   RHO(1)=    0.500       N(1)  =     2000
   RHO(2)=  100.500       N(2)  =     4000

 ion  position               nearest neighbor table
   1  0.000  0.000  0.000-   2 2.18   4 2.18   6 2.18   8 2.18
   2  0.250  0.250  0.250-   1 2.18   3 2.18   5 2.18   7 2.18   6 3.56   4 3.56   8 3.56   4 3.56
                             6 3.56   4 3.56   8 3.56   4 3.56   6 3.56   8 3.56   6 3.56   8 3.56
   3  0.000  0.500  0.500-   2 2.18   4 2.18   6 2.18   8 2.18
   4  0.250  0.750  0.750-   1 2.18   3 2.18   5 2.18   7 2.18   6 3.56   2 3.56   8 3.56   2 3.56
                             8 3.56   2 3.56   6 3.56   2 3.56   6 3.56   8 3.56   8 3.56   6 3.56
   5  0.500  0.000  0.500-   2 2.18   4 2.18   6 2.18   8 2.18
   6  0.750  0.250  0.750-   1 2.18   3 2.18   5 2.18   7 2.18   2 3.56   4 3.56   8 3.56   2 3.56
                             8 3.56   4 3.56   8 3.56   8 3.56   2 3.56   4 3.56   2 3.56   4 3.56
   7  0.500  0.500  0.000-   2 2.18   4 2.18   6 2.18   8 2.18
   8  0.750  0.750  0.250-   1 2.18   3 2.18   5 2.18   7 2.18   2 3.56   6 3.56   4 3.56   4 3.56
                             6 3.56   2 3.56   6 3.56   6 3.56   2 3.56   4 3.56   4 3.56   2 3.56

  LATTYP: Found a simple cubic cell.
 ALAT       =     5.0300000000

  Lattice vectors:

 A1 = (   5.0300000000,   0.0000000000,   0.0000000000)
 A2 = (   0.0000000000,   5.0300000000,   0.0000000000)
 A3 = (   0.0000000000,   0.0000000000,   5.0300000000)

Analysis of symmetry for initial positions (statically):
 Subroutine PRICEL returns:
 Original cell was already a primitive cell.

 Routine SETGRP: Setting up the symmetry group for a
 simple cubic supercell.

 Subroutine GETGRP returns: Found  1 space group operations
 (whereof  1 operations were pure point group operations)
 out of a pool of 48 trial point group operations.

The static configuration has the point symmetry C_1 .

Analysis of symmetry for dynamics (positions and initial velocities):
 Subroutine PRICEL returns:
 Original cell was already a primitive cell.

[...]

The dynamic configuration has the point symmetry C_1 .

Analysis of structural, dynamic, and magnetic symmetry:
 Subroutine PRICEL returns:
 Original cell was already a primitive cell.

 Routine SETGRP: Setting up the symmetry group for a
 simple cubic supercell.

 Subroutine GETGRP returns: Found  1 space group operations
 (whereof  1 operations were pure point group operations)
 out of a pool of 48 trial point group operations.

The overall configuration has the point symmetry C_1 .

 Subroutine INISYM returns: Found  1 space group operations
 (whereof  1 operations are pure point group operations),
 and found     1 'primitive' translations

                                     Primitive cell

  volume of cell :     127.2635

  direct lattice vectors                    reciprocal lattice vectors
     5.030000000  0.000000000  0.000000000     0.198807157  0.000000000  0.000000000
     0.000000000  5.030000000  0.000000000     0.000000000  0.198807157  0.000000000
     0.000000000  0.000000000  5.030000000     0.000000000  0.000000000  0.198807157

  length of vectors
     5.030000000  5.030000000  5.030000000     0.198807157  0.198807157  0.198807157

  position of ions in fractional coordinates (direct lattice)
     0.000000000  0.000000000  0.000000000
     0.250000000  0.250000000  0.250000000
     0.000000000  0.500000000  0.500000000
     0.250000000  0.750000000  0.750000000
     0.500000000  0.000000000  0.500000000
     0.750000000  0.250000000  0.750000000
     0.500000000  0.500000000  0.000000000
     0.750000000  0.750000000  0.250000000

  ion indices of the primitive-cell ions
   primitive index   ion index
                 1           1
                 2           2
                 3           3
                 4           4
                 5           5
                 6           6
                 7           7
                 8           8

 KPOINTS: Automatic KPOINTS generated

Automatic generation of k-mesh.
 Grid dimensions read from file:
 generate k-points for:    6    6    6

 Generating k-lattice:

  Cartesian coordinates                     Fractional coordinates (reciprocal lattice)
     0.033134526  0.000000000  0.000000000     0.166666667  0.000000000  0.000000000
     0.000000000  0.033134526  0.000000000     0.000000000  0.166666667  0.000000000
     0.000000000  0.000000000  0.033134526     0.000000000  0.000000000  0.166666667

  Length of vectors
     0.033134526  0.033134526  0.033134526

  Shift w.r.t. Gamma in fractional coordinates (k-lattice)
     0.000000000  0.000000000  0.000000000

 Subroutine IBZKPT returns following result:

 Found    112 irreducible k-points:

 Following reciprocal coordinates:
            Coordinates               Weight
  0.000000  0.000000  0.000000      1.000000
  0.166667  0.000000  0.000000      2.000000
  0.000000  0.166667  0.000000      2.000000
  0.000000  0.000000  0.166667      2.000000
  0.333333  0.000000  0.000000      2.000000
  0.000000  0.333333  0.000000      2.000000
  0.000000  0.000000  0.333333      2.000000
  0.500000  0.000000  0.000000      1.000000
  0.000000  0.500000  0.000000      1.000000
  0.000000  0.000000  0.500000      1.000000
  0.166667  0.166667  0.000000      2.000000
  0.000000  0.166667  0.166667      2.000000
  0.166667  0.000000  0.166667      2.000000
 -0.166667  0.166667  0.000000      2.000000
 -0.166667  0.000000  0.166667      2.000000
  0.000000 -0.166667  0.166667      2.000000
[...]
   0.75000000  0.25000000  0.75000000
   0.50000000  0.50000000  0.00000000
   0.75000000  0.75000000  0.25000000

 position of ions in cartesian coordinates  (Angst):
   0.00000000  0.00000000  0.00000000
   1.25750000  1.25750000  1.25750000
   0.00000000  2.51500000  2.51500000
   1.25750000  3.77250000  3.77250000
   2.51500000  0.00000000  2.51500000
   3.77250000  1.25750000  3.77250000
   2.51500000  2.51500000  0.00000000
   3.77250000  3.77250000  1.25750000

 k-point     1 :   0.0000 0.0000 0.0000  plane waves:    5377
 k-point     2 :   0.1667 0.0000 0.0000  plane waves:    5354
 k-point     3 :   0.0000 0.1667 0.0000  plane waves:    5354
 k-point     4 :   0.0000 0.0000 0.1667  plane waves:    5354
 k-point     5 :   0.3333 0.0000 0.0000  plane waves:    5338
 k-point     6 :   0.0000 0.3333 0.0000  plane waves:    5338
 k-point     7 :   0.0000 0.0000 0.3333  plane waves:    5338
 k-point     8 :   0.5000 0.0000 0.0000  plane waves:    5358
 k-point     9 :   0.0000 0.5000 0.0000  plane waves:    5358
 k-point    10 :   0.0000 0.0000 0.5000  plane waves:    5358
 k-point    11 :   0.1667 0.1667 0.0000  plane waves:    5355
 k-point    12 :   0.0000 0.1667 0.1667  plane waves:    5355
 k-point    13 :   0.1667 0.0000 0.1667  plane waves:    5355
 k-point    14 :  -0.1667 0.1667 0.0000  plane waves:    5355
 k-point    15 :  -0.1667 0.0000 0.1667  plane waves:    5355
 k-point    16 :   0.0000-0.1667 0.1667  plane waves:    5355
 k-point    17 :   0.3333 0.1667 0.0000  plane waves:    5336
 k-point    18 :   0.0000 0.3333 0.1667  plane waves:    5336
 k-point    19 :   0.1667 0.0000 0.3333  plane waves:    5336
 k-point    20 :  -0.1667 0.3333 0.0000  plane waves:    5336
 k-point    21 :  -0.3333 0.0000 0.1667  plane waves:    5336
 k-point    22 :   0.0000 0.1667 0.3333  plane waves:    5336
 k-point    23 :   0.0000-0.3333 0.1667  plane waves:    5336
 k-point    24 :  -0.1667 0.0000 0.3333  plane waves:    5336
 k-point    25 :   0.3333 0.0000 0.1667  plane waves:    5336
 k-point    26 :   0.0000-0.1667 0.3333  plane waves:    5336
 k-point    27 :   0.3333-0.1667 0.0000  plane waves:    5336
 k-point    28 :   0.1667 0.3333 0.0000  plane waves:    5336
 k-point    29 :   0.5000 0.1667 0.0000  plane waves:    5356
 k-point    30 :   0.0000 0.5000 0.1667  plane waves:    5356
 k-point    31 :   0.1667 0.0000 0.5000  plane waves:    5356
 k-point    32 :  -0.1667 0.5000 0.0000  plane waves:    5356
 k-point    33 :   0.5000 0.0000 0.1667  plane waves:    5356
 k-point    34 :   0.0000 0.1667 0.5000  plane waves:    5356
 k-point    35 :   0.3333 0.3333 0.0000  plane waves:    5340
 k-point    36 :   0.0000 0.3333 0.3333  plane waves:    5340
 k-point    37 :   0.3333 0.0000 0.3333  plane waves:    5340
 k-point    38 :  -0.3333 0.3333 0.0000  plane waves:    5340
 k-point    39 :  -0.3333 0.0000 0.3333  plane waves:    5340
 k-point    40 :   0.0000-0.3333 0.3333  plane waves:    5340
 k-point    41 :   0.5000 0.3333 0.0000  plane waves:    5356
 k-point    42 :   0.0000 0.5000 0.3333  plane waves:    5356
 k-point    43 :   0.3333 0.0000 0.5000  plane waves:    5356
 k-point    44 :  -0.3333 0.5000 0.0000  plane waves:    5356
 k-point    45 :   0.5000 0.0000 0.3333  plane waves:    5356
 k-point    46 :   0.0000 0.3333 0.5000  plane waves:    5356
 k-point    47 :   0.5000 0.5000 0.0000  plane waves:    5360
 k-point    48 :   0.0000 0.5000 0.5000  plane waves:    5360
 k-point    49 :   0.5000 0.0000 0.5000  plane waves:    5360
 k-point    50 :   0.1667 0.1667 0.1667  plane waves:    5335
 k-point    51 :  -0.1667 0.1667 0.1667  plane waves:    5335
 k-point    52 :  -0.1667-0.1667 0.1667  plane waves:    5335
 k-point    53 :   0.1667-0.1667 0.1667  plane waves:    5335
 k-point    54 :   0.3333 0.1667 0.1667  plane waves:    5333
 k-point    55 :   0.1667 0.3333 0.1667  plane waves:    5333
 k-point    56 :   0.1667 0.1667 0.3333  plane waves:    5333
 k-point    57 :  -0.1667 0.3333 0.1667  plane waves:    5333
 k-point    58 :  -0.3333 0.1667 0.1667  plane waves:    5333
 k-point    59 :  -0.1667 0.1667 0.3333  plane waves:    5333
 k-point    60 :  -0.3333-0.1667 0.1667  plane waves:    5333
[...]
 k-point    98 :   0.5000 0.1667 0.5000  plane waves:    5352
 k-point    99 :   0.3333 0.3333 0.3333  plane waves:    5364
 k-point   100 :  -0.3333 0.3333 0.3333  plane waves:    5364
 k-point   101 :  -0.3333-0.3333 0.3333  plane waves:    5364
 k-point   102 :   0.3333-0.3333 0.3333  plane waves:    5364
 k-point   103 :   0.5000 0.3333 0.3333  plane waves:    5346
 k-point   104 :   0.3333 0.5000 0.3333  plane waves:    5346
 k-point   105 :   0.3333 0.3333 0.5000  plane waves:    5346
 k-point   106 :  -0.3333 0.5000 0.3333  plane waves:    5346
 k-point   107 :  -0.3333 0.3333 0.5000  plane waves:    5346
 k-point   108 :   0.5000-0.3333 0.3333  plane waves:    5346
 k-point   109 :   0.5000 0.5000 0.3333  plane waves:    5388
 k-point   110 :   0.3333 0.5000 0.5000  plane waves:    5388
 k-point   111 :   0.5000 0.3333 0.5000  plane waves:    5388
 k-point   112 :   0.5000 0.5000 0.5000  plane waves:    5400

 maximum and minimum number of plane-waves per node :       367      310

 maximum number of plane-waves:      5400
 maximum index in each direction:
   IXMAX=   11   IYMAX=   11   IZMAX=   10
   IXMIN=  -11   IYMIN=  -11   IZMIN=  -11

 real space projection operators:
  max/ min on nodes  :        226.58        147.73

 parallel 3D FFT for wavefunctions:
    minimum data exchange during FFTs selected (reduces bandwidth)
 parallel 3D FFT for charge:
    minimum data exchange during FFTs selected (reduces bandwidth)

 Broyden mixing: mesh for mixing (old mesh)
   NGX = 21   NGY = 21   NGZ = 21
  (NGX  = 72   NGY  = 72   NGZ  = 72)
  gives a total of   9261 points

 initial charge density was supplied:
 charge density of overlapping atoms calculated
 number of electron      32.0000000 magnetization       1.0000000
 keeping initial charge density in first step

 Maximum index for non-local projection operator          467
 Maximum index for augmentation-charges         4866 (set IRDMAX)

 First call to EWALD:  gamma=   0.352
 Maximum number of real-space cells 3x 3x 3
 Maximum number of reciprocal cells 3x 3x 3

--------------------------------------- Ionic step        1  -------------------------------------------

--------------------------------------- Iteration      1(   1)  ---------------------------------------

 eigenvalue-minimisations  :  8960
 total energy-change (2. order) : 0.1507043E+03  (-0.1563268E+04)
 number of electron      32.0000000 magnetization       1.0000000
 augmentation part       32.0000000 magnetization       1.0000000

 Free energy of the ion-electron system (eV)
  alpha Z        PSCENC =        52.10951930
  Ewald energy   TEWEN  =      -986.95823851
  -Hartree energ DENC   =      -114.82128061
  -exchange      EXHF   =         0.00000000
  -V(xc)+E(xc)   XCENC  =      -421.27947274
  PAW double counting   =      1191.73592530     -698.59780513
  entropy T*S    EENTRO =        -0.00009895
  eigenvalues    EBANDS =       163.56082024
  atomic energy  EATOM  =       964.95496257
  Solvation  Ediel_sol  =         0.00000000
  free energy    TOTEN  =       150.70433147 eV

  energy without entropy =      150.70443041  energy(sigma->0) =      150.70438094

[...]

 eigenvalue-minimisations  : 12352
 total energy-change (2. order) :-0.1879681E+03  (-0.1810002E+03)
 number of electron      32.0000000 magnetization       1.0000000
 augmentation part       32.0000000 magnetization       1.0000000

[...]

 Broyden mixing:
  rms(total) = 0.15003E+01    rms(broyden)= 0.15003E+01
  rms(prec ) = 0.32692E+01
  weight for this iteration     100.00

[...]

 eigenvalues of (default mixing * dielectric matrix)
  average eigenvalue GAMMA=   0.7062
  0.7062

[...]

 eigenvalue-minimisations  :  8404
 total energy-change (2. order) : 0.7607621E-06  (-0.3784977E-07)
 number of electron      32.0000000 magnetization       1.0000000
 augmentation part       -3.7176176 magnetization       0.0034876

 Broyden mixing:
  rms(total) = 0.17511E-03    rms(broyden)= 0.17511E-03
  rms(prec ) = 0.31633E-03
  weight for this iteration     100.00

 eigenvalues of (default mixing * dielectric matrix)
  average eigenvalue GAMMA=   0.9573
  2.0935  1.6679  1.2921  1.2921  0.7638  0.7638  0.6706  0.5745  0.4835  0.4835
  0.4451

[...]

--------------------------------------- Iteration      1(  17)  ---------------------------------------

 eigenvalue-minimisations  :  7436
 total energy-change (2. order) :-0.1795775E-07  (-0.3259027E-07)
 number of electron      32.0000000 magnetization       1.0000000
 augmentation part       -3.7176176 magnetization       0.0034876

 Free energy of the ion-electron system (eV)
  alpha Z        PSCENC =        52.10951930
  Ewald energy   TEWEN  =      -986.95823851
  -Hartree energ DENC   =      -157.08660241
  -exchange      EXHF   =         0.00000000
  -V(xc)+E(xc)   XCENC  =      -416.27351226
  PAW double counting   =      2664.53285268    -2174.37562571
  entropy T*S    EENTRO =        -0.00053516
  eigenvalues    EBANDS =         8.65770446
  atomic energy  EATOM  =       964.95496257
  Solvation  Ediel_sol  =         0.00000000
  free energy    TOTEN  =       -44.43947504 eV

  energy without entropy =      -44.43893988  energy(sigma->0) =      -44.43920746

 average (electrostatic) potential at core
  the test charge radii are     0.6991  1.4072  0.6991  1.4072  0.6991  1.4072  0.6991  1.4072
  (the norm of the test charge is              1.0000)
       1 -48.4936       2 -42.9028       3 -48.4936       4 -42.9028       5 -48.4936
       6 -42.9028       7 -48.4936       8 -42.9028

 E-fermi :   5.2033     XC(G=0): -10.7653     alpha+bet :-12.2144

 val. band max:        7.9904424506   @ k =   0.1667   0.1667   0.1667
 cond. band min:       5.2046730261   @ k =  -0.1667   0.1667   0.0000
 fundamental gap:     -2.7857694246
 Fermi energy:         7.9950442132

 spin component 1

 k-point     1 :       0.0000    0.0000    0.0000
  band No.  band energies     occupation
      1      -8.1767      1.00000
      2      -4.3731      1.00000
      3      -4.3731      1.00000
      4      -4.3731      1.00000
      5      -1.5870      1.00000
      6      -1.5870      1.00000
      7      -1.5870      1.00000
      8       2.6584      1.00000
      9       2.6584      1.00000
     10       2.6584      1.00000
     11       2.6584      1.00000
     12       2.6584      1.00000
     13       2.6584      1.00000
     14       5.6573      1.00000
     15       5.6573      1.00000
     16       5.6573      1.00000
     17       6.4775      1.00000
     18       6.9725      1.00000
     19       6.9725      1.00000
     20       6.9725      1.00000

[...]

 k-point   112 :       0.5000    0.5000    0.5000
  band No.  band energies     occupation
      1      -5.4908      1.00000
      2      -5.4908      1.00000
      3      -5.4908      1.00000
      4      -5.4908      1.00000
      5      -1.8593      1.00000
      6      -1.8593      1.00000
      7      -1.8593      1.00000
      8      -1.8593      1.00000
      9       4.4859      1.00000
     10       4.4859      1.00000
     11       4.4859      1.00000
     12       4.4859      1.00000
     13       4.4859      1.00000
     14       4.4859      1.00000
     15       4.4859      1.00000
     16       4.4859      1.00000
     17       8.0075      0.03908
     18       8.0075      0.03889
     19       8.0075      0.03885
     20       8.0075      0.03875
 Fermi energy:         5.2033481822

 spin component 2

[...]

 k-point   112 :       0.5000    0.5000    0.5000
  band No.  band energies     occupation
      1      -5.3264      1.00000
      2      -5.3264      1.00000
      3      -5.3264      1.00000
      4      -5.3264      1.00000
      5      -1.7115      1.00000
      6      -1.7114      1.00000
      7      -1.7114      1.00000
      8      -1.7114      1.00000
      9       4.6561      1.00000
     10       4.6561      1.00000
     11       4.6561      1.00000
     12       4.6561      1.00000
     13       4.6561      1.00000
     14       4.6561      1.00000
     15       4.6561      1.00000
     16       4.6561      1.00000
     17       8.1430      0.00000
     18       8.1430      0.00000
     19       8.1430      0.00000
     20       8.1430      0.00000

 soft charge-density along one line, spin component           1
         0         1         2         3         4         5         6         7         8         9
 total charge-density along one line

 soft charge-density along one line, spin component           2
         0         1         2         3         4         5         6         7         8         9
 total charge-density along one line

------------------------ aborting loop because EDIFF is reached ----------------------------------------

  FORCE on cell =-STRESS in cart. coord.  units (eV):
  Direction    XX          YY          ZZ          XY          YZ          ZX
  Alpha Z    52.10952    52.10952    52.10952
  Ewald    -328.98664  -328.98664  -328.98664     0.00000     0.00000     0.00000
  Hartree    52.36072    52.36072    52.36072     0.00000     0.00000     0.00000
  E(xc)    -131.82577  -131.82578  -131.82578    -0.00000     0.00000     0.00000
  Local    -115.96955  -115.96956  -115.96957    -0.00000     0.00000    -0.00000
  n-local   177.97211   177.97212   177.97212     0.00000    -0.00000     0.00000
  augment   -43.53560   -43.53560   -43.53560    -0.00000    -0.00000    -0.00000
  Kinetic   343.24538   343.24538   343.24538    -0.00000     0.00000    -0.00000
  Fock        0.00000     0.00000     0.00000     0.00000     0.00000     0.00000
  Total       5.37016     5.37016     5.37016    -0.00000     0.00000    -0.00000
  in kB      67.60738    67.60736    67.60729    -0.00003     0.00003    -0.00002

 VOLUME and BASIS-vectors are now :
  energy-cutoff  :      700.00
  volume of cell :      127.26
      direct lattice vectors                 reciprocal lattice vectors
     5.030000000  0.000000000  0.000000000     0.198807157  0.000000000  0.000000000
     0.000000000  5.030000000  0.000000000     0.000000000  0.198807157  0.000000000
     0.000000000  0.000000000  5.030000000     0.000000000  0.000000000  0.198807157

  length of vectors
     5.030000000  5.030000000  5.030000000     0.198807157  0.198807157  0.198807157

 FORCES acting on ions
    electron-ion (+dipol)            ewald-force                    non-local-force                 convergence-correction
   -.952E-05 0.490E-05 -.206E-05   -.320E-13 -.213E-13 -.355E-14   0.127E-05 -.108E-05 -.331E-06   0.765E-05 -.459E-05 0.191E-05
   -.828E-04 -.552E-03 -.255E-03   -.157E-13 -.180E-13 -.711E-14   0.266E-04 0.180E-03 0.105E-03   0.594E-04 0.341E-03 0.190E-03
   -.574E-05 -.642E-05 0.572E-05   -.178E-13 -.355E-14 0.000E+00   0.724E-06 0.186E-05 -.123E-05   0.522E-05 0.388E-05 -.410E-05
   -.829E-04 0.551E-03 0.255E-03   -.352E-16 -.178E-17 -.358E-14   0.263E-04 -.180E-03 -.105E-03   0.594E-04 -.341E-03 -.189E-03
   0.509E-05 0.546E-05 0.443E-05   0.000E+00 0.000E+00 0.355E-14   -.429E-06 -.759E-06 -.406E-06   -.406E-05 -.472E-05 -.409E-05
   0.821E-04 -.553E-03 0.254E-03   0.107E-13 0.271E-14 -.252E-16   -.255E-04 0.181E-03 -.105E-03   -.595E-04 0.342E-03 -.189E-03
   0.262E-05 -.640E-05 -.280E-05   0.178E-13 0.178E-13 0.711E-14   0.277E-06 0.188E-05 0.598E-06   -.252E-05 0.437E-05 0.239E-05
   0.830E-04 0.553E-03 -.256E-03   0.284E-13 0.213E-13 0.355E-14   -.264E-04 -.180E-03 0.106E-03   -.597E-04 -.341E-03 0.190E-03
   -.806E-05 -.342E-05 0.366E-05   -.854E-14 -.111E-14 -.607E-16   0.287E-05 0.340E-05 -.415E-08   0.597E-05 -.326E-06 -.322E-05

 POSITION                                       TOTAL-FORCE (eV/Angst)
      0.00000      0.00000      0.00000        -0.000001     -0.000001     -0.000001
      1.25750      1.25750      1.25750         0.000003     -0.000030      0.000040
      0.00000      2.51500      2.51500         0.000000     -0.000001      0.000000
      1.25750      3.77250      3.77250         0.000003      0.000031     -0.000039
      2.51500      0.00000      2.51500         0.000001      0.000000     -0.000000
      3.77250      1.25750      3.77250        -0.000003     -0.000030     -0.000040
      2.51500      2.51500      0.00000         0.000000     -0.000000      0.000000
      3.77250      3.77250      1.25750        -0.000003      0.000031      0.000039
    total drift:                                0.000001     -0.000000      0.000000

  FREE ENERGIE OF THE ION-ELECTRON SYSTEM (eV)
  free  energy   TOTEN  =       -44.43947504 eV

  energy  without entropy=      -44.43893988  energy(sigma->0) =      -44.43920746