 vasp.6.4.3 19Mar24 (build Oct 22 2024 11:23:12) complex

 executed on             LinuxIFC date 2025.04.30  09:35:57

 INCAR:
   SYSTEM = Si001 and Ge001 interface calculation
   ISTART = 0
   ICHARG = 2
   LWAVE = .FALSE.
   LREAL = AUTO
   ENCUT = 700
   ENAUG = 900
   ADDGRID = .TRUE.
   LMAXMIX = 6
   LASPH = .TRUE.
   LMIXTAU = .TRUE.
   NCORE = 16
   NELM = 100
   NBANDS = 106
   EDIFF = 1d-7
   AMIX = 0.6
   ISMEAR = 0
   SIGMA = 0.01
   NELECT = 176
   ISPIN = 2
   NUPDOWN = 1
   LVTOT = .FALSE.
   LVHAR = .TRUE.

 POTCAR:    PAW_PBE Si 05Jan2001
 POTCAR:    PAW_PBE Ge 05Jan2001
|           W    W    AA    RRRRR   N    N  II  N    N   GGGG   !!!           |
|           W    W   A  A   R    R  NN   N  II  NN   N  G    G  !!!           |
|           W    W  A    A  R    R  N N  N  II  N N  N  G       !!!           |
|           W WW W  AAAAAA  RRRRR   N  N N  II  N  N N  G  GGG   !            |
|           WW  WW  A    A  R   R   N   NN  II  N   NN  G    G                |
|           W    W  A    A  R    R  N    N  II  N    N   GGGG   !!!           |
|     You use a magnetic or noncollinear calculation, but did not specify     |
|     the initial magnetic moment with the MAGMOM tag. Note that a            |
|     default of 0.023 will be used for all atoms. This ferromagnetic         |
|     setup may break the symmetry of the crystal, in particular it may       |
|     rule out finding an antiferromagnetic solution. Thence, we              |
|     recommend setting the initial magnetic moment manually or verifying     |
|     carefully that this magnetic setup is desired.                          |

 POTCAR:    PAW_PBE Si 05Jan2001
   VRHFIN =Si: s2p2

   TITEL  = PAW_PBE Si 05Jan2001
   POMASS =   28.085; ZVAL   =    4.000    mass and valenz
   ENMAX  =  245.345; ENMIN  =  184.009 eV

 POTCAR:    PAW_PBE Ge 05Jan2001
   VRHFIN =Ge: s2p2

   TITEL  = PAW_PBE Ge 05Jan2001
   POMASS =   72.610; ZVAL   =    4.000    mass and valenz
   ENMAX  =  173.807; ENMIN  =  130.355 eV

 Optimization of the real space projectors (new method)

 maximal supplied QI-value         = 19.84
 optimisation between [QCUT,QGAM] = [ 13.49, 26.99] = [ 50.98,203.92] Ry
 Optimized for a Real-space Cutoff    1.07 Angstroem

   l    n(q)    QCUT    max X(q) W(low)/X(q) W(high)/X(q)  e(spline)
   0      9    13.493   159.560    0.22E-03    0.15E-03    0.72E-07
   0      9    13.493   115.863    0.21E-03    0.15E-03    0.71E-07
   1      8    13.493    88.339    0.15E-03    0.11E-03    0.13E-06
   1      8    13.493    48.592    0.15E-03    0.10E-03    0.13E-06
 Optimization of the real space projectors (new method)

 maximal supplied QI-value         = 16.25
 optimisation between [QCUT,QGAM] = [ 13.49, 26.98] = [ 50.95,203.80] Ry
 Optimized for a Real-space Cutoff    1.25 Angstroem

   l    n(q)    QCUT    max X(q) W(low)/X(q) W(high)/X(q)  e(spline)
   0     10    13.489    65.336    0.91E-04    0.11E-03    0.34E-06
   0     10    13.489    52.220    0.89E-04    0.11E-03    0.34E-06
   1     10    13.489    36.409    0.22E-03    0.27E-03    0.14E-06
   1     10    13.489    21.334    0.21E-03    0.27E-03    0.14E-06
   2      9    13.489     4.673    0.11E-03    0.12E-03    0.19E-06
  PAW_PBE Si 05Jan2001                  :
  PAW_PBE Ge 05Jan2001                  :

 POSCAR: fcc Si+fcc Ge
  positions in direct lattice

 exchange-correlation table for PE
   RHO(1)=    0.500       N(1)  =     2000
   RHO(2)=  100.500       N(2)  =     4000

 ion  position               nearest neighbor table
   1  0.000  0.000  0.000-  13 2.37  18 2.37  38 2.45  44 2.51  27 2.98  32 3.03
   2  0.500  0.000  0.093-  13 2.37  18 2.37  14 2.37  19 2.37
   3  0.000  0.000  0.186-  14 2.37  19 2.37  15 2.37  20 2.37
   4  0.500  0.000  0.279-  16 2.37  21 2.37  20 2.37  15 2.37
   5  0.000  0.000  0.372-  16 2.37  17 2.37  21 2.37  22 2.37
   6  0.500  0.000  0.465-  17 2.37  22 2.37  33 2.45  39 2.51  23 2.58
   7  0.500  0.500  0.000-  13 2.37  18 2.37  44 2.45  38 2.51  32 2.98  27 3.03
   8  0.000  0.500  0.093-  13 2.37  18 2.37  14 2.37  19 2.37
   9  0.500  0.500  0.186-  14 2.37  19 2.37  15 2.37  20 2.37
  10  0.000  0.500  0.279-  16 2.37  21 2.37  20 2.37  15 2.37
  11  0.500  0.500  0.372-  16 2.37  17 2.37  21 2.37  22 2.37
  12  0.000  0.500  0.465-  17 2.37  22 2.37  39 2.45  33 2.51  28 2.58
  13  0.250  0.250  0.047-   2 2.37   8 2.37   7 2.37   1 2.37  38 2.95  44 3.00
  14  0.750  0.250  0.140-   3 2.37   9 2.37   8 2.37   2 2.37
  15  0.250  0.250  0.233-   3 2.37   9 2.37   4 2.37  10 2.37
  16  0.750  0.250  0.326-   4 2.37  10 2.37   5 2.37  11 2.37
  17  0.250  0.250  0.419-   6 2.37  12 2.37  11 2.37   5 2.37  33 2.54
  18  0.750  0.750  0.047-   2 2.37   8 2.37   7 2.37   1 2.37  44 2.95  38 3.00
  19  0.250  0.750  0.140-   3 2.37   9 2.37   8 2.37   2 2.37
  20  0.750  0.750  0.233-   3 2.37   9 2.37   4 2.37  10 2.37
  21  0.250  0.750  0.326-   4 2.37  10 2.37   5 2.37  11 2.37
  22  0.750  0.750  0.419-   6 2.37  12 2.37  11 2.37   5 2.37  39 2.54
  23  0.676  0.167  0.540-  33 2.40  34 2.40  39 2.40  40 2.40   6 2.58
  24  0.176  0.167  0.637-  35 2.40  41 2.40  40 2.40  34 2.40
  25  0.676  0.167  0.733-  35 2.40  41 2.40  36 2.40  42 2.40
  26  0.176  0.167  0.829-  36 2.40  42 2.40  37 2.40  43 2.40
  27  0.676  0.167  0.925-  38 2.40  44 2.40  43 2.40  37 2.40   1 2.98   7 3.03
  28  0.176  0.667  0.540-  33 2.40  34 2.40  39 2.40  40 2.40  12 2.58
  29  0.676  0.667  0.637-  35 2.40  41 2.40  40 2.40  34 2.40
  30  0.176  0.667  0.733-  35 2.40  41 2.40  36 2.40  42 2.40
  31  0.676  0.667  0.829-  36 2.40  42 2.40  37 2.40  43 2.40
  32  0.176  0.667  0.925-  38 2.40  44 2.40  43 2.40  37 2.40   7 2.98   1 3.03
  33  0.426  0.417  0.492-  23 2.40  28 2.40   6 2.45  12 2.51  17 2.54
  34  0.926  0.417  0.588-  23 2.40  28 2.40  24 2.40  29 2.40
  35  0.426  0.417  0.685-  24 2.40  25 2.40  29 2.40  30 2.40
  36  0.926  0.417  0.781-  26 2.40  31 2.40  30 2.40  25 2.40
  37  0.426  0.417  0.877-  27 2.40  32 2.40  31 2.40  26 2.40
  38  0.926  0.417  0.973-  27 2.40  32 2.40   1 2.45   7 2.51  13 2.95  18 3.00
  39  0.926  0.917  0.492-  23 2.40  28 2.40  12 2.45   6 2.51  22 2.54
  40  0.426  0.917  0.588-  23 2.40  28 2.40  24 2.40  29 2.40
  41  0.926  0.917  0.685-  24 2.40  25 2.40  29 2.40  30 2.40
  42  0.426  0.917  0.781-  26 2.40  31 2.40  30 2.40  25 2.40
  43  0.926  0.917  0.877-  27 2.40  32 2.40  31 2.40  26 2.40
  44  0.426  0.917  0.973-  27 2.40  32 2.40   7 2.45   1 2.51  18 2.95  13 3.00

  LATTYP: Found a simple tetragonal cell.
 ALAT       =     5.4800000000
 C/A-ratio  =     5.3740875912

  Lattice vectors:

 A1 = (   5.4800000000,   0.0000000000,   0.0000000000)
 A2 = (   0.0000000000,   5.4800000000,   0.0000000000)
 A3 = (   0.0000000000,   0.0000000000,  29.4500000000)

Analysis of symmetry for initial positions (statically):
 Subroutine PRICEL returns following result:

[...]

   2 primitive cells build up your supercell.

 Routine SETGRP: Setting up the symmetry group for a
 simple tetragonal supercell.

 Subroutine GETGRP returns: Found  1 space group operations
 (whereof  1 operations were pure point group operations)
 out of a pool of 16 trial point group operations.

The static configuration has the point symmetry C_1 .

Analysis of symmetry for dynamics (positions and initial velocities):
 Subroutine PRICEL returns following result:

[...]

The dynamic configuration has the point symmetry C_1 .

Analysis of structural, dynamic, and magnetic symmetry:
 Subroutine PRICEL returns following result:

  LATTYP: Found a simple tetragonal cell.
 ALAT       =     3.8749451609
 C/A-ratio  =     7.6001075569

  Lattice vectors:

 A1 = (   2.7400000000,  -2.7400000000,   0.0000000000)
 A2 = (   2.7400000000,   2.7400000000,   0.0000000000)
 A3 = (   0.0000000000,   0.0000000000,  29.4500000000)

   2 primitive cells build up your supercell.

 Routine SETGRP: Setting up the symmetry group for a
 simple tetragonal supercell.

 Subroutine GETGRP returns: Found  1 space group operations
 (whereof  1 operations were pure point group operations)
 out of a pool of 16 trial point group operations.

The overall configuration has the point symmetry C_1 .

 Subroutine INISYM returns: Found  1 space group operations
 (whereof  1 operations are pure point group operations),
 and found     2 'primitive' translations

                                     Primitive cell

  volume of cell :     442.1976

  direct lattice vectors                    reciprocal lattice vectors
     2.740000000 -2.740000000  0.000000000     0.182481752 -0.182481752  0.000000000
     2.740000000  2.740000000  0.000000000     0.182481752  0.182481752  0.000000000
     0.000000000  0.000000000 29.450000000     0.000000000  0.000000000  0.033955857

  length of vectors
     3.874945161  3.874945161 29.450000000     0.258068168  0.258068168  0.033955857

  position of ions in fractional coordinates (direct lattice)
     0.000000000  0.000000000  0.000000000
     0.500000000  0.500000000  0.093039049
     0.000000000  0.000000000  0.186078098
     0.500000000  0.500000000  0.279117148
     0.000000000  0.000000000  0.372156197
     0.500000000  0.500000000  0.465195246
     0.000000000  0.500000000  0.046519525
     0.500000000  1.000000000  0.139558574
     0.000000000  0.500000000  0.232597623
     0.500000000  1.000000000  0.325636672
     0.000000000  0.500000000  0.418675722
     0.509259259  0.842592593  0.540407470
     0.009259259  0.342592593  0.636502547
     0.509259259  0.842592593  0.732597623
     0.009259259  0.342592593  0.828692699
     0.509259259  0.842592593  0.924787776
     0.009259259  0.842592593  0.492359932
     0.509259259  0.342592593  0.588455008
     0.009259259  0.842592593  0.684550085
     0.509259259  0.342592593  0.780645161
     0.009259259  0.842592593  0.876740238
     0.509259259  0.342592593  0.972835314

  ion indices of the primitive-cell ions
   primitive index   ion index
                 1           1
                 2           2
                 3           3
                 4           4
                 5           5
                 6           6
                 7          13
                 8          14
                 9          15
                10          16
                11          17
                12          23
                13          24
                14          25
                15          26
                16          27
                17          39
                18          34
                19          41
                20          36
                21          43
                22          38

 KPOINTS: Automatic KPOINTS generated

Automatic generation of k-mesh.
 Grid dimensions read from file:
 generate k-points for:    6    6    1

 Generating k-lattice:

  Cartesian coordinates                     Fractional coordinates (reciprocal lattice)
     0.030413625  0.000000000  0.000000000     0.166666667  0.000000000  0.000000000
     0.000000000  0.030413625  0.000000000     0.000000000  0.166666667  0.000000000
     0.000000000  0.000000000  0.033955857     0.000000000  0.000000000  1.000000000

  Length of vectors
[...]
     17      -4.4972      1.00000
     18      -4.4833      1.00000
     19      -4.4381      1.00000
     20      -4.4344      1.00000
     21      -4.3467      1.00000
     22      -4.0702      1.00000
     23      -3.8525      1.00000
     24      -3.1455      1.00000
     25      -2.4010      1.00000
     26      -2.3679      1.00000
     27      -2.3642      1.00000
     28      -2.2530      1.00000
     29      -1.8890      1.00000
     30      -1.8853      1.00000
     31      -1.8526      1.00000
     32      -1.8230      1.00000
     33      -1.5349      1.00000
     34      -1.5193      1.00000
     35      -1.4479      1.00000
     36      -1.3827      1.00000
     37      -1.0466      1.00000
     38      -0.9938      1.00000
     39      -0.8965      1.00000
     40      -0.7303      1.00000
     41      -0.6479      1.00000
     42      -0.5892      1.00000
     43      -0.5612      1.00000
     44      -0.2784      1.00000
     45       1.2974      1.00000
     46       1.3373      1.00000
     47       1.4514      1.00000
     48       1.4646      1.00000
     49       1.5503      1.00000
     50       1.6109      1.00000
     51       1.6431      1.00000
     52       1.7923      1.00000
     53       1.9753      1.00000
     54       2.6647      1.00000
     55       2.6789      1.00000
     56       2.7072      1.00000
     57       2.8254      1.00000
     58       2.8804      1.00000
     59       2.9073      1.00000
     60       2.9865      1.00000
[...]
     92       6.0195      0.00000
     93       6.0634      0.00000
     94       6.2046      0.00000
     95       6.3346      0.00000
     96       6.6995      0.00000
     97       6.7892      0.00000
     98       6.9529      0.00000
     99       7.0437      0.00000
    100       7.1067      0.00000
    101       7.1525      0.00000
    102       7.2148      0.00000
    103       7.2554      0.00000
    104       7.2608      0.00000
    105       7.4587      0.00000
    106       7.5299      0.00000
 Fermi energy:         5.2737543007

 spin component 2

[...]

 k-point    20 :       0.5000    0.5000    0.0000
  band No.  band energies     occupation
      1      -7.0574      1.00000
      2      -6.2822      1.00000
      3      -6.2120      1.00000
      4      -6.1451      1.00000
      5      -5.8204      1.00000
      6      -5.7457      1.00000
      7      -5.7331      1.00000
      8      -5.6989      1.00000
      9      -5.6785      1.00000
     10      -5.6483      1.00000
     11      -5.6368      1.00000
     12      -5.5691      1.00000
     13      -5.1395      1.00000
     14      -4.6999      1.00000
     15      -4.5563      1.00000
     16      -4.5516      1.00000
     17      -4.4855      1.00000
     18      -4.4768      1.00000
     19      -4.4273      1.00000
     20      -4.4225      1.00000
     21      -4.3226      1.00000
     22      -4.0210      1.00000
     23      -3.8232      1.00000
     24      -3.1106      1.00000
     25      -2.3749      1.00000
     26      -2.3489      1.00000
     27      -2.3450      1.00000
     28      -2.2330      1.00000
     29      -1.8686      1.00000
     30      -1.8648      1.00000
     31      -1.8369      1.00000
     32      -1.8047      1.00000
     33      -1.5146      1.00000
     34      -1.5038      1.00000
     35      -1.4296      1.00000
     36      -1.3633      1.00000
     37      -1.0285      1.00000
     38      -0.9715      1.00000
     39      -0.8676      1.00000
     40      -0.7060      1.00000
     41      -0.6318      1.00000
     42      -0.5670      1.00000
     43      -0.5441      1.00000
     44      -0.2521      1.00000
     45       1.3216      1.00000
     46       1.3601      1.00000
     47       1.4754      1.00000
     48       1.4810      1.00000
     49       1.5745      1.00000
     50       1.6313      1.00000
     51       1.6613      1.00000
     52       1.8122      1.00000
     53       2.0142      1.00000
     54       2.6823      1.00000
     55       2.6979      1.00000
     56       2.7291      1.00000
     57       2.8409      1.00000
     58       2.8985      1.00000
     59       2.9235      1.00000
     60       3.0028      1.00000
[...]
     92       6.0590      0.00000
     93       6.1219      0.00000
     94       6.2489      0.00000
     95       6.3790      0.00000
     96       6.7221      0.00000
     97       6.8075      0.00000
     98       6.9769      0.00000
     99       7.0605      0.00000
    100       7.1493      0.00000
    101       7.1741      0.00000
    102       7.2328      0.00000
    103       7.2709      0.00000
    104       7.2850      0.00000
    105       7.4948      0.00000
    106       7.5600      0.00000

 soft charge-density along one line, spin component           1
         0         1         2         3         4         5         6         7         8         9
 total charge-density along one line

 soft charge-density along one line, spin component           2
         0         1         2         3         4         5         6         7         8         9
 total charge-density along one line

------------------------ aborting loop because EDIFF is reached ----------------------------------------

  FORCE on cell =-STRESS in cart. coord.  units (eV):
  Direction    XX          YY          ZZ          XY          YZ          ZX
  Alpha Z   246.04608   246.04608   246.04608
  Ewald   -1621.72665 -1615.73470 -1729.67901   -45.65651    49.91678    57.27242
  Hartree   167.54241   167.70147    38.38227   -10.81233    12.53878    14.43696
  E(xc)    -586.83709  -587.02740  -586.86459     0.15748     0.04673     0.05569
  Local    -673.79546  -679.77647  -433.68673    53.74461   -57.28786   -65.78141
  n-local  1304.77705  1306.66977  1304.98346    -2.09567     0.09148     0.11493
  augment  -102.84517  -102.92826  -102.93557     0.13762     0.07289     0.08403
  Kinetic  1302.74743  1301.83651  1312.92730    -2.44123     2.56351     2.66313
  Fock        0.00000     0.00000     0.00000     0.00000     0.00000     0.00000
  Total      35.90861    36.78701    49.17321    -6.96604     7.94231     8.84575
  in kB      65.05231    66.64364    89.08257   -12.61973    14.38835    16.02502

 VOLUME and BASIS-vectors are now :
  energy-cutoff  :      700.00
  volume of cell :      884.40
      direct lattice vectors                 reciprocal lattice vectors
     5.480000000  0.000000000  0.000000000     0.182481752  0.000000000  0.000000000
     0.000000000  5.480000000  0.000000000     0.000000000  0.182481752  0.000000000
     0.000000000  0.000000000 29.450000000     0.000000000  0.000000000  0.033955857

  length of vectors
     5.480000000  5.480000000 29.450000000     0.182481752  0.182481752  0.033955857

 FORCES acting on ions
    electron-ion (+dipol)            ewald-force                    non-local-force                 convergence-correction
   0.656E+01 0.877E+01 0.108E+02   -.589E+01 -.811E+01 -.974E+01   0.190E+00 -.197E+00 -.607E+00   -.336E-04 -.502E-04 0.273E-03
   -.102E+00 -.134E+00 -.149E+02   0.345E+00 0.404E+00 0.146E+02   0.492E-01 0.206E-01 0.557E+00   0.152E-04 0.334E-04 0.148E-02
   0.156E-01 0.179E-01 -.455E+01   -.337E-02 -.401E-02 0.451E+01   0.300E-01 0.279E-01 0.480E-01   -.159E-04 -.918E-05 0.180E-02
   -.714E-01 -.666E-01 0.441E+01   -.430E-02 -.482E-02 -.451E+01   0.691E-01 0.670E-01 0.583E-01   0.808E-05 0.666E-05 0.320E-02
   -.553E+00 -.575E+00 0.145E+02   0.423E+00 0.472E+00 -.145E+02   -.469E-01 -.526E-01 -.391E+00   0.126E-04 0.289E-04 0.339E-02
   0.109E+02 0.124E+02 -.623E+01   -.125E+02 -.138E+02 0.524E+01   0.199E+00 -.577E-01 0.232E+00   0.974E-04 0.208E-03 0.131E-02
   0.656E+01 0.877E+01 0.108E+02   -.589E+01 -.811E+01 -.974E+01   0.190E+00 -.197E+00 -.607E+00   -.431E-04 -.646E-04 0.261E-03
   -.102E+00 -.134E+00 -.149E+02   0.345E+00 0.404E+00 0.146E+02   0.492E-01 0.206E-01 0.557E+00   0.898E-05 0.241E-04 0.147E-02
   0.155E-01 0.179E-01 -.455E+01   -.337E-02 -.401E-02 0.451E+01   0.300E-01 0.279E-01 0.480E-01   -.593E-05 -.632E-05 0.180E-02
   -.714E-01 -.666E-01 0.441E+01   -.430E-02 -.482E-02 -.451E+01   0.691E-01 0.670E-01 0.583E-01   0.547E-05 0.105E-04 0.320E-02
   -.553E+00 -.575E+00 0.145E+02   0.423E+00 0.472E+00 -.145E+02   -.469E-01 -.526E-01 -.391E+00   0.976E-05 0.244E-04 0.338E-02
   0.109E+02 0.124E+02 -.623E+01   -.125E+02 -.138E+02 0.524E+01   0.199E+00 -.577E-01 0.232E+00   0.928E-04 0.192E-03 0.130E-02
   -.370E+01 -.317E+01 -.152E+02   0.229E+01 0.173E+01 0.172E+02   0.136E+01 0.135E+01 -.115E+01   0.431E-04 0.192E-04 0.136E-02
   -.200E+00 -.206E+00 -.893E+01   -.403E-01 -.344E-01 0.902E+01   0.178E+00 0.177E+00 -.579E-01   -.153E-04 -.162E-04 0.140E-02
   -.732E-01 -.747E-01 0.166E-01   -.925E-04 -.106E-03 -.703E-03   0.706E-01 0.720E-01 -.145E-01   0.110E-04 0.815E-05 0.249E-02
   -.725E-01 -.688E-01 0.889E+01   0.438E-01 0.388E-01 -.896E+01   0.709E-01 0.712E-01 0.113E+00   0.336E-05 -.752E-05 0.362E-02
   0.492E+01 0.445E+01 0.205E+02   -.476E+01 -.441E+01 -.221E+02   -.188E+00 -.757E-01 0.711E+00   0.373E-04 -.270E-04 0.251E-02
   -.370E+01 -.317E+01 -.152E+02   0.229E+01 0.173E+01 0.172E+02   0.136E+01 0.135E+01 -.115E+01   0.496E-04 0.198E-04 0.137E-02
   -.200E+00 -.206E+00 -.893E+01   -.403E-01 -.344E-01 0.902E+01   0.178E+00 0.177E+00 -.579E-01   -.142E-04 -.141E-04 0.140E-02
   -.732E-01 -.747E-01 0.166E-01   -.925E-04 -.106E-03 -.703E-03   0.706E-01 0.720E-01 -.145E-01   0.657E-05 0.315E-05 0.248E-02
   -.725E-01 -.688E-01 0.889E+01   0.438E-01 0.388E-01 -.896E+01   0.709E-01 0.712E-01 0.113E+00   0.871E-05 -.149E-04 0.362E-02
   0.492E+01 0.445E+01 0.205E+02   -.476E+01 -.441E+01 -.221E+02   -.188E+00 -.757E-01 0.711E+00   0.251E-04 -.166E-04 0.250E-02
   -.452E+01 -.415E+01 -.468E+02   0.442E+01 0.410E+01 0.475E+02   0.300E-01 -.251E-01 0.157E+00   -.542E-04 -.454E-05 -.553E-03
   0.536E-01 0.544E-01 -.220E+02   -.355E-01 -.315E-01 0.219E+02   -.617E-01 -.670E-01 0.156E-01   -.780E-05 0.140E-04 -.229E-02
   0.489E-01 0.537E-01 0.373E-01   0.679E-04 0.779E-04 0.487E-03   -.471E-01 -.415E-01 0.793E-02   0.476E-05 0.219E-05 -.325E-02
   0.168E+00 0.176E+00 0.221E+02   0.319E-01 0.272E-01 -.220E+02   -.147E+00 -.142E+00 -.636E-01   0.102E-04 0.131E-04 -.319E-02
   0.289E+01 0.239E+01 0.417E+02   -.213E+01 -.161E+01 -.430E+02   -.827E+00 -.836E+00 0.521E-01   -.219E-04 0.436E-05 -.207E-02
   -.452E+01 -.415E+01 -.468E+02   0.442E+01 0.410E+01 0.475E+02   0.300E-01 -.251E-01 0.157E+00   -.561E-04 -.224E-05 -.542E-03
   0.536E-01 0.544E-01 -.220E+02   -.355E-01 -.315E-01 0.219E+02   -.617E-01 -.670E-01 0.156E-01   -.178E-05 0.867E-05 -.229E-02
   0.489E-01 0.537E-01 0.373E-01   0.679E-04 0.779E-04 0.487E-03   -.471E-01 -.415E-01 0.793E-02   -.254E-05 0.274E-06 -.325E-02
   0.168E+00 0.176E+00 0.221E+02   0.319E-01 0.272E-01 -.220E+02   -.147E+00 -.142E+00 -.636E-01   0.646E-05 0.852E-05 -.318E-02
   0.289E+01 0.239E+01 0.417E+02   -.213E+01 -.161E+01 -.430E+02   -.827E+00 -.836E+00 0.521E-01   -.222E-05 0.199E-05 -.207E-02
   -.116E+02 -.130E+02 -.269E+02   0.127E+02 0.141E+02 0.258E+02   0.297E+00 0.472E+00 0.563E+00   -.201E-04 -.145E-03 0.666E-03
   0.593E+00 0.614E+00 -.337E+02   -.365E+00 -.407E+00 0.338E+02   -.456E-01 -.626E-01 0.450E+00   0.140E-05 -.127E-04 -.144E-02
   0.457E-01 0.424E-01 -.110E+02   0.325E-02 0.363E-02 0.110E+02   -.321E-01 -.395E-01 0.251E-01   -.398E-06 -.846E-05 -.292E-02
   -.246E-01 -.253E-01 0.110E+02   0.250E-02 0.298E-02 -.110E+02   -.329E-01 -.232E-01 -.940E-01   -.494E-05 -.991E-05 -.326E-02
   0.541E-01 0.976E-01 0.339E+02   -.292E+00 -.344E+00 -.339E+02   -.342E-01 -.220E-01 -.511E+00   -.108E-06 -.225E-04 -.291E-02
   -.627E+01 -.839E+01 0.220E+02   0.569E+01 0.794E+01 -.210E+02   -.167E+00 0.121E+00 -.148E+00   0.243E-04 0.307E-04 -.537E-03
   -.116E+02 -.130E+02 -.269E+02   0.127E+02 0.141E+02 0.258E+02   0.297E+00 0.472E+00 0.563E+00   -.404E-04 -.119E-03 0.670E-03
   0.593E+00 0.614E+00 -.337E+02   -.365E+00 -.407E+00 0.338E+02   -.456E-01 -.626E-01 0.450E+00   0.108E-04 -.217E-05 -.144E-02
   0.458E-01 0.424E-01 -.110E+02   0.325E-02 0.363E-02 0.110E+02   -.321E-01 -.395E-01 0.251E-01   -.444E-05 0.691E-05 -.292E-02
   -.247E-01 -.254E-01 0.110E+02   0.250E-02 0.298E-02 -.110E+02   -.329E-01 -.232E-01 -.940E-01   0.794E-05 0.575E-05 -.326E-02
   0.542E-01 0.976E-01 0.339E+02   -.292E+00 -.344E+00 -.339E+02   -.342E-01 -.220E-01 -.511E+00   -.175E-04 -.150E-04 -.292E-02
   -.627E+01 -.839E+01 0.220E+02   0.569E+01 0.794E+01 -.210E+02   -.167E+00 0.121E+00 -.148E+00   0.333E-04 0.382E-04 -.543E-03
   -.180E+01 -.148E+01 0.106E+00   -.533E-14 0.533E-14 0.426E-12   0.183E+01 0.148E+01 -.955E-01   0.172E-03 0.145E-03 0.211E-02

 POSITION                                       TOTAL-FORCE (eV/Angst)
      0.00000      0.00000      0.00000         0.854903      0.456712      0.496257
      2.74000      0.00000      2.74000         0.290966      0.290224      0.241922
      0.00000      0.00000      5.48000         0.041391      0.041661      0.005349
      2.74000      0.00000      8.22000        -0.007389     -0.004569     -0.033699
      0.00000      0.00000     10.96000        -0.177715     -0.155385     -0.394735
      2.74000      0.00000     13.70000        -1.313214     -1.441515     -0.755973
      2.74000      2.74000      0.00000         0.854903      0.456712      0.496257
      0.00000      2.74000      2.74000         0.290966      0.290224      0.241922
      2.74000      2.74000      5.48000         0.041391      0.041661      0.005349
      0.00000      2.74000      8.22000        -0.007389     -0.004569     -0.033699
      2.74000      2.74000     10.96000        -0.177715     -0.155385     -0.394735
      0.00000      2.74000     13.70000        -1.313214     -1.441515     -0.755973
      1.37000      1.37000      1.37000        -0.056623     -0.080733      0.918484
      4.11000      1.37000      4.11000        -0.062946     -0.063752      0.031421
      1.37000      1.37000      6.85000        -0.003429     -0.003006      0.003558
      4.11000      1.37000      9.59000         0.041527      0.040922      0.046692
      1.37000      1.37000     12.33000        -0.025058     -0.034358     -0.849325
      4.11000      4.11000      1.37000        -0.056623     -0.080733      0.918484
      1.37000      4.11000      4.11000        -0.062946     -0.063752      0.031421
      4.11000      4.11000      6.85000        -0.003429     -0.003006      0.003558
      1.37000      4.11000      9.59000         0.041527      0.040922      0.046692
      4.11000      4.11000     12.33000        -0.025058     -0.034358     -0.849325
      3.70407      0.91333     15.91500        -0.074388     -0.075960      0.893466
      0.96407      0.91333     18.74500        -0.044347     -0.044261     -0.020566
      3.70407      0.91333     21.57500         0.001070      0.012095      0.042151
      0.96407      0.91333     24.40500         0.051857      0.061085      0.032731
      3.70407      0.91333     27.23500        -0.065297     -0.058185     -1.202051
      0.96407      3.65333     15.91500        -0.074388     -0.075960      0.893466
      3.70407      3.65333     18.74500        -0.044347     -0.044261     -0.020566
      0.96407      3.65333     21.57500         0.001070      0.012095      0.042151
      3.70407      3.65333     24.40500         0.051857      0.061085      0.032731
      0.96407      3.65333     27.23500        -0.065297     -0.058185     -1.202051
      2.33407      2.28333     14.50000         1.419959      1.555420     -0.485479
      5.07407      2.28333     17.33000         0.182301      0.144467      0.612449
      2.33407      2.28333     20.16000         0.016151      0.006425      0.039621
      5.07407      2.28333     22.99000        -0.055744     -0.045751     -0.041800
      2.33407      2.28333     25.82000        -0.272930     -0.268158     -0.443704
      5.07407      2.28333     28.65000        -0.741045     -0.333380      0.863232
      5.07407      5.02333     14.50000         1.419959      1.555420     -0.485479
      2.33407      5.02333     17.33000         0.182301      0.144467      0.612449
      5.07407      5.02333     20.16000         0.016151      0.006425      0.039621
      2.33407      5.02333     22.99000        -0.055744     -0.045751     -0.041800
      5.07407      5.02333     25.82000        -0.272930     -0.268158     -0.443704
      2.33407      5.02333     28.65000        -0.741045     -0.333380      0.863232
    total drift:                                0.032411      0.006605      0.012873

  FREE ENERGIE OF THE ION-ELECTRON SYSTEM (eV)
  free  energy   TOTEN  =      -206.45559836 eV

  energy  without entropy=     -206.45481600  energy(sigma->0) =     -206.45520718