 vasp.6.4.3 19Mar24 (build Oct 22 2024 11:23:12) complex

 executed on             LinuxIFC date 2025.06.09  08:12:25

 INCAR:
   SYSTEM = Si and Ge interface calculation
   ISTART = 0
   ICHARG = 2
   LWAVE = .FALSE.
   LREAL = AUTO
   ENCUT = 700
   ENAUG = 900
   ADDGRID = .TRUE.
   LMAXMIX = 6
   LASPH = .TRUE.
   LMIXTAU = .TRUE.
   NCORE = 16
   NELM = 100
   NBANDS = 432
   EDIFF = 1d-7
   AMIX = 0.6
   ISMEAR = 0
   SIGMA = 0.01
   NELECT = 720
   ISPIN = 2
   NUPDOWN = 1
   LVTOT = .FALSE.
   LVHAR = .TRUE.

 POTCAR:    PAW_PBE Sn 08Apr2002
 POTCAR:    PAW_PBE Ge 05Jan2001
|           W    W    AA    RRRRR   N    N  II  N    N   GGGG   !!!           |
|           W    W   A  A   R    R  NN   N  II  NN   N  G    G  !!!           |
|           W    W  A    A  R    R  N N  N  II  N N  N  G       !!!           |
|           W WW W  AAAAAA  RRRRR   N  N N  II  N  N N  G  GGG   !            |
|           WW  WW  A    A  R   R   N   NN  II  N   NN  G    G                |
|           W    W  A    A  R    R  N    N  II  N    N   GGGG   !!!           |
|     You use a magnetic or noncollinear calculation, but did not specify     |
|     the initial magnetic moment with the MAGMOM tag. Note that a            |
|     default of 5.556e-3 will be used for all atoms. This ferromagnetic      |
|     setup may break the symmetry of the crystal, in particular it may       |
|     rule out finding an antiferromagnetic solution. Thence, we              |
|     recommend setting the initial magnetic moment manually or verifying     |
|     carefully that this magnetic setup is desired.                          |

 POTCAR:    PAW_PBE Sn 08Apr2002
   VRHFIN =Sn: s2p2

   TITEL  = PAW_PBE Sn 08Apr2002
   POMASS =  118.710; ZVAL   =    4.000    mass and valenz
   ENMAX  =  103.236; ENMIN  =   77.427 eV

 POTCAR:    PAW_PBE Ge 05Jan2001
   VRHFIN =Ge: s2p2

   TITEL  = PAW_PBE Ge 05Jan2001
   POMASS =   72.610; ZVAL   =    4.000    mass and valenz
   ENMAX  =  173.807; ENMIN  =  130.355 eV

 Optimization of the real space projectors (new method)

 maximal supplied QI-value         = 12.47
 optimisation between [QCUT,QGAM] = [ 12.47, 27.06] = [ 43.56,205.12] Ry
 Optimized for a Real-space Cutoff    1.58 Angstroem

   l    n(q)    QCUT    max X(q) W(low)/X(q) W(high)/X(q)  e(spline)
   0     13    12.472    14.688    0.45E-04    0.45E-04    0.25E-05
   0     13    12.472     7.308    0.94E-04    0.11E-03    0.61E-05
   1     12    12.472    45.102    0.34E-03    0.14E-03    0.21E-05
   1     12    12.472    30.691    0.31E-03    0.13E-03    0.20E-05
   2     12    12.472     7.156    0.86E-04    0.11E-03    0.17E-05
 WARNING: PSMAXN for non-local potential too small
          PSMAXN should be >   13.5545592237991       NTYP=           1
 Optimization of the real space projectors (new method)

 maximal supplied QI-value         = 16.25
 optimisation between [QCUT,QGAM] = [ 13.49, 26.98] = [ 50.95,203.80] Ry
 Optimized for a Real-space Cutoff    1.25 Angstroem

   l    n(q)    QCUT    max X(q) W(low)/X(q) W(high)/X(q)  e(spline)
   0     10    13.489    65.336    0.91E-04    0.11E-03    0.34E-06
   0     10    13.489    52.220    0.89E-04    0.11E-03    0.34E-06
   1     10    13.489    36.409    0.22E-03    0.27E-03    0.14E-06
   1     10    13.489    21.334    0.21E-03    0.27E-03    0.14E-06
   2      9    13.489     4.673    0.11E-03    0.12E-03    0.19E-06
  PAW_PBE Sn 08Apr2002                  :
  PAW_PBE Ge 05Jan2001                  :

 POSCAR: Sn+Ge
  positions in direct lattice

 exchange-correlation table for PE
   RHO(1)=    0.500       N(1)  =     2000
   RHO(2)=  100.500       N(2)  =     4000

 ion  position               nearest neighbor table
   1  0.983  0.652  0.000- 162 2.26  90 2.30  29 2.81  28 2.81
   2  0.783  0.486  0.083-  30 2.81  29 2.81  13 2.81
   3  0.583  0.319  0.167-  14 2.81  16 2.81  30 2.81 103 2.83 175 3.00
   4  0.983  0.319  0.000-  66 2.24  32 2.81  31 2.81
   5  0.783  0.152  0.083-  33 2.81  32 2.81  16 2.81
   6  0.583  0.986  0.167-  17 2.81  10 2.81  33 2.81  49 2.99
   7  0.983  0.986  0.000- 120 2.31  34 2.81  35 2.81
   8  0.783  0.819  0.083-  35 2.81  10 2.81  36 2.81
   9  0.583  0.652  0.167-  11 2.81  36 2.81  13 2.81 133 2.84
  10  0.633  0.902  0.042-   8 2.81   6 2.81  19 2.81 114 3.23  78 3.27
  11  0.433  0.736  0.125-  19 2.81   9 2.81  20 2.81
  12  0.233  0.569  0.208- 127 2.55  85 2.60  20 2.81  21 2.81 157 3.04
  13  0.633  0.569  0.042-  22 2.81   2 2.81   9 2.81 156 3.01  42 3.04
  14  0.433  0.402  0.125-   3 2.81  23 2.81  22 2.81
  15  0.233  0.236  0.208- 169 2.51  61 2.55  23 2.81  24 2.81  97 3.01
  16  0.633  0.236  0.042-   3 2.81  25 2.81   5 2.81
  17  0.433  0.069  0.125-  25 2.81   6 2.81  26 2.81
  18  0.233  0.902  0.208-  26 2.81  27 2.81  43 2.97 115 3.07
  19  0.483  0.819  0.000-  96 2.24  11 2.81  10 2.81
  20  0.283  0.652  0.083-  12 2.81  28 2.81  11 2.81
  21  0.083  0.486  0.167-  29 2.81  31 2.81  12 2.81  79 2.99
  22  0.483  0.486  0.000- 156 2.31  13 2.81  14 2.81
  23  0.283  0.319  0.083-  31 2.81  15 2.81  14 2.81
  24  0.083  0.152  0.167-  32 2.81  15 2.81  34 2.81 169 2.84
  25  0.483  0.152  0.000- 144 2.26  60 2.30  17 2.81  16 2.81
  26  0.283  0.986  0.083-  34 2.81  18 2.81  17 2.81
  27  0.083  0.819  0.167-  35 2.81  18 2.81  28 2.81  43 2.83 109 3.00
  28  0.133  0.736  0.042-  20 2.81   1 2.81  27 2.81
  29  0.933  0.569  0.125-  21 2.81   1 2.81   2 2.81
  30  0.733  0.402  0.208-   2 2.81   3 2.81 103 2.97 151 3.07
  31  0.133  0.402  0.042-  23 2.81   4 2.81  21 2.81 180 3.23  72 3.27
  32  0.933  0.236  0.125-   4 2.81  24 2.81   5 2.81
  33  0.733  0.069  0.208- 145 2.55  55 2.60   5 2.81   6 2.81 139 3.04
  34  0.133  0.069  0.042-  26 2.81   7 2.81  24 2.81 120 3.01 102 3.04
  35  0.933  0.902  0.125-  27 2.81   8 2.81   7 2.81
  36  0.733  0.736  0.208- 133 2.51  91 2.55   9 2.81   8 2.81  37 3.01
  37  0.820  0.634  0.317- 151 2.43 158 2.47 133 2.55  36 3.01
  38  0.570  0.634  0.432- 152 2.43 159 2.47 133 2.47 134 2.55
  39  0.320  0.634  0.547- 153 2.43 160 2.47 134 2.47 135 2.55
  40  0.070  0.634  0.662- 154 2.43 161 2.47 135 2.47 136 2.55
  41  0.820  0.634  0.777- 155 2.43 162 2.47 136 2.47 137 2.55
  42  0.570  0.634  0.892- 156 2.43 137 2.47 138 2.55  13 3.04
  43  0.153  0.801  0.317- 157 2.43 164 2.47 109 2.55  27 2.83  18 2.97
  44  0.903  0.801  0.432- 158 2.43 165 2.47 109 2.47 110 2.55
  45  0.653  0.801  0.547- 159 2.43 166 2.47 110 2.47 111 2.55
  46  0.403  0.801  0.662- 160 2.43 167 2.47 111 2.47 112 2.55
  47  0.153  0.801  0.777- 161 2.43 112 2.47 168 2.47 113 2.55
  48  0.903  0.801  0.892- 162 2.43 113 2.47 114 2.55
  49  0.486  0.967  0.317- 163 2.43 146 2.47 115 2.55   6 2.99
  50  0.236  0.967  0.432- 164 2.43 147 2.47 115 2.47 116 2.55
  51  0.986  0.967  0.547- 165 2.43 148 2.47 116 2.47 117 2.55
  52  0.736  0.967  0.662- 166 2.43 117 2.47 149 2.47 118 2.55
  53  0.486  0.967  0.777- 167 2.43 118 2.47 150 2.47 119 2.55
  54  0.236  0.967  0.892- 168 2.43 119 2.47 120 2.55
  55  0.820  0.134  0.317- 145 2.43 170 2.47 139 2.55  33 2.60
  56  0.570  0.134  0.432- 146 2.43 171 2.47 139 2.47 140 2.55
  57  0.320  0.134  0.547- 147 2.43 172 2.47 140 2.47 141 2.55
  58  0.070  0.134  0.662- 148 2.43 141 2.47 173 2.47 142 2.55
  59  0.820  0.134  0.777- 149 2.43 142 2.47 174 2.47 143 2.55
  60  0.570  0.134  0.892-  25 2.30 150 2.43 143 2.47 144 2.55
[...]
 166  0.736  0.842  0.662-  52 2.43  45 2.47  95 2.47  94 2.55
 167  0.486  0.842  0.777-  53 2.43  46 2.47  96 2.47  95 2.55
 168  0.236  0.842  0.892-  54 2.43  47 2.47  96 2.55
 169  0.153  0.176  0.317-  61 2.43  98 2.47  15 2.51  97 2.55  24 2.84
 170  0.903  0.176  0.432-  62 2.43  55 2.47  99 2.47  98 2.55
 171  0.653  0.176  0.547-  63 2.43  56 2.47 100 2.47  99 2.55
 172  0.403  0.176  0.662-  64 2.43  57 2.47 101 2.47 100 2.55
 173  0.153  0.176  0.777-  65 2.43  58 2.47 102 2.47 101 2.55
 174  0.903  0.176  0.892-  66 2.43  59 2.47 102 2.55
 175  0.486  0.342  0.317-  67 2.43 104 2.47 103 2.55   3 3.00
 176  0.236  0.342  0.432-  68 2.43  61 2.47 105 2.47 104 2.55
 177  0.986  0.342  0.547-  69 2.43  62 2.47 106 2.47 105 2.55
 178  0.736  0.342  0.662-  70 2.43 107 2.47  63 2.47 106 2.55
 179  0.486  0.342  0.777-  71 2.43  64 2.47 108 2.47 107 2.55
 180  0.236  0.342  0.892-  72 2.43  65 2.47 108 2.55  31 3.23

  LATTYP: Found a simple orthorhombic cell.
 ALAT       =    14.5102920530
 B/A-ratio  =     1.1994545697
 C/A-ratio  =     1.3416409335

  Lattice vectors:

 A1 = ( -14.5102920530,   0.0000000000,   0.0000000000)
 A2 = (   0.0000000000,   0.0000000000,  17.4044361110)
 A3 = (   0.0000000000,  19.4676017760,   0.0000000000)

Analysis of symmetry for initial positions (statically):
 Subroutine PRICEL returns following result:

  LATTYP: Found a base centered orthorhombic cell.
 ALAT       =    14.5102911824
 B/A-ratio  =     1.3416410140
 C/A-ratio  =     1.1994546417

[...]

   2 primitive cells build up your supercell.

 Routine SETGRP: Setting up the symmetry group for a
 simple orthorhombic supercell.

 Subroutine GETGRP returns: Found  1 space group operations
 (whereof  1 operations were pure point group operations)
 out of a pool of  8 trial point group operations.

The static configuration has the point symmetry C_1 .

Analysis of symmetry for dynamics (positions and initial velocities):
 Subroutine PRICEL returns following result:

[...]

The dynamic configuration has the point symmetry C_1 .

Analysis of structural, dynamic, and magnetic symmetry:
 Subroutine PRICEL returns following result:

  LATTYP: Found a base centered orthorhombic cell.
 ALAT       =    14.5102911824
 B/A-ratio  =     1.3416410140
 C/A-ratio  =     1.1994546417

  Lattice vectors:

 A1 = (   7.2551455912,  -9.7338020366,   0.0000000000)
 A2 = (   7.2551455912,   9.7337997394,   0.0000000000)
 A3 = (   0.0000000000,   0.0000000000,  17.4044361110)

   2 primitive cells build up your supercell.

 Routine SETGRP: Setting up the symmetry group for a
 simple orthorhombic supercell.

 Subroutine GETGRP returns: Found  1 space group operations
 (whereof  1 operations were pure point group operations)
 out of a pool of  8 trial point group operations.

The overall configuration has the point symmetry C_1 .

 Subroutine INISYM returns: Found  1 space group operations
 (whereof  1 operations are pure point group operations),
 and found     2 'primitive' translations

                                     Primitive cell

  volume of cell :    2458.2075

  direct lattice vectors                    reciprocal lattice vectors
     7.255145591 -9.733802037  0.000000000     0.068916596 -0.051367396  0.000000000
     7.255145591  9.733799739  0.000000000     0.068916613  0.051367396  0.000000000
     0.000000000  0.000000000 17.404436111     0.000000000  0.000000000  0.057456616

  length of vectors
    12.140182850 12.140181008 17.404436111     0.085954096  0.085954109  0.057456616

  position of ions in fractional coordinates (direct lattice)
     0.330484273  0.635327097  0.000000007
     0.297150925  0.268660327  0.083371289
     0.263817365  0.901993349  0.166742578
     0.663817557  0.301993813  0.000000007
[...]
     0.000000000  0.000000000 17.404436111     0.000000000  0.000000000  0.057456616

  length of vectors
    14.510292053 19.467601776 17.404436111     0.068916600  0.051367396  0.057456616

 FORCES acting on ions
    electron-ion (+dipol)            ewald-force                    non-local-force                 convergence-correction
   0.124E+02 0.320E+00 -.858E+02   -.128E+02 -.111E+01 0.873E+02   -.157E+00 0.277E+00 0.658E+01   0.430E-04 -.158E-03 -.628E-04
   -.788E+01 0.877E+01 -.184E+01   0.837E+01 -.941E+01 0.203E+01   -.112E+00 0.512E+00 -.149E+01   -.220E-05 -.712E-04 -.673E-04
   0.504E+01 0.960E+01 0.426E+02   -.504E+01 -.995E+01 -.436E+02   -.530E+00 0.273E+00 0.962E+00   0.196E-04 0.787E-04 -.271E-04
   -.656E+01 -.104E+02 -.650E+02   0.719E+01 0.100E+02 0.656E+02   0.212E+01 0.115E+01 0.380E+01   -.114E-04 0.345E-04 -.932E-04
   -.457E+01 0.108E+02 0.290E+01   0.506E+01 -.114E+02 -.342E+01   0.109E+00 0.250E+00 -.386E+00   0.395E-04 0.142E-03 -.537E-04
   -.131E+01 0.688E+01 0.284E+02   0.129E+01 -.729E+01 -.286E+02   -.852E+00 0.503E+00 0.139E+01   0.856E-05 0.423E-04 -.229E-04
   0.288E+02 0.835E+01 -.620E+02   -.299E+02 -.873E+01 0.622E+02   -.173E+01 -.582E+00 0.268E+01   0.289E-04 0.113E-03 -.483E-04
   -.566E+01 0.109E+02 -.751E+01   0.593E+01 -.116E+02 0.723E+01   0.446E-01 0.507E+00 -.671E+00   -.308E-04 -.535E-04 -.370E-05
   0.122E+02 0.140E+02 0.311E+02   -.126E+02 -.153E+02 -.319E+02   0.763E-01 0.962E+00 0.145E+01   -.254E-04 -.111E-03 -.410E-04
   0.248E+01 -.584E+01 -.336E+02   -.173E+01 0.639E+01 0.339E+02   -.747E+00 -.246E+00 -.118E+01   -.388E-04 -.280E-04 0.137E-05
   0.629E+01 -.995E+01 -.360E+01   -.676E+01 0.102E+02 0.406E+01   0.306E+00 0.342E+00 0.295E+00   0.106E-04 -.119E-03 -.714E-04
   0.485E+01 0.796E+01 0.689E+02   -.533E+01 -.853E+01 -.698E+02   -.778E+00 0.430E+00 -.499E+00   0.232E-04 -.963E-04 -.158E-04
   -.118E+02 -.141E+02 -.398E+02   0.113E+02 0.138E+02 0.397E+02   0.558E+00 0.113E+01 0.967E-01   -.536E-04 -.110E-03 -.751E-04
   0.732E+01 -.100E+02 0.720E+01   -.805E+01 0.101E+02 -.628E+01   0.630E+00 0.501E+00 -.448E+00   0.369E-05 0.302E-04 -.487E-04
   -.286E+02 -.727E+01 0.712E+02   0.291E+02 0.765E+01 -.725E+02   0.195E+01 0.423E+00 -.106E+01   -.320E-04 0.114E-03 -.252E-04
   -.672E+01 -.116E+02 -.246E+02   0.667E+01 0.124E+02 0.243E+02   0.453E+00 -.612E-02 -.542E+00   0.412E-04 0.104E-03 -.516E-04
   0.423E+01 -.118E+02 0.371E+01   -.452E+01 0.121E+02 -.235E+01   0.241E+00 0.653E-01 -.942E+00   0.226E-04 0.712E-04 -.353E-04
   -.123E+02 -.108E+01 0.493E+02   0.131E+02 0.736E+00 -.498E+02   -.672E-01 0.608E+00 0.129E+01   0.103E-04 0.119E-05 -.155E-04
   -.656E+01 -.104E+02 -.650E+02   0.719E+01 0.100E+02 0.656E+02   0.212E+01 0.115E+01 0.380E+01   -.326E-04 -.105E-03 -.609E-04
   -.457E+01 0.108E+02 0.290E+01   0.506E+01 -.114E+02 -.342E+01   0.109E+00 0.250E+00 -.386E+00   0.270E-04 -.111E-03 -.674E-04
   -.131E+01 0.688E+01 0.284E+02   0.129E+01 -.729E+01 -.286E+02   -.852E+00 0.503E+00 0.139E+01   -.681E-06 -.631E-04 -.605E-04
   0.288E+02 0.835E+01 -.620E+02   -.299E+02 -.873E+01 0.622E+02   -.173E+01 -.582E+00 0.268E+01   0.128E-04 -.518E-06 -.677E-04
   -.566E+01 0.109E+02 -.751E+01   0.593E+01 -.116E+02 0.723E+01   0.446E-01 0.507E+00 -.671E+00   -.367E-04 0.920E-04 -.644E-04
   0.122E+02 0.140E+02 0.311E+02   -.126E+02 -.153E+02 -.319E+02   0.763E-01 0.962E+00 0.145E+01   -.376E-04 0.130E-03 -.521E-04
   0.124E+02 0.320E+00 -.858E+02   -.128E+02 -.111E+01 0.873E+02   -.157E+00 0.277E+00 0.658E+01   0.218E-04 0.117E-03 -.582E-04
   -.788E+01 0.877E+01 -.184E+01   0.837E+01 -.941E+01 0.203E+01   -.112E+00 0.512E+00 -.149E+01   -.286E-05 0.466E-04 -.708E-04
   0.504E+01 0.960E+01 0.426E+02   -.504E+01 -.995E+01 -.436E+02   -.530E+00 0.273E+00 0.962E+00   0.488E-05 -.698E-04 -.584E-04
   -.672E+01 -.116E+02 -.246E+02   0.667E+01 0.124E+02 0.243E+02   0.453E+00 -.612E-02 -.542E+00   0.391E-04 -.128E-03 -.696E-04
   0.423E+01 -.118E+02 0.371E+01   -.452E+01 0.121E+02 -.235E+01   0.241E+00 0.653E-01 -.942E+00   0.146E-04 -.132E-03 -.514E-04
   -.123E+02 -.108E+01 0.493E+02   0.131E+02 0.736E+00 -.498E+02   -.672E-01 0.608E+00 0.129E+01   -.593E-05 0.341E-05 -.149E-04
   0.248E+01 -.584E+01 -.336E+02   -.173E+01 0.639E+01 0.339E+02   -.747E+00 -.246E+00 -.118E+01   -.349E-04 -.974E-05 -.930E-04
   0.629E+01 -.995E+01 -.360E+01   -.676E+01 0.102E+02 0.406E+01   0.306E+00 0.342E+00 0.295E+00   0.988E-05 0.103E-03 -.104E-03
   0.485E+01 0.796E+01 0.689E+02   -.533E+01 -.853E+01 -.698E+02   -.778E+00 0.430E+00 -.499E+00   0.153E-04 0.996E-04 -.919E-05
   -.118E+02 -.141E+02 -.398E+02   0.113E+02 0.138E+02 0.397E+02   0.558E+00 0.113E+01 0.967E-01   -.521E-04 0.113E-03 -.732E-04
   0.732E+01 -.100E+02 0.720E+01   -.805E+01 0.101E+02 -.628E+01   0.630E+00 0.501E+00 -.448E+00   -.112E-04 0.185E-04 -.363E-04
   -.286E+02 -.727E+01 0.712E+02   0.291E+02 0.765E+01 -.725E+02   0.195E+01 0.423E+00 -.106E+01   -.336E-04 -.966E-04 -.102E-04
   -.184E+02 -.404E+01 0.822E+02   0.187E+02 0.401E+01 -.824E+02   -.600E+00 0.768E+00 -.609E+00   -.206E-04 -.110E-03 0.226E-04
   0.490E+01 -.515E+00 0.521E+02   -.511E+01 0.394E+00 -.521E+02   -.324E+00 0.350E+00 0.139E+00   -.499E-05 -.114E-03 0.288E-04
   0.251E+01 -.264E+01 0.166E+02   -.225E+01 0.265E+01 -.167E+02   -.607E+00 0.223E+00 -.521E-01   0.184E-04 -.888E-04 0.347E-04
   0.251E+01 -.248E+01 -.164E+02   -.233E+01 0.240E+01 0.164E+02   -.490E+00 0.323E+00 0.742E-01   -.583E-06 -.113E-03 0.445E-04
   0.499E+01 -.219E+01 -.538E+02   -.527E+01 0.179E+01 0.534E+02   -.862E-01 0.588E+00 0.522E+00   -.670E-05 -.170E-03 -.186E-05
   -.102E+02 -.199E+02 -.780E+02   0.102E+02 0.202E+02 0.785E+02   0.223E-01 0.136E+00 0.240E+00   -.390E-04 -.149E-03 0.540E-05
   -.107E+02 0.156E+01 0.693E+02   0.104E+02 -.135E+01 -.690E+02   0.216E+00 0.254E+00 -.146E+00   0.229E-04 -.687E-04 0.510E-04
   0.298E+01 -.171E+01 0.533E+02   -.290E+01 0.179E+01 -.535E+02   -.555E+00 0.128E+00 0.132E+00   -.301E-05 -.830E-04 0.440E-04
   0.278E+01 -.279E+01 0.165E+02   -.264E+01 0.270E+01 -.166E+02   -.463E+00 0.352E+00 0.579E-01   -.161E-04 -.871E-04 0.277E-04
   0.302E+01 -.246E+01 -.165E+02   -.282E+01 0.246E+01 0.165E+02   -.492E+00 0.312E+00 0.304E-01   -.201E-04 -.690E-04 0.433E-04
   0.295E+01 -.260E+01 -.530E+02   -.264E+01 0.265E+01 0.533E+02   -.590E+00 0.285E+00 -.311E+00   0.472E-04 -.685E-04 -.530E-05
   -.647E+01 -.125E+02 -.843E+02   0.668E+01 0.129E+02 0.848E+02   -.454E+00 0.158E+00 -.168E+00   0.352E-04 -.106E-03 -.115E-04
   -.363E+01 -.687E+01 0.779E+02   0.391E+01 0.652E+01 -.783E+02   -.967E-01 0.614E+00 -.476E+00   0.210E-04 0.488E-04 0.166E-04
   0.350E+01 -.336E+01 0.505E+02   -.322E+01 0.338E+01 -.506E+02   -.580E+00 0.375E+00 0.232E+00   -.215E-05 0.404E-04 0.762E-04
   0.285E+01 -.257E+01 0.172E+02   -.267E+01 0.257E+01 -.172E+02   -.505E+00 0.319E+00 -.344E-01   0.304E-04 0.509E-04 0.402E-04
   0.262E+01 -.263E+01 -.169E+02   -.243E+01 0.258E+01 0.171E+02   -.517E+00 0.304E+00 -.535E-01   -.750E-05 0.484E-04 -.389E-05
   0.470E+01 -.246E+01 -.522E+02   -.436E+01 0.243E+01 0.527E+02   -.746E+00 0.278E+00 -.366E+00   -.590E-04 0.141E-04 -.126E-04
   -.145E+02 -.535E+01 -.806E+02   0.151E+02 0.562E+01 0.818E+02   -.439E+00 0.185E+00 -.562E-01   -.620E-05 0.373E-04 -.475E-04
   -.216E+02 -.205E+02 0.741E+02   0.219E+02 0.212E+02 -.737E+02   0.234E+00 0.870E+00 0.913E+00   0.383E-06 0.875E-04 -.385E-05
   0.585E+01 -.289E+01 0.528E+02   -.552E+01 0.277E+01 -.532E+02   -.646E+00 0.360E+00 0.256E+00   -.581E-05 0.102E-03 0.357E-04
   0.226E+01 -.254E+01 0.167E+02   -.224E+01 0.238E+01 -.168E+02   -.390E+00 0.384E+00 0.781E-01   -.541E-05 0.837E-04 0.355E-04
   0.254E+01 -.285E+01 -.167E+02   -.242E+01 0.263E+01 0.167E+02   -.446E+00 0.430E+00 -.351E-02   0.270E-05 0.104E-03 0.489E-04
   0.433E+01 -.135E+01 -.541E+02   -.411E+01 0.135E+01 0.544E+02   -.592E+00 0.293E+00 -.287E+00   0.373E-04 0.170E-03 0.236E-04
   -.248E+02 -.161E+01 -.616E+02   0.264E+02 0.766E+00 0.599E+02   0.131E+01 0.111E+00 -.257E+01   -.833E-06 0.146E-03 -.148E-04
[...]
   -.283E+01 0.120E+01 -.491E+02   0.287E+01 -.104E+01 0.489E+02   0.267E+00 -.429E+00 -.112E-01   -.532E-04 -.785E-04 0.222E-04
   0.880E+01 0.796E+01 -.877E+02   -.958E+01 -.798E+01 0.882E+02   0.546E+00 -.802E+00 0.803E-01   0.381E-04 -.577E-04 -.376E-04
   0.153E+02 0.208E+02 0.611E+02   -.158E+02 -.216E+02 -.596E+02   -.930E+00 -.149E+01 0.598E+00   -.240E-04 0.108E-03 0.164E-04
   -.408E+01 0.113E+01 0.533E+02   0.403E+01 -.109E+01 -.537E+02   0.597E+00 -.193E+00 0.338E+00   0.900E-05 0.937E-04 0.357E-04
   -.256E+01 0.249E+01 0.167E+02   0.239E+01 -.238E+01 -.167E+02   0.449E+00 -.368E+00 0.730E-01   0.509E-05 0.128E-03 0.387E-04
   -.224E+01 0.258E+01 -.166E+02   0.217E+01 -.245E+01 0.166E+02   0.428E+00 -.417E+00 0.889E-01   -.651E-05 0.965E-04 0.183E-04
   -.502E+01 0.142E+01 -.538E+02   0.482E+01 -.124E+01 0.540E+02   0.595E+00 -.444E+00 -.121E+00   -.313E-04 0.114E-03 0.304E-04
   0.123E+02 0.144E+02 -.828E+02   -.128E+02 -.152E+02 0.838E+02   0.446E+00 0.687E-02 -.119E+00   0.360E-04 0.180E-03 0.174E-04
   0.179E+02 0.118E+02 0.757E+02   -.181E+02 -.116E+02 -.760E+02   0.333E+00 -.653E+00 -.898E-01   0.813E-05 0.557E-04 0.253E-04
   -.406E+01 0.316E+00 0.522E+02   0.412E+01 -.138E+00 -.521E+02   0.342E+00 -.597E+00 -.800E-01   0.175E-04 0.342E-04 0.194E-04
   -.256E+01 0.256E+01 0.171E+02   0.240E+01 -.251E+01 -.172E+02   0.483E+00 -.359E+00 0.105E+00   -.180E-04 0.467E-04 0.655E-04
   -.272E+01 0.251E+01 -.171E+02   0.256E+01 -.248E+01 0.172E+02   0.484E+00 -.347E+00 -.793E-01   0.501E-05 0.478E-04 0.592E-04
   -.375E+01 0.216E+01 -.523E+02   0.334E+01 -.203E+01 0.529E+02   0.808E+00 -.316E+00 -.455E+00   0.387E-04 0.684E-04 -.308E-05
   0.376E+01 0.152E+02 -.779E+02   -.355E+01 -.149E+02 0.779E+02   0.881E-01 -.678E+00 0.419E+00   -.754E-04 0.670E-04 0.415E-06
   -.271E+01 -.819E+01 -.416E+01   0.342E-13 0.142E-12 0.995E-13   0.222E+01 0.756E+01 0.412E+01   -.673E-04 -.407E-04 0.131E-02

 POSITION                                       TOTAL-FORCE (eV/Angst)
     14.26225     12.70108      0.00000        -0.481563     -0.514390      8.050565
     11.36019      9.45648      1.45103         0.387985     -0.131553     -1.302993
      8.45813      6.21188      2.90206        -0.527567     -0.076481     -0.002511
     14.26225      6.21188      0.00000         2.760513      0.739654      4.349286
     11.36019      2.96728      1.45103         0.606763     -0.290344     -0.912391
      8.45813     19.19028      2.90206        -0.866569      0.099665      1.172673
     14.26225     19.19028      0.00000        -2.764810     -0.961229      2.882433
     11.36019     15.94568      1.45103         0.312832     -0.183304     -0.948354
      8.45813     12.70108      2.90206        -0.341969     -0.370985      0.670068
      9.18365     17.56798      0.72551         0.003344      0.311199     -0.837638
      6.28159     14.32338      2.17654        -0.154196      0.611649      0.749847
      3.37953     11.07878      3.62757        -1.254218     -0.142805     -1.398888
      9.18365     11.07878      0.72551         0.105403      0.853527      0.008453
      6.28159      7.83418      2.17654        -0.095870      0.550141      0.469441
      3.37953      4.58958      3.62757         2.450519      0.805304     -2.378370
      9.18365      4.58958      0.72551         0.408385      0.795429     -0.867545
      6.28159      1.34498      2.17654        -0.046384      0.297926      0.417221
      3.37953     17.56798      3.62757         0.682731      0.264711      0.865509
      7.00710     15.94568      0.00000         2.760513      0.739654      4.349286
      4.10504     12.70108      1.45103         0.606763     -0.290344     -0.912391
      1.20298      9.45648      2.90206        -0.866569      0.099665      1.172673
      7.00710      9.45648      0.00000        -2.764810     -0.961229      2.882433
      4.10504      6.21188      1.45103         0.312832     -0.183304     -0.948354
      1.20298      2.96728      2.90206        -0.341969     -0.370985      0.670068
      7.00710      2.96728      0.00000        -0.481563     -0.514390      8.050565
      4.10504     19.19028      1.45103         0.387985     -0.131553     -1.302993
      1.20298     15.94568      2.90206        -0.527567     -0.076481     -0.002511
      1.92850     14.32338      0.72551         0.408385      0.795429     -0.867545
     13.53673     11.07878      2.17654        -0.046384      0.297926      0.417221
     10.63467      7.83418      3.62757         0.682731      0.264711      0.865509
      1.92850      7.83418      0.72551         0.003344      0.311199     -0.837638
     13.53673      4.58958      2.17654        -0.154196      0.611649      0.749847
     10.63467      1.34498      3.62757        -1.254218     -0.142805     -1.398888
      1.92850      1.34498      0.72551         0.105403      0.853527      0.008453
     13.53673     17.56798      2.17654        -0.095870      0.550141      0.469441
     10.63467     14.32338      3.62757         2.450519      0.805304     -2.378370
     11.89345     12.34286      5.51517        -0.299232      0.731123     -0.767030
      8.26588     12.34286      7.51550        -0.531894      0.232128      0.161426
      4.63830     12.34286      9.51584        -0.344138      0.230525     -0.128275
      1.01073     12.34286     11.51617        -0.314461      0.249162      0.106220
     11.89345     12.34286     13.51651        -0.368909      0.193694      0.108585
      8.26587     12.34286     15.51684         0.023165      0.442724      0.737463
      2.21992     15.58746      5.51517        -0.059967      0.470913      0.197690
     13.10264     15.58746      7.51550        -0.470841      0.205672     -0.052314
      9.47507     15.58746      9.51584        -0.325638      0.267365     -0.022579
      5.84749     15.58746     11.51617        -0.281940      0.318651      0.029379
      2.21992     15.58746     13.51651        -0.279283      0.336821      0.045457
     13.10264     15.58746     15.51684        -0.241495      0.586279      0.414649
      7.05669     18.83206      5.51517         0.183522      0.268723     -0.816374
      3.42911     18.83206      7.51550        -0.299214      0.398778      0.113654
     14.31183     18.83206      9.51584        -0.315879      0.323632      0.025320
     10.68426     18.83206     11.51617        -0.332711      0.258377      0.109946
      7.05668     18.83206     13.51651        -0.399797      0.254862      0.107334
      3.42911     18.83206     15.51684         0.081212      0.456328      1.085072
     11.89345      2.60906      5.51517         0.580272      1.520732      1.228429
      8.26588      2.60906      7.51550        -0.313160      0.250326     -0.121837
      4.63830      2.60906      9.51584        -0.365112      0.228603      0.007784
      1.01073      2.60906     11.51617        -0.315480      0.219539     -0.017314
     11.89345      2.60905     13.51651        -0.365214      0.295937      0.003533
      8.26587      2.60905     15.51684         2.854016     -0.725382     -4.189975
[...]
     10.68426     16.39861     11.51617         0.330538     -0.279177      0.020774
      7.05668     16.39861     13.51651         0.306991     -0.269035     -0.169417
      3.42911     16.39861     15.51684        -0.232837     -0.817162      0.639419
      2.21992      3.42021      5.51517        -1.463730     -2.210364      2.160662
     13.10264      3.42021      7.51550         0.541306     -0.156146     -0.072157
      9.47507      3.42021      9.51584         0.285387     -0.255273      0.007764
      5.84749      3.42021     11.51617         0.362014     -0.284250      0.023112
      2.21992      3.42021     13.51651         0.401491     -0.257551      0.087930
     13.10264      3.42020     15.51684        -0.027330     -0.782309      0.877111
      7.05669      6.66481      5.51517         0.173477     -0.402106     -0.352355
      3.42911      6.66481      7.51550         0.396607     -0.415700     -0.004137
     14.31183      6.66481      9.51584         0.324392     -0.297838      0.015696
     10.68426      6.66481     11.51617         0.328527     -0.308922      0.032147
      7.05668      6.66481     13.51651         0.395315     -0.175050      0.068012
      3.42911      6.66480     15.51684         0.298682     -0.415184      0.431174
    total drift:                               -0.489320     -0.624979     -0.034138

  FREE ENERGIE OF THE ION-ELECTRON SYSTEM (eV)
  free  energy   TOTEN  =      -733.42536319 eV

  energy  without entropy=     -733.42144450  energy(sigma->0) =     -733.42340384