 vasp.6.4.3 19Mar24 (build Oct 22 2024 11:23:12) complex

 executed on             LinuxIFC date 2025.06.11  12:08:32

 INCAR:
   SYSTEM = Si and Ge interface calculation
   ISTART = 0
   ICHARG = 2
   LWAVE = .FALSE.
   LREAL = AUTO
   ENCUT = 700
   ENAUG = 900
   ADDGRID = .TRUE.
   LMAXMIX = 6
   LASPH = .TRUE.
   LMIXTAU = .TRUE.
   NCORE = 16
   NELM = 100
   NBANDS = 634
   EDIFF = 1d-7
   AMIX = 0.6
   ISMEAR = 0
   SIGMA = 0.01
   NELECT = 1056
   ISPIN = 2
   NUPDOWN = 1
   LVTOT = .FALSE.
   LVHAR = .TRUE.

 POTCAR:    PAW_PBE Sn 08Apr2002
 POTCAR:    PAW_PBE Si 05Jan2001
|           W    W    AA    RRRRR   N    N  II  N    N   GGGG   !!!           |
|           W    W   A  A   R    R  NN   N  II  NN   N  G    G  !!!           |
|           W    W  A    A  R    R  N N  N  II  N N  N  G       !!!           |
|           W WW W  AAAAAA  RRRRR   N  N N  II  N  N N  G  GGG   !            |
|           WW  WW  A    A  R   R   N   NN  II  N   NN  G    G                |
|           W    W  A    A  R    R  N    N  II  N    N   GGGG   !!!           |
|     You use a magnetic or noncollinear calculation, but did not specify     |
|     the initial magnetic moment with the MAGMOM tag. Note that a            |
|     default of 3.788e-3 will be used for all atoms. This ferromagnetic      |
|     setup may break the symmetry of the crystal, in particular it may       |
|     rule out finding an antiferromagnetic solution. Thence, we              |
|     recommend setting the initial magnetic moment manually or verifying     |
|     carefully that this magnetic setup is desired.                          |

 POTCAR:    PAW_PBE Sn 08Apr2002
   VRHFIN =Sn: s2p2

   TITEL  = PAW_PBE Sn 08Apr2002
   POMASS =  118.710; ZVAL   =    4.000    mass and valenz
   ENMAX  =  103.236; ENMIN  =   77.427 eV

 POTCAR:    PAW_PBE Si 05Jan2001
   VRHFIN =Si: s2p2

   TITEL  = PAW_PBE Si 05Jan2001
   POMASS =   28.085; ZVAL   =    4.000    mass and valenz
   ENMAX  =  245.345; ENMIN  =  184.009 eV

 Optimization of the real space projectors (new method)

 maximal supplied QI-value         = 12.47
 optimisation between [QCUT,QGAM] = [ 12.47, 27.06] = [ 43.56,205.12] Ry
 Optimized for a Real-space Cutoff    1.58 Angstroem

   l    n(q)    QCUT    max X(q) W(low)/X(q) W(high)/X(q)  e(spline)
   0     13    12.472    14.688    0.45E-04    0.45E-04    0.25E-05
   0     13    12.472     7.308    0.94E-04    0.11E-03    0.61E-05
   1     12    12.472    45.102    0.34E-03    0.14E-03    0.21E-05
   1     12    12.472    30.691    0.31E-03    0.13E-03    0.20E-05
   2     12    12.472     7.156    0.86E-04    0.11E-03    0.17E-05
 WARNING: PSMAXN for non-local potential too small
          PSMAXN should be >   13.5545592237991       NTYP=           1
 Optimization of the real space projectors (new method)

 maximal supplied QI-value         = 19.84
 optimisation between [QCUT,QGAM] = [ 13.49, 26.99] = [ 50.98,203.92] Ry
 Optimized for a Real-space Cutoff    1.07 Angstroem

   l    n(q)    QCUT    max X(q) W(low)/X(q) W(high)/X(q)  e(spline)
   0      9    13.493   159.560    0.22E-03    0.15E-03    0.72E-07
   0      9    13.493   115.863    0.21E-03    0.15E-03    0.71E-07
   1      8    13.493    88.339    0.15E-03    0.11E-03    0.13E-06
   1      8    13.493    48.592    0.15E-03    0.10E-03    0.13E-06
  PAW_PBE Sn 08Apr2002                  :
  PAW_PBE Si 05Jan2001                  :

 POSCAR: Sn+Si
  positions in direct lattice

 exchange-correlation table for PE
   RHO(1)=    0.500       N(1)  =     2000
   RHO(2)=  100.500       N(2)  =     4000

 ion  position               nearest neighbor table
   1  0.995  0.667  0.000- 162 1.48 120 2.27 243 2.58  31 2.81 100 2.81 230 3.04 201 3.10 204 3.19
                           231 3.42
   2  0.828  0.667  0.218-  49 2.81  32 2.81 101 2.81 100 2.81 231 3.32
   3  0.662  0.667  0.436- 217 2.08  50 2.81  33 2.81 101 2.81 102 2.81 133 3.00 175 3.04
   4  0.995  0.333  0.000- 234 1.37 123 2.24 153 2.66  34 2.81 103 2.81 152 3.09 192 3.11 195 3.20
                           165 3.43
   5  0.828  0.333  0.218-  52 2.81  35 2.81 104 2.81 103 2.81
   6  0.662  0.333  0.436- 208 2.09  53 2.81  36 2.81 104 2.81 105 2.81 136 2.98
   7  0.995  0.000  0.000- 117 1.36 228 1.88 156 1.94  28 2.81 106 2.81 227 3.29 158 3.35
   8  0.828  0.000  0.218-  46 2.81  29 2.81 107 2.81 106 2.81
   9  0.662  0.000  0.436- 127 2.38  47 2.81  30 2.81 107 2.81 108 2.81 211 3.28 169 3.29 214 3.30

  10  0.328  0.667  0.000- 216 1.83 174 2.24 258 2.29 245 2.80  40 2.81  82 2.81 135 2.93 246 3.21
                           177 3.24
  11  0.162  0.667  0.218-  41 2.81  31 2.81  83 2.81  82 2.81
  12  0.995  0.667  0.436- 145 2.44  42 2.81  32 2.81  83 2.81  84 2.81 223 3.23 190 3.32 148 3.33

  13  0.328  0.333  0.000- 249 0.66 207 1.84  43 2.81  85 2.81 138 2.91 165 3.16
  14  0.162  0.333  0.218-  86 2.81  44 2.81  34 2.81  85 2.81 165 3.30
  15  0.995  0.333  0.436- 112 2.41  45 2.81  35 2.81  86 2.81  87 2.81 220 3.24 262 3.28 187 3.32

[...]

  17  0.162  0.000  0.218-  38 2.81  28 2.81  89 2.81  88 2.81
  18  0.995  0.000  0.436- 109 1.62  39 2.81  29 2.81  89 2.81  90 2.81
  19  0.662  0.667  0.000- 186 0.61 225 1.88  49 2.81  91 2.81 144 2.86 231 3.21
  20  0.495  0.667  0.218-  92 2.81  40 2.81  50 2.81  91 2.81
  21  0.328  0.667  0.436- 202 2.03  51 2.81  41 2.81  93 2.81  92 2.81 121 3.06
  22  0.662  0.333  0.000- 222 1.89 180 2.30 264 2.34 179 2.78  94 2.81  52 2.81 147 2.84 261 3.13
                           150 3.16
  23  0.495  0.333  0.218-  95 2.81  43 2.81  53 2.81  94 2.81
  24  0.328  0.333  0.436- 193 2.05  54 2.81  96 2.81  44 2.81  95 2.81 124 3.04 235 3.05
  25  0.662  0.000  0.000- 183 1.39 141 2.21 255 2.68  46 2.81  97 2.81 170 3.07 189 3.16 213 3.18
                           252 3.38
  26  0.495  0.000  0.218-  98 2.81  37 2.81  47 2.81  97 2.81
  27  0.328  0.000  0.436- 130 2.46  48 2.81  38 2.81  99 2.81  98 2.81 196 3.25 199 3.27 241 3.32

[...]

  50  0.578  0.583  0.327-   3 2.81  20 2.81  77 2.81  78 2.81
  51  0.412  0.583  0.544- 163 1.89 121 2.30 205 2.34 134 2.78  21 2.81  78 2.81 244 2.84 202 3.13
                           133 3.16
  52  0.745  0.250  0.109- 264 1.62   5 2.81  80 2.81  79 2.81  22 2.81
  53  0.578  0.250  0.327-   6 2.81  80 2.81  81 2.81  23 2.81
  54  0.412  0.250  0.544- 124 1.39 235 2.21 196 2.68  24 2.81  81 2.81 125 3.07 166 3.16 154 3.18
                           193 3.38
  55  0.162  0.833  0.000- 132 1.89 243 2.30 174 2.34 242 2.78  82 2.81  28 2.81 198 2.84 156 3.13
                           240 3.16
  56  0.995  0.833  0.218- 100 2.81  83 2.81  29 2.81  28 2.81
  57  0.828  0.833  0.436- 142 2.05  84 2.81 101 2.81  30 2.81  29 2.81 223 3.04 184 3.05
  58  0.162  0.500  0.000- 246 1.39 204 2.21 165 2.68  85 2.81  31 2.81 233 3.07 135 3.16 123 3.18
                           162 3.38
  59  0.995  0.500  0.218- 103 2.81  86 2.81  32 2.81  31 2.81
  60  0.828  0.500  0.436- 220 2.46  87 2.81 104 2.81  33 2.81  32 2.81 145 3.25 136 3.27 178 3.32

[...]

  92  0.412  0.750  0.327-  20 2.81  65 2.81  75 2.81  21 2.81
  93  0.245  0.750  0.544- 160 1.36 118 1.88 202 1.94  66 2.81  21 2.81 131 3.29 203 3.35
  94  0.578  0.417  0.109- 261 2.03  67 2.81  77 2.81  22 2.81  23 2.81 180 3.06
  95  0.412  0.417  0.327-  23 2.81  68 2.81  78 2.81  24 2.81
  96  0.245  0.417  0.544- 193 1.48 151 2.27 121 2.58  69 2.81  24 2.81 122 3.04 232 3.10 235 3.19
                           112 3.42
  97  0.578  0.083  0.109- 252 2.05  25 2.81  70 2.81  80 2.81  26 2.81 183 3.04 141 3.05
  98  0.412  0.083  0.327-  26 2.81  71 2.81  81 2.81  27 2.81 196 3.30
  99  0.245  0.083  0.544- 115 1.37 154 2.24 199 2.66  27 2.81  72 2.81 197 3.09 226 3.11 241 3.20
                           196 3.43
 100  0.912  0.750  0.109- 159 2.38  73 2.81  56 2.81   2 2.81   1 2.81 243 3.28 201 3.29 231 3.30

[...]

 103  0.912  0.417  0.109- 234 2.08  76 2.81  59 2.81   5 2.81   4 2.81 150 3.00 192 3.04
 104  0.745  0.417  0.327-  77 2.81   5 2.81  60 2.81   6 2.81
 105  0.578  0.417  0.544- 247 1.83 205 2.24 136 2.29 137 2.80  78 2.81   6 2.81 166 2.93 124 3.21
                           208 3.24
 106  0.912  0.083  0.109- 228 2.09  79 2.81  62 2.81   8 2.81   7 2.81 153 2.98
 107  0.745  0.083  0.327-  80 2.81   8 2.81   9 2.81  63 2.81
 108  0.578  0.083  0.544- 127 0.66 238 1.84  81 2.81   9 2.81 169 2.91 196 3.16
 109  0.996  0.997  0.544-  18 1.62  39 2.24 253 2.34 157 2.34  90 2.34
 110  0.881  0.920  0.727- 184 2.34 254 2.34 158 2.34 253 2.34
 111  0.765  0.843  0.909-  73 1.84 185 2.34 254 2.34 159 2.34 255 2.34  46 3.33
 112  0.073  0.382  0.544- 151 2.34 262 2.34  15 2.41  45 2.57  87 3.21  69 3.30  86 3.32  96 3.42

[...]

 256  0.669  0.863  0.636-  30 2.27 212 2.34 142 2.34 214 2.34 143 2.34 102 3.12
 257  0.554  0.786  0.818- 213 2.34 143 2.34 215 2.34 144 2.34  64 3.09
 258  0.438  0.709  0.000-  10 2.29 216 2.34 144 2.34  64 2.66  40 2.98  91 3.27
 259  0.823  0.632  0.636-  33 2.24 224 2.34 145 2.34 217 2.34 146 2.34  84 3.18
 260  0.707  0.555  0.818- 225 2.34 146 2.34 218 2.34 147 2.34
 261  0.592  0.478  0.000-  67 1.94  94 2.03 219 2.34 147 2.34  22 3.13
 262  0.977  0.401  0.636-  87 1.88 191 2.34 220 2.34 112 2.34 113 2.34  15 3.28
 263  0.861  0.324  0.818- 221 2.34 192 2.34 113 2.34 114 2.34
 264  0.746  0.247  0.000-  52 1.62  79 2.24 222 2.34 114 2.34  22 2.34

  LATTYP: Found a simple tetragonal cell.
 ALAT       =    19.4675998690
 C/A-ratio  =     0.7653871812

  Lattice vectors:

 A1 = (  19.4675998690,   0.0000000000,   0.0000000000)
 A2 = (   0.0000000000,  19.4675998690,   0.0000000000)
 A3 = (   0.0000000000,   0.0000000000,  14.9002513890)

Analysis of symmetry for initial positions (statically):
 Subroutine PRICEL returns following result:

[...]

   2 primitive cells build up your supercell.

 Routine SETGRP: Setting up the symmetry group for a
 simple tetragonal supercell.

 Subroutine GETGRP returns: Found  2 space group operations
 (whereof  1 operations were pure point group operations)
 out of a pool of 16 trial point group operations.

The static configuration has the point symmetry C_1 .
 The point group associated with its full space group is C_1h.

Analysis of symmetry for dynamics (positions and initial velocities):
 Subroutine PRICEL returns following result:

[...]

The dynamic configuration has the point symmetry C_1 .
 The point group associated with its full space group is C_1h.

Analysis of structural, dynamic, and magnetic symmetry:
 Subroutine PRICEL returns following result:

  LATTYP: Found a simple tetragonal cell.
 ALAT       =    13.7656718808
 C/A-ratio  =     1.0824209322

  Lattice vectors:

 A1 = (   9.7337999345,  -9.7337999345,   0.0000000000)
 A2 = (   9.7337999345,   9.7337999345,   0.0000000000)
 A3 = (   0.0000000000,   0.0000000000,  14.9002513890)

   2 primitive cells build up your supercell.

 Routine SETGRP: Setting up the symmetry group for a
 simple tetragonal supercell.

 Subroutine GETGRP returns: Found  2 space group operations
 (whereof  1 operations were pure point group operations)
 out of a pool of 16 trial point group operations.

The overall configuration has the point symmetry C_1 .
[...]
     0.000000000  0.000000000 14.900251389     0.000000000  0.000000000  0.067112962

  length of vectors
    19.467599869 19.467599869 14.900251389     0.051367401  0.051367401  0.067112962

 FORCES acting on ions
    electron-ion (+dipol)            ewald-force                    non-local-force                 convergence-correction
   0.451E+01 -.484E+02 -.983E+02   -.115E+02 0.794E+02 0.994E+02   -.958E+01 0.423E+02 0.182E+01   0.139E-04 -.746E-04 0.998E-04
   -.809E+00 -.160E+01 -.425E+02   0.186E+00 0.112E+01 0.425E+02   0.543E+00 0.614E+00 0.562E+00   -.996E-04 -.512E-04 0.637E-04
   0.130E+02 -.263E+01 0.130E+03   -.135E+02 0.373E+01 -.129E+03   -.445E+01 0.823E+00 -.969E+01   -.110E-03 -.961E-04 0.154E-03
   -.309E+01 0.511E+02 -.983E+02   0.149E+02 -.998E+02 0.995E+02   0.997E+01 -.460E+02 0.194E+01   -.248E-03 0.147E-03 0.815E-04
   -.716E+00 -.351E-01 -.398E+02   0.544E+00 -.194E+00 0.398E+02   0.495E-01 0.350E-01 0.112E+00   -.136E-04 0.722E-05 -.117E-03
   -.382E+01 -.158E+02 0.124E+03   0.274E+01 0.158E+02 -.124E+03   0.184E+01 0.575E+01 -.757E+01   -.454E-04 0.708E-04 -.103E-03
   -.225E+01 -.314E+01 -.134E+03   0.270E+01 0.531E+01 0.187E+03   0.184E+01 0.178E+01 0.424E+02   0.427E-04 -.372E-04 0.696E-04
   0.118E+01 0.110E+01 -.415E+02   -.875E+00 -.701E+00 0.411E+02   -.341E+00 -.333E+00 0.791E+00   0.541E-04 0.402E-05 -.672E-04
   -.716E+01 0.141E+02 0.117E+03   0.559E+01 -.118E+02 -.115E+03   0.209E+01 -.350E+01 -.428E+01   -.203E-03 0.217E-03 -.570E-05
   0.668E+01 0.400E+02 -.120E+03   -.809E+01 -.436E+02 0.124E+03   -.226E+01 -.177E+02 0.148E+02   -.302E-04 0.202E-03 0.140E-03
   0.784E+00 0.351E+00 -.397E+02   -.548E+00 0.248E-01 0.397E+02   -.162E+00 -.160E+00 0.145E+00   0.812E-04 0.716E-04 0.164E-04
   -.868E+01 -.827E+01 0.114E+03   0.891E+01 0.782E+01 -.114E+03   0.190E+01 0.152E+00 -.286E+01   0.198E-03 -.341E-04 0.112E-04
   0.190E+02 -.935E+01 -.115E+03   -.462E+03 0.132E+03 0.116E+03   -.286E+02 0.108E+02 0.148E+02   0.111E-03 0.138E-03 0.201E-03
   0.836E+00 0.148E+01 -.427E+02   -.242E+00 -.101E+01 0.426E+02   -.564E+00 -.592E+00 0.590E+00   -.182E-04 -.437E-04 0.301E-04
   0.914E+01 0.870E+01 0.115E+03   -.918E+01 -.848E+01 -.114E+03   -.241E+01 0.358E-01 -.297E+01   -.102E-03 -.127E-03 -.485E-04
   -.219E+02 -.431E+02 -.987E+02   0.416E+02 0.724E+02 0.984E+02   0.244E+02 0.369E+02 0.228E+01   -.485E-04 -.330E-03 0.762E-04
   -.124E+01 -.119E+01 -.414E+02   0.914E+00 0.788E+00 0.410E+02   0.336E+00 0.327E+00 0.704E+00   0.165E-04 -.210E-04 0.711E-05
   0.402E+00 -.168E+01 0.151E+03   -.597E+00 0.228E+01 -.166E+03   -.250E+00 0.104E+01 -.356E+02   0.136E-03 0.851E-04 0.340E-04
   -.217E+02 0.211E+00 -.114E+03   0.575E+03 -.643E+02 0.114E+03   0.298E+02 -.359E+01 0.139E+02   0.451E-04 -.136E-03 0.239E-03
   0.868E-01 0.185E+01 -.413E+02   0.574E+00 -.100E+01 0.411E+02   -.622E+00 -.793E+00 0.218E+00   -.208E-04 -.742E-05 0.738E-04
   0.489E+01 0.173E+02 0.127E+03   -.398E+01 -.176E+02 -.127E+03   -.219E+01 -.651E+01 -.970E+01   0.966E-04 0.766E-04 -.580E-04
   -.716E+01 -.359E+02 -.118E+03   0.821E+01 0.383E+02 0.120E+03   0.238E+01 0.150E+02 0.120E+02   0.282E-03 0.101E-03 0.915E-04
   -.177E+00 -.198E+01 -.411E+02   -.506E+00 0.106E+01 0.409E+02   0.681E+00 0.853E+00 0.194E+00   0.323E-04 0.123E-03 0.518E-04
   -.140E+02 0.603E+00 0.131E+03   0.149E+02 -.191E+01 -.131E+03   0.477E+01 -.325E+00 -.106E+02   0.575E-04 -.323E-04 -.819E-04
   0.230E+02 0.458E+02 -.101E+03   -.513E+02 -.817E+02 0.101E+03   -.270E+02 -.379E+02 0.317E+01   0.728E-04 0.119E-04 0.113E-03
   0.948E-01 0.120E+00 -.408E+02   -.478E-01 -.924E-01 0.408E+02   -.144E-01 -.273E-01 0.485E+00   -.779E-04 -.920E-04 0.928E-05
   0.626E+01 -.126E+02 0.115E+03   -.488E+01 0.103E+02 -.113E+03   -.148E+01 0.279E+01 -.334E+01   -.450E-04 -.522E-04 -.114E-03
   0.489E+01 0.173E+02 -.127E+03   -.398E+01 -.176E+02 0.127E+03   -.219E+01 -.651E+01 0.970E+01   0.964E-04 0.764E-04 0.580E-04
   0.783E+00 0.350E+00 0.397E+02   -.548E+00 0.248E-01 -.397E+02   -.162E+00 -.160E+00 -.145E+00   0.813E-04 0.714E-04 -.164E-04
   0.451E+01 -.484E+02 0.983E+02   -.115E+02 0.794E+02 -.994E+02   -.958E+01 0.423E+02 -.182E+01   0.141E-04 -.747E-04 -.999E-04
   -.140E+02 0.602E+00 -.131E+03   0.149E+02 -.191E+01 0.131E+03   0.477E+01 -.325E+00 0.106E+02   0.572E-04 -.321E-04 0.819E-04
   0.836E+00 0.148E+01 0.427E+02   -.242E+00 -.101E+01 -.426E+02   -.564E+00 -.592E+00 -.590E+00   -.181E-04 -.435E-04 -.300E-04
   -.309E+01 0.511E+02 0.983E+02   0.149E+02 -.998E+02 -.995E+02   0.997E+01 -.460E+02 -.194E+01   -.248E-03 0.147E-03 -.816E-04
   0.626E+01 -.126E+02 -.115E+03   -.488E+01 0.103E+02 0.113E+03   -.148E+01 0.279E+01 0.334E+01   -.453E-04 -.522E-04 0.114E-03
   -.124E+01 -.118E+01 0.414E+02   0.914E+00 0.788E+00 -.410E+02   0.336E+00 0.327E+00 -.704E+00   0.165E-04 -.210E-04 -.703E-05
   -.225E+01 -.314E+01 0.134E+03   0.270E+01 0.531E+01 -.187E+03   0.184E+01 0.178E+01 -.424E+02   0.429E-04 -.372E-04 -.697E-04
   0.130E+02 -.263E+01 -.130E+03   -.135E+02 0.373E+01 0.129E+03   -.445E+01 0.823E+00 0.969E+01   -.110E-03 -.963E-04 -.154E-03
   0.869E-01 0.185E+01 0.413E+02   0.574E+00 -.100E+01 -.411E+02   -.622E+00 -.793E+00 -.218E+00   -.210E-04 -.763E-05 -.738E-04
   0.668E+01 0.400E+02 0.120E+03   -.809E+01 -.436E+02 -.124E+03   -.226E+01 -.177E+02 -.148E+02   -.304E-04 0.202E-03 -.140E-03
   -.382E+01 -.158E+02 -.124E+03   0.274E+01 0.158E+02 0.124E+03   0.184E+01 0.575E+01 0.757E+01   -.455E-04 0.710E-04 0.103E-03
   -.177E+00 -.198E+01 0.411E+02   -.506E+00 0.106E+01 -.409E+02   0.681E+00 0.853E+00 -.194E+00   0.320E-04 0.123E-03 -.517E-04
   0.190E+02 -.935E+01 0.115E+03   -.462E+03 0.132E+03 -.116E+03   -.286E+02 0.108E+02 -.148E+02   0.111E-03 0.138E-03 -.201E-03
   -.716E+01 0.141E+02 -.117E+03   0.559E+01 -.118E+02 0.115E+03   0.209E+01 -.350E+01 0.428E+01   -.203E-03 0.217E-03 0.575E-05
   0.949E-01 0.120E+00 0.408E+02   -.477E-01 -.923E-01 -.408E+02   -.144E-01 -.273E-01 -.485E+00   -.782E-04 -.921E-04 -.920E-05
   -.219E+02 -.431E+02 0.987E+02   0.416E+02 0.724E+02 -.984E+02   0.244E+02 0.369E+02 -.228E+01   -.488E-04 -.330E-03 -.762E-04
   -.868E+01 -.827E+01 -.114E+03   0.891E+01 0.782E+01 0.114E+03   0.190E+01 0.152E+00 0.286E+01   0.198E-03 -.343E-04 -.112E-04
   -.809E+00 -.160E+01 0.425E+02   0.186E+00 0.112E+01 -.425E+02   0.543E+00 0.614E+00 -.562E+00   -.994E-04 -.513E-04 -.636E-04
   -.217E+02 0.211E+00 0.114E+03   0.575E+03 -.643E+02 -.114E+03   0.298E+02 -.359E+01 -.139E+02   0.450E-04 -.136E-03 -.239E-03
   0.914E+01 0.870E+01 -.115E+03   -.919E+01 -.848E+01 0.114E+03   -.241E+01 0.358E-01 0.297E+01   -.102E-03 -.127E-03 0.486E-04
   -.716E+00 -.353E-01 0.398E+02   0.544E+00 -.195E+00 -.398E+02   0.495E-01 0.350E-01 -.112E+00   -.134E-04 0.740E-05 0.117E-03
   -.716E+01 -.359E+02 0.118E+03   0.821E+01 0.383E+02 -.120E+03   0.238E+01 0.150E+02 -.120E+02   0.282E-03 0.102E-03 -.915E-04
   0.402E+00 -.168E+01 -.151E+03   -.597E+00 0.228E+01 0.166E+03   -.250E+00 0.104E+01 0.356E+02   0.136E-03 0.851E-04 -.340E-04
   0.118E+01 0.110E+01 0.415E+02   -.875E+00 -.701E+00 -.411E+02   -.341E+00 -.333E+00 -.791E+00   0.544E-04 0.397E-05 0.672E-04
   0.230E+02 0.458E+02 0.101E+03   -.513E+02 -.817E+02 -.101E+03   -.270E+02 -.379E+02 -.317E+01   0.727E-04 0.118E-04 -.113E-03
   -.716E+01 -.359E+02 -.118E+03   0.821E+01 0.383E+02 0.120E+03   0.238E+01 0.150E+02 0.120E+02   0.281E-03 0.102E-03 0.915E-04
   -.177E+00 -.198E+01 -.411E+02   -.506E+00 0.106E+01 0.409E+02   0.681E+00 0.853E+00 0.194E+00   0.319E-04 0.123E-03 0.518E-04
   -.140E+02 0.603E+00 0.131E+03   0.149E+02 -.191E+01 -.131E+03   0.477E+01 -.325E+00 -.106E+02   0.574E-04 -.322E-04 -.819E-04
   0.230E+02 0.458E+02 -.101E+03   -.513E+02 -.817E+02 0.101E+03   -.270E+02 -.379E+02 0.317E+01   0.724E-04 0.121E-04 0.113E-03
   0.950E-01 0.120E+00 -.408E+02   -.477E-01 -.924E-01 0.408E+02   -.144E-01 -.273E-01 0.485E+00   -.783E-04 -.918E-04 0.927E-05
   0.626E+01 -.126E+02 0.115E+03   -.488E+01 0.103E+02 -.113E+03   -.148E+01 0.279E+01 -.334E+01   -.450E-04 -.520E-04 -.114E-03
[...]
   -.181E+01 -.560E+00 -.122E+02   0.193E+01 0.493E+00 0.117E+02   0.954E-01 0.372E-01 0.605E-01   0.143E-03 0.574E-04 -.205E-04
   0.145E+02 0.438E+02 -.820E+02   -.243E+01 -.819E+02 0.819E+02   0.129E+01 -.319E+02 -.822E+01   0.587E-05 -.135E-03 0.120E-03
   0.731E+01 0.304E+02 0.161E+02   -.806E+01 -.333E+02 -.129E+02   -.165E+01 -.105E+02 0.115E+02   0.300E-03 0.716E-04 -.798E-04
   -.237E+01 -.356E+01 -.929E+01   0.166E+01 0.279E+01 0.991E+01   0.509E+00 0.732E+00 -.117E+01   0.136E-03 -.273E-04 0.221E-03
   0.132E+02 0.160E+02 -.924E+02   -.126E+02 -.166E+02 0.921E+02   -.231E+01 -.110E+01 -.106E+01   0.444E-04 0.311E-04 0.157E-03
   0.123E+02 0.998E+01 0.319E+02   -.152E+02 -.937E+01 -.305E+02   -.754E+00 -.294E+01 0.182E+01   -.106E-03 -.151E-03 -.462E-04
   -.329E+01 0.180E+01 -.646E+01   0.267E+01 -.153E+01 0.644E+01   0.555E+00 -.527E+00 -.606E+00   -.139E-03 0.409E-04 -.520E-04
   -.136E+02 -.277E+01 -.102E+03   0.151E+02 0.346E+01 0.103E+03   0.265E+01 0.983E+00 -.634E+00   -.220E-03 0.181E-03 0.158E-03
   -.142E+02 -.991E+01 0.313E+02   0.171E+02 0.921E+01 -.299E+02   0.121E+01 0.296E+01 0.220E+01   -.227E-03 -.202E-05 -.123E-03
   0.264E+01 0.329E+01 -.948E+01   -.196E+01 -.258E+01 0.101E+02   -.541E+00 -.671E+00 -.117E+01   -.441E-04 -.133E-03 0.254E-05
   -.407E+02 -.198E+02 -.793E+02   0.448E+02 0.186E+02 0.798E+02   0.126E+02 0.491E+01 -.886E+01   0.120E-03 0.470E-04 0.737E-04
   -.336E+02 0.390E+01 0.898E+01   0.327E+02 -.374E+01 -.971E+01   0.154E+02 -.342E+01 0.165E+02   -.108E-03 -.113E-03 -.172E-03
   0.192E+01 0.504E+00 -.121E+02   -.191E+01 -.249E+00 0.116E+02   -.157E+00 -.217E+00 0.140E+00   -.616E-04 -.125E-04 0.245E-03
   0.226E+01 -.313E+00 -.575E+02   -.243E+01 -.756E-01 0.404E+02   -.578E+00 -.147E+00 -.313E+02   0.183E-03 0.124E-03 0.720E-04
   0.822E+01 0.111E+02 -.357E-02   0.111E-11 -.621E-12 0.369E-12   -.767E+01 -.112E+02 0.320E-13   0.112E-02 0.258E-03 -.190E-05

 POSITION                                       TOTAL-FORCE (eV/Angst)
     19.37095     12.97840      0.00000       -16.541853     73.329513      2.863378
     16.12635     12.97840      3.24460        -0.081366      0.137052      0.519364
     12.88174     12.97840      6.48920        -5.011969      1.930560     -9.271095
     19.37095      6.48920      0.00000        21.751795    -94.647092      3.165780
     16.12635      6.48920      3.24460        -0.124557     -0.194657      0.125632
     12.88174      6.48920      6.48920         0.754097      5.740291     -7.892511
     19.37095      0.00000      0.00000         2.288488      3.951509     95.931746
     16.12635      0.00000      3.24460        -0.040498      0.067057      0.337783
     12.88174      0.00000      6.48920         0.518259     -1.179754     -1.856676
      6.39255     12.97840      0.00000        -3.676546    -21.326171     18.659389
      3.14794     12.97840      3.24460         0.070469      0.215201      0.119826
     19.37095     12.97840      6.48920         2.135198     -0.302461     -2.520093
      6.39255      6.48920      0.00000      -471.517234    133.353535     15.660891
      3.14794      6.48920      3.24460         0.028314     -0.124904      0.532008
     19.37095      6.48920      6.48920        -2.451353      0.251078     -2.829749
      6.39255      0.00000      0.00000        44.042194     66.132545      2.032547
      3.14794      0.00000      3.24460         0.004967     -0.069808      0.340608
     19.37095      0.00000      6.48920        -0.447062      1.638536    -50.347898
     12.88175     12.97840      0.00000       583.134927    -67.708378     13.397227
      9.63715     12.97840      3.24460         0.036915      0.052160      0.094759
      6.39255     12.97840      6.48920        -1.283067     -6.766349    -10.138542
     12.88175      6.48920      0.00000         3.424358     17.401304     14.410953
      9.63715      6.48920      3.24460        -0.004315     -0.064002      0.039894
      6.39255      6.48920      6.48920         5.690303     -1.633763    -10.469019
     12.88175      0.00000      0.00000       -55.243462    -73.838371      3.104365
      9.63715      0.00000      3.24460         0.030564      0.000133      0.496726
      6.39255      0.00000      6.48920        -0.100374      0.499711     -1.199149
      1.52565     17.84530      1.62230        -1.283067     -6.766349     10.138542
     17.74865     17.84530      4.86690         0.070469      0.215201     -0.119826
     14.50404     17.84530      8.11150       -16.541853     73.329513     -2.863378
      1.52565     11.35610      1.62230         5.690303     -1.633763     10.469019
     17.74865     11.35610      4.86690         0.028314     -0.124904     -0.532008
     14.50404     11.35610      8.11150        21.751795    -94.647092     -3.165780
      1.52565      4.86690      1.62230        -0.100374      0.499711      1.199149
     17.74865      4.86690      4.86690         0.004967     -0.069808     -0.340608
     14.50404      4.86690      8.11150         2.288488      3.951509    -95.931746
      8.01485     17.84530      1.62230        -5.011969      1.930560      9.271095
      4.77025     17.84530      4.86690         0.036915      0.052160     -0.094759
      1.52564     17.84530      8.11150        -3.676546    -21.326171    -18.659389
      8.01485     11.35610      1.62230         0.754097      5.740291      7.892511
      4.77025     11.35610      4.86690        -0.004315     -0.064002     -0.039894
      1.52564     11.35610      8.11150      -471.517234    133.353535    -15.660891
      8.01485      4.86690      1.62230         0.518259     -1.179754      1.856676
      4.77025      4.86690      4.86690         0.030564      0.000133     -0.496726
      1.52564      4.86690      8.11150        44.042194     66.132545     -2.032547
     14.50405     17.84530      1.62230         2.135198     -0.302461      2.520093
     11.25945     17.84530      4.86690        -0.081366      0.137052     -0.519364
      8.01485     17.84530      8.11150       583.134927    -67.708378    -13.397227
     14.50405     11.35610      1.62230        -2.451353      0.251078      2.829749
     11.25945     11.35610      4.86690        -0.124557     -0.194657     -0.125632
      8.01485     11.35610      8.11150         3.424358     17.401304    -14.410953
     14.50405      4.86690      1.62230        -0.447062      1.638536     50.347898
     11.25945      4.86690      4.86690        -0.040498      0.067057     -0.337783
      8.01485      4.86690      8.11150       -55.243462    -73.838371     -3.104365
      3.14795     16.22300      0.00000         3.424358     17.401304     14.410953
     19.37094     16.22300      3.24460        -0.004315     -0.064002      0.039894
     16.12635     16.22300      6.48920         5.690303     -1.633763    -10.469019
      3.14795      9.73380      0.00000       -55.243462    -73.838371      3.104365
     19.37094      9.73380      3.24460         0.030564      0.000133      0.496726
     16.12635      9.73380      6.48920        -0.100374      0.499711     -1.199149
[...]
     14.52075      4.81360      9.46925         1.312252     -3.733238     98.049160
     12.27449      3.31609     12.18475         0.213717     -0.030618     -0.395212
     10.02822      1.81858      0.00000        13.385619    -70.008103     -8.318443
     17.51576      0.32107      9.46925        -2.406165    -13.409343     14.743993
     15.26950     18.29117     12.18475        -0.199230     -0.038857     -0.549637
     13.02324     16.79366      0.00000        -1.718644     -1.671506     -1.408452
     13.02324     16.79366      9.46925        -3.587594     -2.318601      3.211680
     10.77698     15.29615     12.18475        -0.066721     -0.258051     -0.629232
      8.53072     13.79864      0.00000         4.184759      1.676652      0.325966
     16.01826     12.30114      9.46925         4.039353      2.263845      3.599923
     13.77199     10.80363     12.18475         0.143733      0.040517     -0.511383
     11.52573      9.30612      0.00000        16.653051      3.743814     -8.356059
     19.01327      7.80861      9.46925        14.443847     -3.252256     15.760977
     16.76701      6.31111     12.18475        -0.149123      0.038940     -0.391104
     14.52074      4.81360      0.00000        -0.753147     -0.535803    -48.433126
    total drift:                                0.553614     -0.006580     -0.003576

  FREE ENERGIE OF THE ION-ELECTRON SYSTEM (eV)
  free  energy   TOTEN  =      1370.83112182 eV

  energy  without entropy=     1370.83542997  energy(sigma->0) =     1370.83327589