 vasp.6.4.3 19Mar24 (build Oct 22 2024 11:23:12) complex

 executed on             LinuxIFC date 2025.06.12  21:15:17

 INCAR:
   SYSTEM = Si and Ge interface calculation
   ISTART = 0
   ICHARG = 2
   LWAVE = .FALSE.
   LREAL = AUTO
   ENCUT = 700
   ENAUG = 900
   ADDGRID = .TRUE.
   LMAXMIX = 6
   LASPH = .TRUE.
   LMIXTAU = .TRUE.
   NCORE = 16
   NELM = 100
   NBANDS = 634
   EDIFF = 1d-7
   AMIX = 0.6
   ISMEAR = 0
   SIGMA = 0.01
   NELECT = 1056
   ISPIN = 2
   NUPDOWN = 1
   LVTOT = .FALSE.
   LVHAR = .TRUE.

 POTCAR:    PAW_PBE Sn 08Apr2002
 POTCAR:    PAW_PBE Si 05Jan2001
|           W    W    AA    RRRRR   N    N  II  N    N   GGGG   !!!           |
|           W    W   A  A   R    R  NN   N  II  NN   N  G    G  !!!           |
|           W    W  A    A  R    R  N N  N  II  N N  N  G       !!!           |
|           W WW W  AAAAAA  RRRRR   N  N N  II  N  N N  G  GGG   !            |
|           WW  WW  A    A  R   R   N   NN  II  N   NN  G    G                |
|           W    W  A    A  R    R  N    N  II  N    N   GGGG   !!!           |
|     You use a magnetic or noncollinear calculation, but did not specify     |
|     the initial magnetic moment with the MAGMOM tag. Note that a            |
|     default of 3.788e-3 will be used for all atoms. This ferromagnetic      |
|     setup may break the symmetry of the crystal, in particular it may       |
|     rule out finding an antiferromagnetic solution. Thence, we              |
|     recommend setting the initial magnetic moment manually or verifying     |
|     carefully that this magnetic setup is desired.                          |

 POTCAR:    PAW_PBE Sn 08Apr2002
   VRHFIN =Sn: s2p2

   TITEL  = PAW_PBE Sn 08Apr2002
   POMASS =  118.710; ZVAL   =    4.000    mass and valenz
   ENMAX  =  103.236; ENMIN  =   77.427 eV

 POTCAR:    PAW_PBE Si 05Jan2001
   VRHFIN =Si: s2p2

   TITEL  = PAW_PBE Si 05Jan2001
   POMASS =   28.085; ZVAL   =    4.000    mass and valenz
   ENMAX  =  245.345; ENMIN  =  184.009 eV

 Optimization of the real space projectors (new method)

 maximal supplied QI-value         = 12.47
 optimisation between [QCUT,QGAM] = [ 12.47, 27.06] = [ 43.56,205.12] Ry
 Optimized for a Real-space Cutoff    1.58 Angstroem

   l    n(q)    QCUT    max X(q) W(low)/X(q) W(high)/X(q)  e(spline)
   0     13    12.472    14.688    0.45E-04    0.45E-04    0.25E-05
   0     13    12.472     7.308    0.94E-04    0.11E-03    0.61E-05
   1     12    12.472    45.102    0.34E-03    0.14E-03    0.21E-05
   1     12    12.472    30.691    0.31E-03    0.13E-03    0.20E-05
   2     12    12.472     7.156    0.86E-04    0.11E-03    0.17E-05
 WARNING: PSMAXN for non-local potential too small
          PSMAXN should be >   13.5545592237991       NTYP=           1
 Optimization of the real space projectors (new method)

 maximal supplied QI-value         = 19.84
 optimisation between [QCUT,QGAM] = [ 13.49, 26.99] = [ 50.98,203.92] Ry
 Optimized for a Real-space Cutoff    1.07 Angstroem

   l    n(q)    QCUT    max X(q) W(low)/X(q) W(high)/X(q)  e(spline)
   0      9    13.493   159.560    0.22E-03    0.15E-03    0.72E-07
   0      9    13.493   115.863    0.21E-03    0.15E-03    0.71E-07
   1      8    13.493    88.339    0.15E-03    0.11E-03    0.13E-06
   1      8    13.493    48.592    0.15E-03    0.10E-03    0.13E-06
  PAW_PBE Sn 08Apr2002                  :
  PAW_PBE Si 05Jan2001                  :

 POSCAR: Sn+Si
  positions in direct lattice

 exchange-correlation table for PE
   RHO(1)=    0.500       N(1)  =     2000
   RHO(2)=  100.500       N(2)  =     4000

 ion  position               nearest neighbor table
   1  0.995  0.667  0.000-  31 2.81 100 2.81 174 2.96 255 3.00
   2  0.828  0.667  0.168-  49 2.81  32 2.81 101 2.81 100 2.81
   3  0.662  0.667  0.336-  50 2.81  33 2.81 101 2.81 102 2.81
   4  0.995  0.333  0.000- 243 2.39  34 2.81 103 2.81
   5  0.828  0.333  0.168-  52 2.81  35 2.81 104 2.81 103 2.81
   6  0.662  0.333  0.336-  53 2.81  36 2.81 104 2.81 105 2.81
   7  0.995  0.000  0.000-  28 2.81 106 2.81 183 2.97 258 2.98
   8  0.828  0.000  0.168-  46 2.81  29 2.81 107 2.81 106 2.81
   9  0.662  0.000  0.336-  47 2.81  30 2.81 107 2.81 108 2.81
  10  0.328  0.667  0.000- 165 2.37  40 2.81  82 2.81
  11  0.162  0.667  0.168-  41 2.81  31 2.81  83 2.81  82 2.81
  12  0.995  0.667  0.336-  42 2.81  32 2.81  83 2.81  84 2.81
  13  0.328  0.333  0.000-  43 2.81  85 2.81
  14  0.162  0.333  0.168-  86 2.81  44 2.81  34 2.81  85 2.81
  15  0.995  0.333  0.336-  45 2.81  35 2.81  86 2.81  87 2.81
  16  0.328  0.000  0.000- 180 2.38  37 2.81  88 2.81
  17  0.162  0.000  0.168-  38 2.81  28 2.81  89 2.81  88 2.81
  18  0.995  0.000  0.336-  39 2.81  29 2.81  89 2.81  90 2.81
  19  0.662  0.667  0.000-  49 2.81  91 2.81 237 2.98 159 2.99
  20  0.495  0.667  0.168-  92 2.81  40 2.81  50 2.81  91 2.81
  21  0.328  0.667  0.336-  51 2.81  41 2.81  93 2.81  92 2.81
  22  0.662  0.333  0.000- 228 2.37  94 2.81  52 2.81
  23  0.495  0.333  0.168-  95 2.81  43 2.81  53 2.81  94 2.81
  24  0.328  0.333  0.336-  54 2.81  96 2.81  44 2.81  95 2.81
  25  0.662  0.000  0.000-  46 2.81  97 2.81 240 2.96 171 3.01
  26  0.495  0.000  0.168-  98 2.81  37 2.81  47 2.81  97 2.81
  27  0.328  0.000  0.336-  48 2.81  38 2.81  99 2.81  98 2.81
  28  0.078  0.917  0.084-  17 2.81   7 2.81  55 2.81  56 2.81
  29  0.912  0.917  0.252-   8 2.81  18 2.81  56 2.81  57 2.81
  30  0.745  0.917  0.420-   9 2.81  57 2.81 208 2.96 139 3.00
  31  0.078  0.583  0.084-  11 2.81   1 2.81  58 2.81  59 2.81
  32  0.912  0.583  0.252-   2 2.81  12 2.81  59 2.81  60 2.81
  33  0.745  0.583  0.420- 121 2.39   3 2.81  60 2.81
  34  0.078  0.250  0.084-  14 2.81  61 2.81   4 2.81  62 2.81
  35  0.912  0.250  0.252-  62 2.81   5 2.81  15 2.81  63 2.81
  36  0.745  0.250  0.420-   6 2.81  63 2.81 190 2.97 109 2.98
  37  0.412  0.917  0.084-  16 2.81  26 2.81  64 2.81  65 2.81
  38  0.245  0.917  0.252-  17 2.81  27 2.81  65 2.81  66 2.81
  39  0.078  0.917  0.420- 223 2.37  18 2.81  66 2.81
  40  0.412  0.583  0.084-  10 2.81  20 2.81  67 2.81  68 2.81
  41  0.245  0.583  0.252-  11 2.81  21 2.81  68 2.81  69 2.81
  42  0.078  0.583  0.420-  12 2.81  69 2.81
  43  0.412  0.250  0.084-  13 2.81  70 2.81  71 2.81  23 2.81
  44  0.245  0.250  0.252-  71 2.81  14 2.81  72 2.81  24 2.81
  45  0.078  0.250  0.420- 187 2.38  15 2.81  72 2.81
  46  0.745  0.917  0.084-   8 2.81  25 2.81  74 2.81  73 2.81
  47  0.578  0.917  0.252-   9 2.81  26 2.81  74 2.81  75 2.81
  48  0.412  0.917  0.420-  27 2.81  75 2.81 145 2.98 220 2.99
  49  0.745  0.583  0.084-   2 2.81  19 2.81  77 2.81  76 2.81
  50  0.578  0.583  0.252-   3 2.81  20 2.81  77 2.81  78 2.81
  51  0.412  0.583  0.420- 133 2.37  21 2.81  78 2.81
  52  0.745  0.250  0.084-   5 2.81  80 2.81  79 2.81  22 2.81
  53  0.578  0.250  0.252-  80 2.81   6 2.81  23 2.81  81 2.81
  54  0.412  0.250  0.420-  24 2.81  81 2.81 115 2.96 202 3.01
  55  0.162  0.833  0.000- 177 2.37  82 2.81  28 2.81
  56  0.995  0.833  0.168- 100 2.81  83 2.81  29 2.81  28 2.81
  57  0.828  0.833  0.336-  84 2.81 101 2.81  30 2.81  29 2.81
  58  0.162  0.500  0.000-  85 2.81  31 2.81 162 2.96 246 3.01
  59  0.995  0.500  0.168- 103 2.81  86 2.81  32 2.81  31 2.81
  60  0.828  0.500  0.336-  87 2.81 104 2.81  33 2.81  32 2.81
[...]
 250  0.713  0.912  0.605- 125 2.34 139 2.34 208 2.34 209 2.34
 251  0.598  0.989  0.745- 126 2.34 140 2.34 209 2.34 210 2.34
 252  0.482  0.066  0.886- 210 2.34 141 2.34  70 2.96
 253  0.175  0.604  0.605- 134 2.34 214 2.34 142 2.34 215 2.34
 254  0.059  0.681  0.745- 135 2.34 215 2.34 143 2.34 216 2.34
 255  0.944  0.758  0.886- 216 2.34 144 2.34   1 3.00
 256  0.328  0.835  0.605- 217 2.34 137 2.34 218 2.34 145 2.34
 257  0.213  0.912  0.745- 146 2.34 218 2.34 138 2.34 219 2.34
 258  0.098  0.989  0.886- 147 2.34 219 2.34   7 2.98
 259  0.482  0.066  0.605- 140 2.34 220 2.34 115 2.34 221 2.34
 260  0.367  0.143  0.745- 116 2.34 141 2.34 221 2.34 222 2.34
 261  0.251  0.220  0.886- 117 2.34 222 2.34  61 2.99
 262  0.098  0.989  0.605- 146 2.34 223 2.34 127 2.34 224 2.34
 263  0.982  0.066  0.745- 147 2.34 224 2.34 128 2.34 225 2.34
 264  0.867  0.143  0.886- 129 2.34 225 2.34  79 2.37

  LATTYP: Found a simple tetragonal cell.
 ALAT       =    19.4675998690
 C/A-ratio  =     0.9914038219

  Lattice vectors:

 A1 = (  19.4675998690,   0.0000000000,   0.0000000000)
 A2 = (   0.0000000000,  19.4675998690,   0.0000000000)
 A3 = (   0.0000000000,   0.0000000000,  19.3002529140)

Analysis of symmetry for initial positions (statically):
 Subroutine PRICEL returns following result:

[...]

   2 primitive cells build up your supercell.

 Routine SETGRP: Setting up the symmetry group for a
 simple tetragonal supercell.

 Subroutine GETGRP returns: Found  2 space group operations
 (whereof  1 operations were pure point group operations)
 out of a pool of 16 trial point group operations.

The static configuration has the point symmetry C_1 .
 The point group associated with its full space group is C_1h.

Analysis of symmetry for dynamics (positions and initial velocities):
 Subroutine PRICEL returns following result:

[...]

The dynamic configuration has the point symmetry C_1 .
 The point group associated with its full space group is C_1h.

Analysis of structural, dynamic, and magnetic symmetry:
 Subroutine PRICEL returns following result:

  LATTYP: Found a simple tetragonal cell.
 ALAT       =    13.7656718808
 C/A-ratio  =     1.4020567308

  Lattice vectors:

 A1 = (   9.7337999345,  -9.7337999345,   0.0000000000)
 A2 = (   9.7337999345,   9.7337999345,   0.0000000000)
 A3 = (   0.0000000000,   0.0000000000,  19.3002529140)

   2 primitive cells build up your supercell.

 Routine SETGRP: Setting up the symmetry group for a
 simple tetragonal supercell.

 Subroutine GETGRP returns: Found  2 space group operations
 (whereof  1 operations were pure point group operations)
 out of a pool of 16 trial point group operations.

The overall configuration has the point symmetry C_1 .
 The point group associated with its full space group is C_1h.

 Subroutine INISYM returns: Found  2 space group operations
 (whereof  1 operations are pure point group operations),
 and found     2 'primitive' translations

                                     Primitive cell

  volume of cell :    3657.2768

  direct lattice vectors                    reciprocal lattice vectors
     9.733799935 -9.733799935  0.000000000     0.051367401 -0.051367401  0.000000000
     9.733799935  9.733799934  0.000000000     0.051367401  0.051367401  0.000000000
     0.000000000  0.000000000 19.300252914     0.000000000  0.000000000  0.051812793

  length of vectors
    13.765671881 13.765671881 19.300252914     0.072644475  0.072644475  0.051812793

  position of ions in fractional coordinates (direct lattice)
     0.328368425  0.661701799  0.000000000
     0.161701738  0.495035112  0.168111786
     0.995035052  0.328368426  0.336223543
     0.661701769  0.328368455  0.000000000
     0.495035112  0.161701738  0.168111786
     0.328368441  0.995035067  0.336223543
     0.995035112  0.995035112  0.000000000
     0.828368425  0.828368425  0.168111786
[...]
     0.000000000  0.000000000 19.300252914     0.000000000  0.000000000  0.051812793

  length of vectors
    19.467599869 19.467599869 19.300252914     0.051367401  0.051367401  0.051812793

 FORCES acting on ions
    electron-ion (+dipol)            ewald-force                    non-local-force                 convergence-correction
   -.303E+01 -.677E+00 -.889E+02   0.358E+01 0.102E+01 0.886E+02   -.505E+00 -.470E+00 -.108E+01   -.250E-05 -.389E-05 0.120E-04
   0.309E+00 0.177E+00 -.160E+02   0.285E-01 -.118E-01 0.160E+02   -.385E+00 -.599E-01 0.685E-01   0.577E-06 0.400E-05 0.851E-05
   0.866E+00 -.590E+00 0.500E+02   -.460E-01 0.253E+00 -.502E+02   -.658E+00 0.290E+00 0.427E+00   0.568E-05 0.916E-05 0.537E-05
   0.437E+01 0.603E+01 -.970E+02   -.473E+01 -.607E+01 0.965E+02   -.439E+00 -.355E+00 0.139E+01   -.616E-05 -.165E-05 0.246E-04
   0.801E-02 -.473E-02 -.159E+02   -.856E-04 -.130E-02 0.161E+02   -.953E-03 0.113E-01 -.176E+00   -.208E-05 -.358E-05 0.126E-04
   -.938E+00 0.436E+00 0.509E+02   0.379E+00 -.216E+00 -.507E+02   0.358E+00 -.855E-01 -.119E+00   0.701E-05 -.641E-05 0.614E-05
   0.527E+00 -.268E+01 -.871E+02   -.449E+00 0.262E+01 0.870E+02   0.118E+00 -.487E+00 -.185E+01   -.155E-05 -.243E-05 0.230E-04
   -.313E+00 -.173E+00 -.160E+02   -.284E-01 0.131E-01 0.160E+02   0.412E+00 0.491E-01 0.610E-01   -.141E-05 -.410E-06 0.104E-04
   0.269E+00 0.435E-01 0.521E+02   -.373E+00 -.953E-01 -.513E+02   -.400E-01 -.470E-01 -.114E+01   0.572E-05 -.217E-05 0.140E-04
   0.708E+01 -.377E+01 -.976E+02   -.681E+01 0.346E+01 0.972E+02   -.796E+00 0.407E+00 0.170E+01   -.101E-04 0.797E-06 0.275E-04
   -.272E+00 -.764E-01 -.158E+02   -.412E-02 0.190E-01 0.160E+02   0.314E+00 -.277E-01 -.121E+00   -.565E-05 0.579E-05 0.702E-05
   -.368E+00 0.262E-01 0.522E+02   0.376E+00 0.544E-01 -.513E+02   0.828E-01 0.122E-01 -.116E+01   -.548E-05 0.616E-05 0.819E-05
   0.364E-01 -.150E+00 -.839E+02   0.129E-01 0.186E+00 0.831E+02   -.203E-01 -.788E-01 -.968E+00   0.210E-05 -.644E-05 0.318E-04
   0.707E-01 0.871E-02 -.158E+02   -.214E-01 -.217E-01 0.160E+02   -.134E+00 0.920E-01 -.704E-01   -.735E-05 -.295E-05 0.873E-05
   0.999E+00 -.469E+00 0.510E+02   -.391E+00 0.234E+00 -.508E+02   -.405E+00 0.101E+00 -.176E+00   -.815E-05 -.295E-05 0.910E-05
   -.693E+01 0.414E+01 -.971E+02   0.664E+01 -.383E+01 0.967E+02   0.724E+00 -.418E+00 0.147E+01   0.674E-05 0.355E-05 0.247E-04
   0.172E+00 0.113E+00 -.159E+02   0.265E-01 0.407E-02 0.160E+02   -.149E+00 -.792E-01 -.137E+00   -.916E-05 -.269E-05 0.111E-04
   -.810E+00 0.553E+00 0.500E+02   0.515E-01 -.235E+00 -.502E+02   0.603E+00 -.270E+00 0.480E+00   -.109E-04 -.324E-05 0.824E-05
   -.719E+00 0.282E+01 -.868E+02   0.628E+00 -.277E+01 0.868E+02   -.106E+00 0.545E+00 -.185E+01   0.379E-05 0.344E-05 0.287E-04
   -.153E+00 -.112E+00 -.159E+02   -.257E-01 -.641E-02 0.160E+02   0.141E+00 0.938E-01 -.144E+00   0.881E-05 0.389E-05 0.154E-04
   -.557E+00 0.544E+00 0.507E+02   -.272E+00 -.346E+00 -.507E+02   0.619E+00 -.324E+00 0.124E+00   0.747E-06 0.632E-05 0.105E-04
   -.457E+01 -.581E+01 -.978E+02   0.487E+01 0.583E+01 0.973E+02   0.543E+00 0.432E+00 0.173E+01   0.490E-05 -.550E-05 0.268E-04
   -.783E-01 -.751E-02 -.158E+02   0.216E-01 0.231E-01 0.160E+02   0.162E+00 -.961E-01 -.802E-01   0.973E-05 -.311E-05 0.989E-05
   -.604E-01 0.324E-01 0.514E+02   0.839E-02 -.157E-01 -.506E+02   0.242E-01 -.134E-01 -.969E+00   0.147E-05 -.261E-05 0.236E-04
   0.327E+01 0.165E+00 -.888E+02   -.374E+01 -.443E+00 0.885E+02   0.485E+00 0.387E+00 -.110E+01   0.278E-05 0.125E-04 0.180E-04
   0.260E+00 0.748E-01 -.158E+02   0.320E-02 -.179E-01 0.160E+02   -.279E+00 0.232E-01 -.120E+00   0.667E-05 -.902E-06 0.106E-04
   0.617E+00 -.586E+00 0.508E+02   0.266E+00 0.366E+00 -.508E+02   -.660E+00 0.341E+00 0.797E-01   0.414E-05 -.447E-05 0.113E-04
   -.557E+00 0.544E+00 -.507E+02   -.272E+00 -.346E+00 0.507E+02   0.619E+00 -.324E+00 -.124E+00   -.936E-05 -.182E-06 0.114E-04
   -.272E+00 -.765E-01 0.158E+02   -.416E-02 0.190E-01 -.160E+02   0.314E+00 -.277E-01 0.121E+00   -.365E-05 0.120E-05 0.209E-04
   -.303E+01 -.677E+00 0.889E+02   0.358E+01 0.102E+01 -.886E+02   -.505E+00 -.470E+00 0.108E+01   0.589E-05 -.499E-05 -.339E-05
   -.604E-01 0.322E-01 -.514E+02   0.844E-02 -.158E-01 0.506E+02   0.242E-01 -.134E-01 0.969E+00   -.941E-05 0.552E-05 -.147E-05
   0.706E-01 0.852E-02 0.158E+02   -.214E-01 -.218E-01 -.160E+02   -.134E+00 0.920E-01 0.704E-01   -.478E-05 0.424E-05 0.163E-04
   0.437E+01 0.603E+01 0.970E+02   -.473E+01 -.607E+01 -.965E+02   -.439E+00 -.355E+00 -.139E+01   0.486E-05 0.530E-05 -.201E-04
   0.617E+00 -.586E+00 -.508E+02   0.266E+00 0.366E+00 0.508E+02   -.660E+00 0.341E+00 -.797E-01   -.765E-05 -.609E-05 0.107E-04
   0.172E+00 0.113E+00 0.159E+02   0.265E-01 0.411E-02 -.160E+02   -.149E+00 -.792E-01 0.137E+00   -.800E-05 -.527E-05 0.169E-04
   0.527E+00 -.268E+01 0.871E+02   -.449E+00 0.262E+01 -.870E+02   0.118E+00 -.487E+00 0.185E+01   0.870E-05 -.832E-05 -.137E-04
   0.866E+00 -.590E+00 -.500E+02   -.460E-01 0.253E+00 0.502E+02   -.658E+00 0.290E+00 -.427E+00   0.516E-05 0.396E-05 0.178E-04
   -.153E+00 -.112E+00 0.159E+02   -.256E-01 -.639E-02 -.160E+02   0.141E+00 0.938E-01 0.144E+00   -.574E-06 -.171E-05 0.182E-04
   0.708E+01 -.377E+01 0.976E+02   -.681E+01 0.346E+01 -.972E+02   -.796E+00 0.407E+00 -.170E+01   -.148E-04 -.309E-05 -.144E-04
   -.938E+00 0.436E+00 -.509E+02   0.379E+00 -.216E+00 0.507E+02   0.358E+00 -.855E-01 0.119E+00   0.532E-05 0.253E-05 0.183E-04
   -.782E-01 -.769E-02 0.158E+02   0.216E-01 0.230E-01 -.160E+02   0.162E+00 -.961E-01 0.802E-01   -.129E-05 0.621E-05 0.198E-04
   0.365E-01 -.150E+00 0.839E+02   0.130E-01 0.186E+00 -.831E+02   -.203E-01 -.788E-01 0.968E+00   -.444E-05 0.205E-05 -.224E-04
   0.269E+00 0.435E-01 -.521E+02   -.373E+00 -.953E-01 0.513E+02   -.400E-01 -.470E-01 0.114E+01   0.627E-05 -.589E-05 0.904E-05
   0.260E+00 0.748E-01 0.158E+02   0.325E-02 -.179E-01 -.160E+02   -.279E+00 0.232E-01 0.120E+00   -.339E-05 -.460E-05 0.220E-04
   -.693E+01 0.414E+01 0.971E+02   0.664E+01 -.383E+01 -.967E+02   0.724E+00 -.418E+00 -.147E+01   -.105E-05 -.983E-06 -.120E-04
   -.368E+00 0.260E-01 -.522E+02   0.376E+00 0.544E-01 0.513E+02   0.828E-01 0.122E-01 0.116E+01   0.516E-05 0.234E-05 0.149E-04
   0.309E+00 0.176E+00 0.160E+02   0.284E-01 -.118E-01 -.160E+02   -.385E+00 -.599E-01 -.685E-01   0.799E-05 0.308E-06 0.221E-04
   -.719E+00 0.282E+01 0.868E+02   0.628E+00 -.277E+01 -.868E+02   -.106E+00 0.545E+00 0.185E+01   0.896E-07 0.134E-05 -.150E-04
   0.999E+00 -.470E+00 -.510E+02   -.391E+00 0.234E+00 0.508E+02   -.405E+00 0.101E+00 0.176E+00   0.443E-05 0.365E-05 0.150E-04
   0.776E-02 -.493E-02 0.159E+02   -.179E-03 -.140E-02 -.161E+02   -.953E-03 0.113E-01 0.176E+00   0.639E-05 0.474E-05 0.143E-04
   -.457E+01 -.581E+01 0.978E+02   0.487E+01 0.583E+01 -.973E+02   0.543E+00 0.432E+00 -.173E+01   0.298E-06 0.466E-05 -.189E-04
   -.811E+00 0.553E+00 -.500E+02   0.515E-01 -.235E+00 0.502E+02   0.603E+00 -.270E+00 -.480E+00   0.350E-06 -.602E-05 0.136E-04
   -.314E+00 -.173E+00 0.160E+02   -.285E-01 0.131E-01 -.160E+02   0.412E+00 0.491E-01 -.610E-01   0.749E-05 -.506E-05 0.192E-04
   0.327E+01 0.165E+00 0.888E+02   -.374E+01 -.443E+00 -.885E+02   0.485E+00 0.387E+00 0.110E+01   0.328E-06 0.444E-05 -.568E-05
   -.457E+01 -.581E+01 -.978E+02   0.487E+01 0.583E+01 0.973E+02   0.543E+00 0.432E+00 0.173E+01   -.119E-04 0.169E-05 0.271E-04
   -.781E-01 -.745E-02 -.158E+02   0.217E-01 0.231E-01 0.160E+02   0.162E+00 -.961E-01 -.802E-01   -.531E-05 0.329E-05 0.825E-05
   -.604E-01 0.325E-01 0.514E+02   0.841E-02 -.157E-01 -.506E+02   0.242E-01 -.134E-01 -.969E+00   -.206E-05 0.547E-05 0.213E-04
   0.327E+01 0.165E+00 -.888E+02   -.374E+01 -.443E+00 0.885E+02   0.485E+00 0.387E+00 -.110E+01   -.141E-04 0.134E-04 0.159E-04
   0.260E+00 0.748E-01 -.158E+02   0.329E-02 -.179E-01 0.160E+02   -.279E+00 0.232E-01 -.120E+00   -.853E-05 0.337E-05 0.487E-05
   0.617E+00 -.586E+00 0.508E+02   0.266E+00 0.366E+00 -.508E+02   -.660E+00 0.341E+00 0.797E-01   0.685E-06 0.420E-07 0.747E-05
[...]
   0.929E+00 -.211E+00 -.284E+02   -.224E+00 -.761E-01 0.282E+02   -.610E+00 0.201E+00 0.174E+00   0.692E-05 0.166E-04 -.247E-05
   0.117E+01 0.814E+01 -.132E+03   -.883E+00 -.716E+01 0.130E+03   -.244E+00 -.916E-01 0.209E+01   0.194E-04 0.112E-04 0.375E-04
   -.592E+00 -.166E+00 0.819E+02   0.123E+01 0.993E-01 -.819E+02   -.178E+00 0.167E+00 -.268E+00   -.587E-05 -.881E-05 -.413E-04
   -.896E+00 0.213E+00 -.285E+02   0.222E+00 0.817E-01 0.282E+02   0.590E+00 -.207E+00 0.196E+00   -.921E-05 -.837E-05 0.359E-05
   -.107E+01 -.521E+01 -.128E+03   0.443E+00 0.469E+01 0.128E+03   0.619E+00 0.104E+00 0.974E+00   0.360E-05 -.618E-05 0.308E-04
   0.247E-01 0.381E-01 0.811E+02   -.518E-01 -.145E-01 -.818E+02   0.120E-01 -.171E-01 0.499E+00   -.246E-06 0.392E-05 -.638E-04
   0.223E+00 -.546E-01 -.287E+02   0.588E-01 0.138E+00 0.283E+02   -.249E+00 0.618E-02 0.383E+00   -.749E-05 0.511E-05 -.677E-05
   -.614E+01 -.299E+00 -.131E+03   0.717E+01 0.104E+01 0.130E+03   -.106E+01 -.735E-01 0.121E+01   -.158E-04 -.569E-06 0.370E-04
   0.630E+00 0.103E+00 0.820E+02   -.127E+01 -.114E+00 -.819E+02   0.161E+00 -.109E+00 -.331E+00   0.712E-05 0.754E-05 -.406E-04
   0.725E+00 -.234E+00 -.288E+02   -.111E+00 0.322E-01 0.285E+02   -.515E+00 0.141E+00 0.246E+00   0.814E-05 0.138E-05 -.396E-05
   -.396E+01 -.766E+00 -.132E+03   0.433E+01 0.886E+00 0.130E+03   -.423E+00 0.116E+00 0.285E+01   -.354E-05 -.534E-05 0.329E-04
   -.606E+00 -.824E+00 0.806E+02   0.341E+00 0.141E+01 -.810E+02   0.116E+00 -.541E+00 0.326E+00   -.994E-05 0.790E-06 -.453E-04
   0.422E+00 -.182E+00 -.284E+02   0.337E-01 0.215E+00 0.282E+02   -.425E+00 0.399E-01 0.107E+00   -.132E-04 -.259E-05 -.640E-05
   -.757E+01 0.535E+01 -.117E+03   0.771E+01 -.416E+01 0.115E+03   0.612E+00 -.925E+00 -.589E+00   -.112E-04 -.330E-05 0.338E-04
   0.306E+00 0.278E+00 0.188E-01   0.977E-14 -.107E-13 -.369E-12   -.596E-02 -.247E+00 -.666E-15   0.232E-05 0.121E-05 -.806E-03

 POSITION                                       TOTAL-FORCE (eV/Angst)
     19.37095     12.97840      0.00000         0.041509     -0.124016     -1.357257
     16.12635     12.97840      3.24460        -0.048895      0.104737      0.114765
     12.88174     12.97840      6.48920         0.160704     -0.046411      0.271793
     19.37095      6.48920      0.00000        -0.800011     -0.398654      0.936233
     16.12635      6.48920      3.24460         0.005750      0.005084     -0.017783
     12.88174      6.48920      6.48920        -0.201312      0.134387      0.068981
     19.37095      0.00000      0.00000         0.195131     -0.547248     -1.889792
     16.12635      0.00000      3.24460         0.069406     -0.110584      0.108865
     12.88174      0.00000      6.48920        -0.145607     -0.098963     -0.250354
      6.39255     12.97840      0.00000        -0.521498      0.094362      1.238447
      3.14794     12.97840      3.24460         0.036649     -0.085218      0.075239
     19.37095     12.97840      6.48920         0.089611      0.092680     -0.252264
      6.39255      6.48920      0.00000         0.027850     -0.042857     -1.725662
      3.14794      6.48920      3.24460        -0.086014      0.078854      0.086238
     19.37095      6.48920      6.48920         0.201899     -0.135045      0.051610
      6.39255      0.00000      0.00000         0.437246     -0.109550      1.058315
      3.14794      0.00000      3.24460         0.048018      0.037582     -0.011495
     19.37095      0.00000      6.48920        -0.157447      0.047583      0.292106
     12.88175     12.97840      0.00000        -0.198455      0.595420     -1.888207
      9.63715     12.97840      3.24460        -0.039304     -0.025037     -0.013763
      6.39255     12.97840      6.48920        -0.210119     -0.124939      0.132212
     12.88175      6.48920      0.00000         0.840610      0.450189      1.228487
      9.63715      6.48920      3.24460         0.104364     -0.080753      0.076087
      6.39255      6.48920      6.48920        -0.028972      0.003207     -0.154683
     12.88175      0.00000      0.00000         0.011635      0.109382     -1.362516
      9.63715      0.00000      3.24460        -0.016946      0.080016      0.080666
      6.39255      0.00000      6.48920         0.222662      0.120302      0.116904
      1.52565     17.84530      1.62230        -0.210119     -0.124939     -0.132212
     17.74865     17.84530      4.86690         0.036649     -0.085218     -0.075239
     14.50404     17.84530      8.11150         0.041509     -0.124016      1.357257
      1.52565     11.35610      1.62230        -0.028972      0.003207      0.154683
     17.74865     11.35610      4.86690        -0.086014      0.078854     -0.086238
     14.50404     11.35610      8.11150        -0.800011     -0.398654     -0.936233
      1.52565      4.86690      1.62230         0.222662      0.120302     -0.116904
     17.74865      4.86690      4.86690         0.048018      0.037582      0.011495
     14.50404      4.86690      8.11150         0.195131     -0.547248      1.889792
      8.01485     17.84530      1.62230         0.160704     -0.046411     -0.271793
      4.77025     17.84530      4.86690        -0.039304     -0.025037      0.013763
      1.52564     17.84530      8.11150        -0.521498      0.094362     -1.238447
      8.01485     11.35610      1.62230        -0.201312      0.134387     -0.068981
      4.77025     11.35610      4.86690         0.104364     -0.080753     -0.076087
      1.52564     11.35610      8.11150         0.027850     -0.042857      1.725662
      8.01485      4.86690      1.62230        -0.145607     -0.098963      0.250354
      4.77025      4.86690      4.86690        -0.016946      0.080016     -0.080666
      1.52564      4.86690      8.11150         0.437246     -0.109550     -1.058315
     14.50405     17.84530      1.62230         0.089611      0.092680      0.252264
     11.25945     17.84530      4.86690        -0.048895      0.104737     -0.114765
      8.01485     17.84530      8.11150        -0.198455      0.595420      1.888207
     14.50405     11.35610      1.62230         0.201899     -0.135045     -0.051610
     11.25945     11.35610      4.86690         0.005750      0.005084      0.017783
      8.01485     11.35610      8.11150         0.840610      0.450189     -1.228487
     14.50405      4.86690      1.62230        -0.157447      0.047583     -0.292106
     11.25945      4.86690      4.86690         0.069406     -0.110584     -0.108865
      8.01485      4.86690      8.11150         0.011635      0.109382      1.362516
      3.14795     16.22300      0.00000         0.840610      0.450189      1.228487
     19.37094     16.22300      3.24460         0.104364     -0.080753      0.076087
     16.12635     16.22300      6.48920        -0.028972      0.003207     -0.154683
      3.14795      9.73380      0.00000         0.011635      0.109382     -1.362516
     19.37094      9.73380      3.24460        -0.016946      0.080016      0.080666
     16.12635      9.73380      6.48920         0.222662      0.120302      0.116904
[...]
     13.88006     17.75709     11.66925        -0.223748     -0.050159      0.033819
     11.63380     19.25460     14.38475         0.093692     -0.085836     -0.035681
      9.38753      1.28450     17.10025         0.038616      0.891181      0.681257
      3.39751     11.76705     11.66925         0.463953      0.100967     -0.233933
      1.15124     13.26456     14.38475        -0.085585      0.087524     -0.029820
     18.37258     14.76207     17.10025        -0.006636     -0.410799      0.496644
      6.39252     16.25958     11.66925        -0.016268      0.006259     -0.182257
      4.14626     17.75709     14.38475         0.031682      0.089133      0.019787
      1.89999     19.25460     17.10025        -0.032860      0.670902      0.716304
      9.38754      1.28450     11.66925        -0.482002     -0.119603     -0.240791
      7.14128      2.78201     14.38475         0.098537     -0.061503     -0.053029
      4.89501      4.27952     17.10025        -0.058823      0.236792      1.135607
      1.90000     19.25459     11.66925        -0.150693      0.048214     -0.156250
     19.12133      1.28450     14.38475         0.029636      0.073319     -0.044589
     16.87507      2.78201     17.10025         0.756713      0.263295     -1.972830
    total drift:                                0.299696      0.031166      0.017967

  FREE ENERGIE OF THE ION-ELECTRON SYSTEM (eV)
  free  energy   TOTEN  =     -1173.59468290 eV

  energy  without entropy=    -1173.58759817  energy(sigma->0) =    -1173.59114054