 vasp.6.4.3 19Mar24 (build Oct 22 2024 11:23:12) complex

 executed on             LinuxIFC date 2025.04.30  05:22:14

 INCAR:
   SYSTEM = Si122 and Ge001 interface calculation
   ISTART = 0
   ICHARG = 2
   LWAVE = .FALSE.
   LREAL = AUTO
   ENCUT = 700
   ENAUG = 900
   ADDGRID = .TRUE.
   LMAXMIX = 6
   LASPH = .TRUE.
   LMIXTAU = .TRUE.
   NCORE = 16
   NELM = 100
   NBANDS = 188
   EDIFF = 1d-7
   AMIX = 0.6
   ISMEAR = 0
   SIGMA = 0.01
   NELECT = 312
   ISPIN = 2
   NUPDOWN = 1
   LVTOT = .FALSE.
   LVHAR = .TRUE.

 POTCAR:    PAW_PBE Si 05Jan2001
 POTCAR:    PAW_PBE Ge 05Jan2001
|           W    W    AA    RRRRR   N    N  II  N    N   GGGG   !!!           |
|           W    W   A  A   R    R  NN   N  II  NN   N  G    G  !!!           |
|           W    W  A    A  R    R  N N  N  II  N N  N  G       !!!           |
|           W WW W  AAAAAA  RRRRR   N  N N  II  N  N N  G  GGG   !            |
|           WW  WW  A    A  R   R   N   NN  II  N   NN  G    G                |
|           W    W  A    A  R    R  N    N  II  N    N   GGGG   !!!           |
|     You use a magnetic or noncollinear calculation, but did not specify     |
|     the initial magnetic moment with the MAGMOM tag. Note that a            |
|     default of 0.013 will be used for all atoms. This ferromagnetic         |
|     setup may break the symmetry of the crystal, in particular it may       |
|     rule out finding an antiferromagnetic solution. Thence, we              |
|     recommend setting the initial magnetic moment manually or verifying     |
|     carefully that this magnetic setup is desired.                          |

 POTCAR:    PAW_PBE Si 05Jan2001
   VRHFIN =Si: s2p2

   TITEL  = PAW_PBE Si 05Jan2001
   POMASS =   28.085; ZVAL   =    4.000    mass and valenz
   ENMAX  =  245.345; ENMIN  =  184.009 eV

 POTCAR:    PAW_PBE Ge 05Jan2001
   VRHFIN =Ge: s2p2

   TITEL  = PAW_PBE Ge 05Jan2001
   POMASS =   72.610; ZVAL   =    4.000    mass and valenz
   ENMAX  =  173.807; ENMIN  =  130.355 eV

 Optimization of the real space projectors (new method)

 maximal supplied QI-value         = 19.84
 optimisation between [QCUT,QGAM] = [ 13.49, 26.99] = [ 50.98,203.92] Ry
 Optimized for a Real-space Cutoff    1.07 Angstroem

   l    n(q)    QCUT    max X(q) W(low)/X(q) W(high)/X(q)  e(spline)
   0      9    13.493   159.560    0.22E-03    0.15E-03    0.72E-07
   0      9    13.493   115.863    0.21E-03    0.15E-03    0.71E-07
   1      8    13.493    88.339    0.15E-03    0.11E-03    0.13E-06
   1      8    13.493    48.592    0.15E-03    0.10E-03    0.13E-06
 Optimization of the real space projectors (new method)

 maximal supplied QI-value         = 16.25
 optimisation between [QCUT,QGAM] = [ 13.49, 26.98] = [ 50.95,203.80] Ry
 Optimized for a Real-space Cutoff    1.25 Angstroem

   l    n(q)    QCUT    max X(q) W(low)/X(q) W(high)/X(q)  e(spline)
   0     10    13.489    65.336    0.91E-04    0.11E-03    0.34E-06
   0     10    13.489    52.220    0.89E-04    0.11E-03    0.34E-06
   1     10    13.489    36.409    0.22E-03    0.27E-03    0.14E-06
   1     10    13.489    21.334    0.21E-03    0.27E-03    0.14E-06
   2      9    13.489     4.673    0.11E-03    0.12E-03    0.19E-06
  PAW_PBE Si 05Jan2001                  :
  PAW_PBE Ge 05Jan2001                  :

 POSCAR: fcc Si+fcc Ge
  positions in direct lattice

 exchange-correlation table for PE
   RHO(1)=    0.500       N(1)  =     2000
   RHO(2)=  100.500       N(2)  =     4000

 ion  position               nearest neighbor table
   1  0.000  0.000  0.000-  78 2.34  10 2.37   8 2.37   7 2.37  60 2.75
   2  0.389  0.278  0.049-  66 2.11   9 2.37  11 2.37   8 2.37
   3  0.778  0.556  0.098-   9 2.37  12 2.37  49 2.45  73 2.55
   4  0.500  0.000  0.000-  60 2.34   7 2.37  11 2.37  10 2.37  78 2.75
   5  0.889  0.278  0.049-  48 2.11  12 2.37   8 2.37  11 2.37
   6  0.278  0.556  0.098-   9 2.37  12 2.37  67 2.45  55 2.55
   7  0.694  0.889  0.025-  78 1.58   4 2.37   1 2.37
   8  0.083  0.167  0.074-  43 2.37   5 2.37   1 2.37   2 2.37
   9  0.472  0.444  0.123-  67 2.08   2 2.37   6 2.37   3 2.37  49 2.53  23 2.59
  10  0.194  0.889  0.025-  60 1.58   1 2.37   4 2.37
  11  0.583  0.167  0.074-  61 2.37   2 2.37   4 2.37   5 2.37
  12  0.972  0.444  0.123-  49 2.08   5 2.37   6 2.37   3 2.37  67 2.53  38 2.59
  13  0.149  0.728  0.258-  44 2.40  55 2.40  73 2.40  74 2.40
  14  0.316  0.561  0.409-  56 2.40  74 2.40  45 2.40  75 2.40
  15  0.482  0.395  0.561-  76 2.40  75 2.40  57 2.40  46 2.40
  16  0.649  0.228  0.713-  58 2.40  76 2.40  47 2.40  77 2.40
  17  0.816  0.061  0.865-  59 2.40  77 2.40  48 2.40  78 2.40
  18  0.816  0.061  0.258-  43 2.40  61 2.40  50 2.40  62 2.40
  19  0.982  0.895  0.409-  63 2.40  62 2.40  44 2.40  51 2.40
  20  0.149  0.728  0.561-  52 2.40  45 2.40  63 2.40  64 2.40
  21  0.316  0.561  0.713-  46 2.40  64 2.40  53 2.40  65 2.40
  22  0.482  0.395  0.865-  66 2.40  65 2.40  47 2.40  54 2.40
  23  0.482  0.395  0.258-  68 2.40  67 2.40  49 2.40  56 2.40   9 2.59
  24  0.649  0.228  0.409-  57 2.40  50 2.40  68 2.40  69 2.40
  25  0.816  0.061  0.561-  51 2.40  69 2.40  58 2.40  70 2.40
  26  0.982  0.895  0.713-  52 2.40  70 2.40  71 2.40  59 2.40
  27  0.149  0.728  0.865-  60 2.40  53 2.40  71 2.40  72 2.40
  28  0.649  0.728  0.258-  62 2.40  55 2.40  73 2.40  56 2.40
  29  0.816  0.561  0.409-  56 2.40  74 2.40  63 2.40  57 2.40
  30  0.982  0.395  0.561-  58 2.40  57 2.40  75 2.40  64 2.40
  31  0.149  0.228  0.713-  58 2.40  76 2.40  65 2.40  59 2.40
  32  0.316  0.061  0.865-  59 2.40  77 2.40  66 2.40  60 2.40
  33  0.316  0.061  0.258-  43 2.40  61 2.40  44 2.40  68 2.40
  34  0.482  0.895  0.409-  45 2.40  44 2.40  62 2.40  69 2.40
  35  0.649  0.728  0.561-  70 2.40  63 2.40  45 2.40  46 2.40
  36  0.816  0.561  0.713-  46 2.40  64 2.40  47 2.40  71 2.40
  37  0.982  0.395  0.865-  48 2.40  47 2.40  65 2.40  72 2.40
  38  0.982  0.395  0.258-  50 2.40  49 2.40  67 2.40  74 2.40  12 2.59
  39  0.149  0.228  0.409-  75 2.40  68 2.40  50 2.40  51 2.40
  40  0.316  0.061  0.561-  51 2.40  69 2.40  52 2.40  76 2.40
  41  0.482  0.895  0.713-  52 2.40  70 2.40  53 2.40  77 2.40
  42  0.649  0.728  0.865-  78 2.40  71 2.40  53 2.40  54 2.40
  43  0.066  0.061  0.182-   8 2.37  18 2.40  33 2.40
  44  0.232  0.895  0.333-  13 2.40  19 2.40  34 2.40  33 2.40
  45  0.399  0.728  0.485-  34 2.40  20 2.40  35 2.40  14 2.40
  46  0.566  0.561  0.637-  21 2.40  36 2.40  35 2.40  15 2.40
  47  0.732  0.395  0.789-  22 2.40  37 2.40  16 2.40  36 2.40
  48  0.899  0.228  0.941-   5 2.11  37 2.40  17 2.40
  49  0.732  0.395  0.182-  12 2.08  23 2.40  38 2.40   3 2.45   9 2.53
  50  0.899  0.228  0.333-  38 2.40  24 2.40  39 2.40  18 2.40
  51  0.066  0.061  0.485-  25 2.40  40 2.40  39 2.40  19 2.40
  52  0.232  0.895  0.637-  20 2.40  26 2.40  41 2.40  40 2.40
  53  0.399  0.728  0.789-  27 2.40  42 2.40  41 2.40  21 2.40
  54  0.566  0.561  0.941-  22 2.40  42 2.40
  55  0.399  0.728  0.182-  13 2.40  28 2.40   6 2.55
  56  0.566  0.561  0.333-  14 2.40  29 2.40  28 2.40  23 2.40
  57  0.732  0.395  0.485-  24 2.40  15 2.40  30 2.40  29 2.40
  58  0.899  0.228  0.637-  30 2.40  16 2.40  31 2.40  25 2.40
  59  0.066  0.061  0.789-  17 2.40  32 2.40  31 2.40  26 2.40
  60  0.232  0.895  0.941-  10 1.58   4 2.34  27 2.40  32 2.40   1 2.75
[...]
  64  0.066  0.561  0.637-  21 2.40  36 2.40  30 2.40  20 2.40
  65  0.232  0.395  0.789-  22 2.40  37 2.40  31 2.40  21 2.40
  66  0.399  0.228  0.941-   2 2.11  22 2.40  32 2.40
  67  0.232  0.395  0.182-   9 2.08  23 2.40  38 2.40   6 2.45  12 2.53
  68  0.399  0.228  0.333-  23 2.40  24 2.40  39 2.40  33 2.40
  69  0.566  0.061  0.485-  25 2.40  40 2.40  34 2.40  24 2.40
  70  0.732  0.895  0.637-  35 2.40  26 2.40  41 2.40  25 2.40
  71  0.899  0.728  0.789-  27 2.40  42 2.40  26 2.40  36 2.40
  72  0.066  0.561  0.941-  27 2.40  37 2.40
  73  0.899  0.728  0.182-  13 2.40  28 2.40   3 2.55
  74  0.066  0.561  0.333-  14 2.40  29 2.40  13 2.40  38 2.40
  75  0.232  0.395  0.485-  39 2.40  30 2.40  15 2.40  14 2.40
  76  0.399  0.228  0.637-  15 2.40  16 2.40  31 2.40  40 2.40
  77  0.566  0.061  0.789-  17 2.40  32 2.40  16 2.40  41 2.40
  78  0.732  0.895  0.941-   7 1.58   1 2.34  42 2.40  17 2.40   4 2.75

  LATTYP: Found a base centered orthorhombic cell.
 ALAT       =     7.7498903220
 B/A-ratio  =     3.0000000000
 C/A-ratio  =     2.4043351014

  Lattice vectors:

 A1 = (   3.8749451610, -11.6248354830,   0.0000000000)
 A2 = (   3.8749451610,  11.6248354830,   0.0000000000)
 A3 = (   0.0000000000,   0.0000000000,  18.6333333330)

Analysis of symmetry for initial positions (statically):
 Subroutine PRICEL returns following result:

  LATTYP: Found a simple orthorhombic cell.
 ALAT       =     3.8749451610
 B/A-ratio  =     3.0000000000
 C/A-ratio  =     4.8086702028

[...]

   2 primitive cells build up your supercell.

 Routine SETGRP: Setting up the symmetry group for a
 base centered orthorhombic supercell.

 Subroutine GETGRP returns: Found  1 space group operations
 (whereof  1 operations were pure point group operations)
 out of a pool of  8 trial point group operations.

The static configuration has the point symmetry C_1 .

Analysis of symmetry for dynamics (positions and initial velocities):
 Subroutine PRICEL returns following result:

[...]

The dynamic configuration has the point symmetry C_1 .

Analysis of structural, dynamic, and magnetic symmetry:
 Subroutine PRICEL returns following result:

  LATTYP: Found a simple orthorhombic cell.
 ALAT       =     3.8749451610
 B/A-ratio  =     3.0000000000
 C/A-ratio  =     4.8086702028

  Lattice vectors:

 A1 = (   3.8749451610,   0.0000000000,   0.0000000000)
 A2 = (   0.0000000000,  11.6248354830,   0.0000000000)
 A3 = (   0.0000000000,   0.0000000000,  18.6333333330)

   2 primitive cells build up your supercell.

 Routine SETGRP: Setting up the symmetry group for a
 base centered orthorhombic supercell.

 Subroutine GETGRP returns: Found  1 space group operations
 (whereof  1 operations were pure point group operations)
 out of a pool of  8 trial point group operations.

The overall configuration has the point symmetry C_1 .

 Subroutine INISYM returns: Found  1 space group operations
 (whereof  1 operations are pure point group operations),
 and found     2 'primitive' translations

                                     Primitive cell

  volume of cell :     839.3497

  direct lattice vectors                    reciprocal lattice vectors
     3.874945161  0.000000000  0.000000000     0.258068168  0.000000000  0.000000000
     0.000000000 11.624835483  0.000000000     0.000000000  0.086022723  0.000000000
     0.000000000  0.000000000 18.633333333     0.000000000  0.000000000  0.053667263

  length of vectors
     3.874945161 11.624835483 18.633333333     0.258068168  0.086022723  0.053667263

  position of ions in fractional coordinates (direct lattice)
     0.000000000  0.000000000  0.000000000
     0.500000000  0.277777778  0.049016100
     0.000000000  0.555555556  0.098032200
     0.499999999  0.888888889  0.024508050
     0.999999999  0.166666667  0.073524150
     0.500000000  0.444444444  0.122540250
[...]
     0.000000000  0.000000000 18.633333333     0.000000000  0.000000000  0.053667263

  length of vectors
     7.749890322 12.253652517 18.633333333     0.136013867  0.086022723  0.053667263

 FORCES acting on ions
    electron-ion (+dipol)            ewald-force                    non-local-force                 convergence-correction
   -.801E+01 0.104E+02 -.182E+02   0.892E+01 -.905E+01 0.206E+02   0.664E-01 -.323E+00 -.998E+00   0.139E-04 -.445E-04 -.378E-04
   0.342E+01 -.229E+02 0.150E+01   -.333E+01 0.215E+02 -.219E+01   -.496E+00 0.164E+01 0.417E+01   0.406E-05 0.161E-03 0.274E-04
   0.291E+01 -.637E+02 0.528E+02   -.225E+01 0.621E+02 -.534E+02   -.460E+00 0.302E+01 -.984E-01   -.224E-05 -.119E-03 -.187E-04
   -.801E+01 0.104E+02 -.182E+02   0.892E+01 -.905E+01 0.206E+02   0.664E-01 -.323E+00 -.998E+00   0.145E-04 -.449E-04 -.375E-04
   0.342E+01 -.229E+02 0.150E+01   -.333E+01 0.215E+02 -.219E+01   -.496E+00 0.164E+01 0.417E+01   0.516E-05 0.161E-03 0.275E-04
   0.291E+01 -.637E+02 0.528E+02   -.225E+01 0.621E+02 -.534E+02   -.460E+00 0.302E+01 -.984E-01   -.100E-05 -.118E-03 -.187E-04
   0.107E+02 0.612E+02 -.104E+03   -.124E+02 -.628E+02 0.110E+03   -.487E+01 -.630E-01 0.321E+02   -.151E-04 -.771E-04 -.285E-04
   0.796E+00 0.963E+01 -.161E+02   -.739E+00 -.914E+01 0.160E+02   0.173E-01 -.406E+00 0.404E+00   -.141E-05 0.103E-03 0.424E-05
   -.124E+02 -.318E+02 0.354E+02   0.113E+02 0.331E+02 -.372E+02   0.403E+01 0.499E+00 -.227E+01   -.747E-06 0.651E-04 -.430E-04
   0.107E+02 0.612E+02 -.104E+03   -.124E+02 -.628E+02 0.110E+03   -.487E+01 -.630E-01 0.321E+02   -.152E-04 -.774E-04 -.261E-04
   0.796E+00 0.963E+01 -.161E+02   -.739E+00 -.914E+01 0.160E+02   0.173E-01 -.406E+00 0.404E+00   -.259E-05 0.104E-03 0.372E-05
   -.124E+02 -.318E+02 0.354E+02   0.113E+02 0.331E+02 -.372E+02   0.403E+01 0.499E+00 -.227E+01   -.906E-06 0.651E-04 -.426E-04
   0.324E+00 -.157E+02 0.220E+02   -.127E+00 0.156E+02 -.225E+02   -.155E+00 0.967E-01 0.212E+00   0.121E-05 -.450E-04 -.774E-04
   -.385E-01 -.419E+01 0.286E+01   -.363E-02 0.410E+01 -.289E+01   0.655E-02 -.138E-01 0.109E+00   -.911E-07 -.200E-05 0.551E-05
   -.236E-01 -.909E+00 -.125E+01   0.608E-04 0.902E+00 0.138E+01   0.699E-02 -.134E-01 -.782E-01   0.610E-06 -.323E-06 0.237E-04
   -.223E-01 -.331E+01 -.286E+01   0.208E-02 0.346E+01 0.301E+01   0.451E-03 -.156E+00 -.267E+00   -.396E-07 0.484E-05 0.276E-04
   0.102E+01 -.501E+01 0.110E+02   -.113E+01 0.403E+01 -.113E+02   0.601E-01 0.106E+01 -.189E+00   0.102E-05 -.141E-04 -.277E-04
   0.484E+00 0.159E+02 0.125E+02   -.167E+00 -.158E+02 -.130E+02   -.240E+00 -.129E+00 0.808E-01   0.138E-05 0.220E-04 -.194E-04
   0.947E-01 0.779E+00 0.922E+01   0.564E-03 -.776E+00 -.929E+01   -.983E-01 -.129E-01 0.748E-01   -.106E-05 -.406E-05 0.228E-04
   0.941E-02 0.588E-02 0.138E+00   -.153E-05 -.398E-01 -.582E-01   -.717E-02 -.147E-01 -.669E-01   -.322E-06 0.114E-04 0.277E-04
   0.390E-01 -.530E+00 -.913E+01   -.550E-03 0.471E+00 0.933E+01   0.102E-01 0.307E-01 -.225E+00   0.467E-06 0.357E-05 0.611E-04
   -.127E+00 -.153E+02 -.130E+02   0.157E+00 0.157E+02 0.133E+02   0.902E-01 -.401E+00 -.502E+00   -.188E-06 0.813E-04 0.662E-04
   -.126E+01 0.365E+01 -.168E+02   0.130E+01 -.348E+01 0.179E+02   0.299E+00 -.130E+00 0.212E+00   -.516E-05 0.436E-04 -.170E-03
   0.525E-02 0.341E+01 0.286E+01   -.251E-02 -.330E+01 -.275E+01   -.110E-01 0.110E-01 -.832E-01   0.184E-05 0.760E-05 0.180E-05
   0.908E-02 0.910E+00 0.142E+01   -.596E-04 -.862E+00 -.132E+01   -.627E-02 0.224E-01 -.116E+00   0.199E-06 -.101E-04 0.376E-04
   -.109E-01 0.372E+01 -.244E+01   0.414E-02 -.397E+01 0.256E+01   0.777E-02 0.290E+00 -.208E+00   -.782E-06 -.604E-05 0.244E-04
   0.109E+00 0.169E+02 -.206E+02   0.150E+00 -.173E+02 0.207E+02   0.677E-01 0.199E+00 -.777E+00   0.216E-05 -.704E-04 0.475E-04
   0.324E+00 -.157E+02 0.220E+02   -.127E+00 0.156E+02 -.225E+02   -.155E+00 0.967E-01 0.212E+00   0.107E-06 -.442E-04 -.770E-04
   -.385E-01 -.419E+01 0.286E+01   -.363E-02 0.410E+01 -.289E+01   0.655E-02 -.138E-01 0.109E+00   -.676E-06 -.307E-05 0.569E-05
   -.236E-01 -.909E+00 -.125E+01   0.608E-04 0.902E+00 0.138E+01   0.699E-02 -.134E-01 -.782E-01   -.870E-06 -.705E-06 0.231E-04
   -.223E-01 -.331E+01 -.286E+01   0.208E-02 0.346E+01 0.301E+01   0.451E-03 -.156E+00 -.267E+00   0.385E-06 0.332E-05 0.281E-04
   0.102E+01 -.501E+01 0.110E+02   -.113E+01 0.403E+01 -.113E+02   0.601E-01 0.106E+01 -.189E+00   -.111E-05 -.135E-04 -.277E-04
   0.484E+00 0.159E+02 0.125E+02   -.167E+00 -.158E+02 -.130E+02   -.240E+00 -.129E+00 0.808E-01   0.800E-06 0.223E-04 -.206E-04
   0.947E-01 0.779E+00 0.922E+01   0.564E-03 -.776E+00 -.929E+01   -.983E-01 -.129E-01 0.748E-01   0.144E-05 -.459E-05 0.228E-04
   0.941E-02 0.588E-02 0.138E+00   -.153E-05 -.398E-01 -.582E-01   -.717E-02 -.147E-01 -.669E-01   -.259E-06 0.112E-04 0.278E-04
   0.390E-01 -.530E+00 -.913E+01   -.550E-03 0.471E+00 0.933E+01   0.102E-01 0.307E-01 -.225E+00   -.712E-06 0.394E-05 0.615E-04
   -.127E+00 -.153E+02 -.130E+02   0.157E+00 0.157E+02 0.133E+02   0.902E-01 -.401E+00 -.502E+00   -.112E-05 0.816E-04 0.663E-04
   -.126E+01 0.365E+01 -.168E+02   0.130E+01 -.348E+01 0.179E+02   0.299E+00 -.130E+00 0.212E+00   -.551E-05 0.425E-04 -.169E-03
   0.526E-02 0.341E+01 0.286E+01   -.251E-02 -.330E+01 -.275E+01   -.110E-01 0.110E-01 -.832E-01   -.742E-07 0.711E-05 0.153E-05
   0.908E-02 0.910E+00 0.142E+01   -.596E-04 -.862E+00 -.132E+01   -.627E-02 0.224E-01 -.116E+00   -.546E-08 -.959E-05 0.381E-04
   -.109E-01 0.372E+01 -.244E+01   0.414E-02 -.397E+01 0.256E+01   0.777E-02 0.290E+00 -.208E+00   -.400E-06 -.576E-05 0.236E-04
   0.109E+00 0.169E+02 -.206E+02   0.150E+00 -.173E+02 0.207E+02   0.677E-01 0.199E+00 -.777E+00   0.397E-05 -.702E-04 0.476E-04
   -.234E+01 0.356E+02 0.347E+01   0.212E+01 -.352E+02 -.399E+01   0.102E+00 -.745E+00 0.489E+00   -.123E-05 0.295E-04 -.175E-04
   -.603E-01 0.160E+01 0.164E+02   -.392E-02 -.172E+01 -.164E+02   -.143E-01 0.887E-01 0.455E-01   0.357E-06 0.650E-05 -.475E-05
   0.490E-02 -.119E+01 0.349E+01   0.323E-06 0.126E+01 -.345E+01   0.238E-02 -.305E-01 -.308E-01   0.798E-06 0.109E-05 0.386E-04
   -.512E-01 -.490E+00 -.457E+01   0.612E-04 0.490E+00 0.465E+01   0.286E-01 0.141E-01 -.723E-01   0.760E-06 0.976E-05 0.406E-04
   -.353E-01 -.772E+01 -.113E+02   -.121E-01 0.765E+01 0.114E+02   0.570E-01 0.696E-01 -.201E+00   -.102E-06 0.433E-04 0.594E-04
   -.199E+01 -.155E+02 0.178E+02   0.177E+01 0.163E+02 -.182E+02   0.626E+00 -.118E+01 -.320E+01   -.390E-05 0.937E-04 0.171E-04
   0.109E+02 0.155E+02 -.152E+02   -.116E+02 -.171E+02 0.146E+02   -.285E+01 -.112E+01 0.336E+01   0.839E-05 0.118E-03 -.167E-03
   -.141E-01 0.697E+01 0.294E+01   0.190E-01 -.728E+01 -.286E+01   -.304E-01 0.174E+00 -.392E-01   -.116E-05 0.888E-05 -.226E-04
   -.300E-02 0.161E+01 0.383E+01   0.448E-04 -.181E+01 -.370E+01   -.434E-02 0.118E+00 -.109E+00   -.695E-06 0.719E-06 0.127E-04
   0.198E-01 0.185E+01 -.952E+00   -.411E-03 -.184E+01 0.104E+01   0.720E-03 0.298E-02 -.867E-01   -.130E-05 -.153E-04 0.357E-04
   -.218E+00 0.799E+01 -.130E+02   -.962E-02 -.798E+01 0.131E+02   0.167E+00 -.156E-01 -.186E+00   -.213E-05 -.274E-04 0.723E-04
   0.259E+00 -.126E+02 -.327E+02   -.334E+00 0.125E+02 0.348E+02   0.138E+00 0.716E-01 -.438E+00   -.904E-06 -.796E-05 0.420E-04
   -.135E+01 -.317E+02 0.389E+02   0.112E+01 0.320E+02 -.394E+02   0.440E-01 -.312E+00 -.797E+00   -.165E-05 -.112E-03 -.923E-04
   0.466E-02 -.904E+01 0.290E+01   0.325E-01 0.934E+01 -.292E+01   0.467E-02 -.198E+00 0.112E+00   -.114E-06 -.232E-04 -.451E-04
   -.139E-01 -.485E+00 0.302E+00   -.675E-03 0.544E+00 -.244E+00   0.319E-01 -.166E-01 -.572E-01   -.515E-06 -.286E-05 0.169E-04
   0.132E-01 -.135E+01 -.155E+01   -.243E-03 0.135E+01 0.171E+01   -.226E-01 -.180E-01 -.141E+00   -.125E-05 0.452E-05 0.307E-04
   -.223E-01 -.410E+00 0.240E+01   0.940E-01 0.662E+00 -.231E+01   -.144E+00 -.140E-01 -.337E+00   -.115E-05 -.195E-04 0.383E-05
   -.356E+01 0.437E+02 0.313E+02   0.513E+01 -.436E+02 -.466E+02   0.402E+01 0.393E+00 -.217E+02   -.191E-05 -.855E-04 -.514E-04
[...]
   -.353E-01 -.772E+01 -.113E+02   -.121E-01 0.765E+01 0.114E+02   0.570E-01 0.696E-01 -.201E+00   0.295E-06 0.424E-04 0.601E-04
   -.199E+01 -.155E+02 0.178E+02   0.177E+01 0.163E+02 -.182E+02   0.626E+00 -.118E+01 -.320E+01   -.461E-05 0.941E-04 0.178E-04
   0.109E+02 0.155E+02 -.152E+02   -.116E+02 -.171E+02 0.146E+02   -.285E+01 -.112E+01 0.336E+01   0.908E-05 0.118E-03 -.167E-03
   -.141E-01 0.697E+01 0.294E+01   0.190E-01 -.728E+01 -.286E+01   -.304E-01 0.174E+00 -.392E-01   -.635E-06 0.966E-05 -.221E-04
   -.301E-02 0.161E+01 0.383E+01   0.448E-04 -.181E+01 -.370E+01   -.434E-02 0.118E+00 -.109E+00   0.499E-06 0.951E-06 0.124E-04
   0.198E-01 0.185E+01 -.952E+00   -.411E-03 -.184E+01 0.104E+01   0.720E-03 0.298E-02 -.867E-01   0.122E-05 -.156E-04 0.354E-04
   -.218E+00 0.799E+01 -.130E+02   -.962E-02 -.798E+01 0.131E+02   0.167E+00 -.156E-01 -.186E+00   -.243E-05 -.270E-04 0.711E-04
   0.259E+00 -.126E+02 -.327E+02   -.334E+00 0.125E+02 0.348E+02   0.138E+00 0.716E-01 -.438E+00   -.122E-05 -.794E-05 0.419E-04
   -.135E+01 -.317E+02 0.389E+02   0.112E+01 0.320E+02 -.394E+02   0.440E-01 -.312E+00 -.797E+00   -.329E-05 -.112E-03 -.922E-04
   0.466E-02 -.904E+01 0.290E+01   0.325E-01 0.934E+01 -.292E+01   0.467E-02 -.198E+00 0.112E+00   0.148E-06 -.244E-04 -.449E-04
   -.139E-01 -.485E+00 0.302E+00   -.675E-03 0.544E+00 -.244E+00   0.319E-01 -.166E-01 -.572E-01   -.229E-06 -.259E-05 0.169E-04
   0.132E-01 -.135E+01 -.155E+01   -.243E-03 0.135E+01 0.171E+01   -.226E-01 -.180E-01 -.141E+00   -.469E-06 0.500E-05 0.306E-04
   -.223E-01 -.410E+00 0.240E+01   0.940E-01 0.662E+00 -.231E+01   -.144E+00 -.140E-01 -.337E+00   -.152E-06 -.182E-04 0.409E-05
   -.356E+01 0.437E+02 0.313E+02   0.513E+01 -.436E+02 -.466E+02   0.402E+01 0.393E+00 -.217E+02   -.162E-05 -.850E-04 -.508E-04
   -.865E+00 -.506E+01 -.161E+02   -.977E-14 0.568E-13 -.199E-12   0.953E+00 0.496E+01 0.161E+02   -.174E-04 0.267E-03 -.146E-03

 POSITION                                       TOTAL-FORCE (eV/Angst)
      0.00000      0.00000      0.00000         0.983314      1.041153      1.388592
      1.93747      3.22912      0.91333        -0.402046      0.253068      3.480386
      3.87495      6.45824      1.82667         0.205967      1.423372     -0.617457
      3.87495      0.00000      0.00000         0.983314      1.041153      1.388592
      5.81242      3.22912      0.91333        -0.402046      0.253068      3.480386
      0.00000      6.45824      1.82667         0.205967      1.423372     -0.617457
      1.93747     10.33319      0.45667        -6.651472     -1.665641     38.171373
     -0.00000      1.93747      1.37000         0.073039      0.080983      0.293947
      1.93747      5.16659      2.28333         2.956586      1.771337     -4.114232
     -1.93747     10.33319      0.45667        -6.651472     -1.665641     38.171373
      3.87495      1.93747      1.37000         0.073039      0.080983      0.293947
      5.81242      5.16659      2.28333         2.956586      1.771337     -4.114232
     -1.66583      8.46453      4.79833         0.041133     -0.027837     -0.270429
      0.27165      6.52706      7.62833        -0.036703     -0.101369      0.079471
      2.20912      4.58959     10.45833        -0.017674     -0.019819      0.048127
      4.14659      2.65211     13.28833        -0.020854     -0.006274     -0.119709
      6.08407      0.71464     16.11833        -0.048072      0.073774     -0.485800
      6.08407      0.71464      4.79833         0.076176     -0.090272     -0.455300
      4.14659     10.40200      7.62833        -0.004121     -0.007950     -0.003736
     -1.66583      8.46453     10.45833         0.001122     -0.047422      0.012300
      0.27165      6.52706     13.28833         0.047523     -0.026884     -0.024567
      2.20912      4.58959     16.11833         0.119157     -0.019759     -0.161143
      2.20912      4.58959      4.79833         0.340205      0.044172      1.235525
      4.14659      2.65211      7.62833        -0.009373      0.128247      0.026448
      6.08407      0.71464     10.45833         0.001624      0.071481     -0.016319
      4.14659     10.40200     13.28833        -0.000145      0.045028     -0.090855
     -1.66583      8.46453     16.11833         0.325708     -0.225960     -0.697602
      2.20912      8.46453      4.79833         0.041133     -0.027837     -0.270429
      4.14659      6.52706      7.62833        -0.036703     -0.101369      0.079471
      6.08407      4.58959     10.45833        -0.017674     -0.019819      0.048127
      0.27165      2.65211     13.28833        -0.020854     -0.006274     -0.119709
      2.20912      0.71464     16.11833        -0.048072      0.073774     -0.485800
      2.20912      0.71464      4.79833         0.076176     -0.090272     -0.455300
      0.27165     10.40200      7.62833        -0.004121     -0.007950     -0.003736
      2.20912      8.46453     10.45833         0.001122     -0.047422      0.012300
      4.14659      6.52706     13.28833         0.047523     -0.026884     -0.024567
      6.08407      4.58959     16.11833         0.119157     -0.019759     -0.161143
      6.08407      4.58959      4.79833         0.340205      0.044172      1.235525
      0.27165      2.65211      7.62833        -0.009373      0.128247      0.026448
      2.20912      0.71464     10.45833         0.001624      0.071481     -0.016319
      0.27165     10.40200     13.28833        -0.000145      0.045028     -0.090855
      2.20912      8.46453     16.11833         0.325708     -0.225960     -0.697602
      0.27165      0.71464      3.38333        -0.119160     -0.396051     -0.036807
     -1.66583     10.40200      6.21333        -0.079666     -0.032195      0.063914
      0.27165      8.46453      9.04333         0.006155      0.044239      0.009815
      2.20912      6.52706     11.87333        -0.023600      0.015047      0.004379
      4.14659      4.58959     14.70333         0.008434     -0.005125     -0.121351
      6.08407      2.65211     17.53333         0.402950     -0.340987     -3.592138
      4.14659      4.58959      3.38333        -3.534337     -2.702211      2.710852
      6.08407      2.65211      6.21333        -0.026603     -0.136831      0.043269
      0.27165      0.71464      9.04333        -0.008418     -0.080835      0.015434
     -1.66583     10.40200     11.87333         0.018989      0.016030      0.005477
      0.27165      8.46453     14.70333        -0.062387     -0.009156     -0.099578
      2.20912      6.52706     17.53333         0.061992      0.012144      1.651385
      0.27165      8.46453      3.38333        -0.191415      0.028429     -1.236537
      2.20912      6.52706      6.21333         0.040676      0.106697      0.091822
      4.14659      4.58959      9.04333         0.016196      0.043737      0.001177
      6.08407      2.65211     11.87333        -0.010743     -0.018082      0.015714
      0.27165      0.71464     14.70333        -0.073540      0.239508     -0.245469
     -1.66583     10.40200     17.53333         5.593384      0.522212    -36.960377
[...]
     -1.66583      6.52706     11.87333        -0.023600      0.015047      0.004379
      0.27165      4.58959     14.70333         0.008434     -0.005125     -0.121351
      2.20912      2.65211     17.53333         0.402950     -0.340987     -3.592138
      0.27165      4.58959      3.38333        -3.534337     -2.702211      2.710852
      2.20912      2.65211      6.21333        -0.026603     -0.136831      0.043269
      4.14659      0.71464      9.04333        -0.008418     -0.080835      0.015434
      2.20912     10.40200     11.87333         0.018989      0.016030      0.005477
      4.14659      8.46453     14.70333        -0.062387     -0.009156     -0.099578
     -1.66583      6.52706     17.53333         0.061992      0.012144      1.651385
      4.14659      8.46453      3.38333        -0.191415      0.028429     -1.236537
     -1.66583      6.52706      6.21333         0.040676      0.106697      0.091822
      0.27165      4.58959      9.04333         0.016196      0.043737      0.001177
      2.20912      2.65211     11.87333        -0.010743     -0.018082      0.015714
      4.14659      0.71464     14.70333        -0.073540      0.239508     -0.245469
      2.20912     10.40200     17.53333         5.593384      0.522212    -36.960377
    total drift:                                0.087465     -0.095127      0.022495

  FREE ENERGIE OF THE ION-ELECTRON SYSTEM (eV)
  free  energy   TOTEN  =      -316.74012871 eV

  energy  without entropy=     -316.73837614  energy(sigma->0) =     -316.73925243