 vasp.6.4.3 19Mar24 (build Oct 22 2024 11:23:12) complex

 executed on             LinuxIFC date 2025.06.04  00:15:25

 INCAR:
   SYSTEM = Si and Ge interface calculation
   ISTART = 0
   ICHARG = 2
   LWAVE = .FALSE.
   LREAL = AUTO
   ENCUT = 700
   ENAUG = 900
   ADDGRID = .TRUE.
   LMAXMIX = 6
   LASPH = .TRUE.
   LMIXTAU = .TRUE.
   NCORE = 16
   NELM = 100
   NBANDS = 116
   EDIFF = 1d-7
   AMIX = 0.6
   ISMEAR = 0
   SIGMA = 0.01
   NELECT = 192
   ISPIN = 2
   NUPDOWN = 1
   LVTOT = .FALSE.
   LVHAR = .TRUE.

 POTCAR:    PAW_PBE Ge 05Jan2001
|           W    W    AA    RRRRR   N    N  II  N    N   GGGG   !!!           |
|           W    W   A  A   R    R  NN   N  II  NN   N  G    G  !!!           |
|           W    W  A    A  R    R  N N  N  II  N N  N  G       !!!           |
|           W WW W  AAAAAA  RRRRR   N  N N  II  N  N N  G  GGG   !            |
|           WW  WW  A    A  R   R   N   NN  II  N   NN  G    G                |
|           W    W  A    A  R    R  N    N  II  N    N   GGGG   !!!           |
|     You use a magnetic or noncollinear calculation, but did not specify     |
|     the initial magnetic moment with the MAGMOM tag. Note that a            |
|     default of 0.021 will be used for all atoms. This ferromagnetic         |
|     setup may break the symmetry of the crystal, in particular it may       |
|     rule out finding an antiferromagnetic solution. Thence, we              |
|     recommend setting the initial magnetic moment manually or verifying     |
|     carefully that this magnetic setup is desired.                          |

 POTCAR:    PAW_PBE Ge 05Jan2001
   VRHFIN =Ge: s2p2

   TITEL  = PAW_PBE Ge 05Jan2001
   POMASS =   72.610; ZVAL   =    4.000    mass and valenz
   ENMAX  =  173.807; ENMIN  =  130.355 eV

 Optimization of the real space projectors (new method)

 maximal supplied QI-value         = 16.25
 optimisation between [QCUT,QGAM] = [ 13.49, 26.98] = [ 50.95,203.80] Ry
 Optimized for a Real-space Cutoff    1.25 Angstroem

   l    n(q)    QCUT    max X(q) W(low)/X(q) W(high)/X(q)  e(spline)
   0     10    13.489    65.336    0.91E-04    0.11E-03    0.34E-06
   0     10    13.489    52.220    0.89E-04    0.11E-03    0.34E-06
   1     10    13.489    36.409    0.22E-03    0.27E-03    0.14E-06
   1     10    13.489    21.334    0.21E-03    0.27E-03    0.14E-06
   2      9    13.489     4.673    0.11E-03    0.12E-03    0.19E-06
  PAW_PBE Ge 05Jan2001                  :

 POSCAR: Ge+Ge
  positions in direct lattice

 exchange-correlation table for PE
   RHO(1)=    0.500       N(1)  =     2000
   RHO(2)=  100.500       N(2)  =     4000

 ion  position               nearest neighbor table
   1  0.044  0.941  0.000-  47 2.29  19 2.45   8 2.45  20 2.45  42 2.90  30 2.90
   2  0.294  0.607  0.100-  30 1.64  48 1.73  21 2.45   9 2.45  20 2.45
   3  0.544  0.274  0.200-  22 2.45  10 2.45  21 2.45   7 2.45
   4  0.794  0.941  0.300-  22 2.45  23 2.45  11 2.45   8 2.45
   5  0.044  0.607  0.400-  43 2.29  12 2.45  23 2.45  24 2.45   9 2.45
   6  0.294  0.274  0.500-  26 1.64  44 1.73  24 2.45  10 2.45  37 2.90  25 2.90
   7  0.544  0.191  0.000-  35 1.25  41 2.29  13 2.45   3 2.45
   8  0.794  0.857  0.100-  42 1.73  14 2.45   1 2.45   4 2.45  13 2.45
   9  0.044  0.524  0.200-  15 2.45  14 2.45   2 2.45   5 2.45
  10  0.294  0.191  0.300-  16 2.45  15 2.45   3 2.45   6 2.45
  11  0.544  0.857  0.400-  31 1.25  37 2.29  17 2.45   4 2.45  16 2.45
  12  0.794  0.524  0.500-  38 1.73  18 2.45   5 2.45  17 2.45
  13  0.544  0.941  0.000-  35 2.29   7 2.45  20 2.45   8 2.45  30 2.90  42 2.90
  14  0.794  0.607  0.100-  42 1.64  36 1.73   8 2.45  21 2.45   9 2.45
  15  0.044  0.274  0.200-   9 2.45  22 2.45  10 2.45  19 2.45
  16  0.294  0.941  0.300-  10 2.45  23 2.45  20 2.45  11 2.45
  17  0.544  0.607  0.400-  31 2.29  24 2.45  11 2.45  12 2.45  21 2.45
  18  0.794  0.274  0.500-  38 1.64  32 1.73  12 2.45  22 2.45  37 2.90  25 2.90
  19  0.044  0.191  0.000-  47 1.25  29 2.29   1 2.45  15 2.45
  20  0.294  0.857  0.100-  30 1.73   1 2.45  13 2.45  16 2.45   2 2.45
  21  0.544  0.524  0.200-   2 2.45  14 2.45   3 2.45  17 2.45
  22  0.794  0.191  0.300-   4 2.45   3 2.45  15 2.45  18 2.45
  23  0.044  0.857  0.400-  43 1.25  25 2.29  16 2.45   4 2.45   5 2.45
  24  0.294  0.524  0.500-  26 1.73  17 2.45   6 2.45   5 2.45
  25  0.044  0.059  0.500-  23 2.29  43 2.45  32 2.45  44 2.45  18 2.90   6 2.90
  26  0.294  0.393  0.600-   6 1.64  24 1.73  45 2.45  33 2.45  44 2.45
  27  0.544  0.726  0.700-  45 2.45  46 2.45  34 2.45  31 2.45
  28  0.794  0.059  0.800-  35 2.45  46 2.45  32 2.45  47 2.45
  29  0.044  0.393  0.900-  19 2.29  36 2.45  47 2.45  33 2.45  48 2.45
  30  0.294  0.726  1.000-   2 1.64  20 1.73  48 2.45  34 2.45  13 2.90   1 2.90
  31  0.544  0.809  0.500-  11 1.25  17 2.29  37 2.45  27 2.45
  32  0.794  0.143  0.600-  18 1.73  28 2.45  38 2.45  37 2.45  25 2.45
  33  0.044  0.476  0.700-  39 2.45  38 2.45  26 2.45  29 2.45
  34  0.294  0.809  0.800-  27 2.45  39 2.45  40 2.45  30 2.45
  35  0.544  0.143  0.900-   7 1.25  13 2.29  28 2.45  40 2.45  41 2.45
  36  0.794  0.476  1.000-  14 1.73  42 2.45  29 2.45  41 2.45
  37  0.544  0.059  0.500-  11 2.29  31 2.45  44 2.45  32 2.45   6 2.90  18 2.90
  38  0.794  0.393  0.600-  18 1.64  12 1.73  32 2.45  33 2.45  45 2.45
  39  0.044  0.726  0.700-  33 2.45  34 2.45  46 2.45  43 2.45
  40  0.294  0.059  0.800-  34 2.45  35 2.45  47 2.45  44 2.45
  41  0.544  0.393  0.900-   7 2.29  48 2.45  45 2.45  35 2.45  36 2.45
  42  0.794  0.726  1.000-  14 1.64   8 1.73  36 2.45  46 2.45  13 2.90   1 2.90
  43  0.044  0.809  0.500-  23 1.25   5 2.29  25 2.45  39 2.45
  44  0.294  0.143  0.600-   6 1.73  40 2.45  37 2.45  26 2.45  25 2.45
  45  0.544  0.476  0.700-  27 2.45  26 2.45  38 2.45  41 2.45
  46  0.794  0.809  0.800-  27 2.45  28 2.45  39 2.45  42 2.45
  47  0.044  0.143  0.900-  19 1.25   1 2.29  40 2.45  28 2.45  29 2.45
  48  0.294  0.476  1.000-   2 1.73  30 2.45  41 2.45  29 2.45

  LATTYP: Found a simple orthorhombic cell.
 ALAT       =     8.0013380050
 B/A-ratio  =     1.2247448782
 C/A-ratio  =     1.4433768919

  Lattice vectors:

 A1 = (   8.0013380050,   0.0000000000,   0.0000000000)
 A2 = (   0.0000000000,   9.7995977400,   0.0000000000)
 A3 = (   0.0000000000,   0.0000000000,  11.5489463810)

Analysis of symmetry for initial positions (statically):
 Subroutine PRICEL returns following result:

[...]

   2 primitive cells build up your supercell.

 Routine SETGRP: Setting up the symmetry group for a
 simple orthorhombic supercell.

 Subroutine GETGRP returns: Found  4 space group operations
 (whereof  1 operations were pure point group operations)
 out of a pool of  8 trial point group operations.

The static configuration has the point symmetry C_1 .
 The point group associated with its full space group is C_2v.

Analysis of symmetry for dynamics (positions and initial velocities):
 Subroutine PRICEL returns following result:

[...]

The dynamic configuration has the point symmetry C_1 .
 The point group associated with its full space group is C_2v.

Analysis of structural, dynamic, and magnetic symmetry:
 Subroutine PRICEL returns following result:

  LATTYP: Found a simple orthorhombic cell.
 ALAT       =     4.0006689705
 B/A-ratio  =     2.4494897759
 C/A-ratio  =     2.8867538070

  Lattice vectors:

 A1 = (   4.0006689705,   0.0000000000,   0.0000000000)
 A2 = (   0.0000000000,   9.7995977400,   0.0000000000)
 A3 = (   0.0000000000,   0.0000000000,  11.5489463810)

   2 primitive cells build up your supercell.

 Routine SETGRP: Setting up the symmetry group for a
 simple orthorhombic supercell.

 Subroutine GETGRP returns: Found  4 space group operations
 (whereof  1 operations were pure point group operations)
 out of a pool of  8 trial point group operations.

The overall configuration has the point symmetry C_1 .
 The point group associated with its full space group is C_2v.

 Subroutine INISYM returns: Found  4 space group operations
 (whereof  1 operations are pure point group operations),
 and found     2 'primitive' translations

                                     Primitive cell

  volume of cell :     452.7758

  direct lattice vectors                    reciprocal lattice vectors
     4.000668970  0.000000000  0.000000000     0.249958196  0.000000000  0.000000000
     0.000000000  9.799597740  0.000000000     0.000000000  0.102045005  0.000000000
     0.000000000  0.000000000 11.548946381     0.000000000  0.000000000  0.086587985

  length of vectors
     4.000668970  9.799597740 11.548946381     0.249958196  0.102045005  0.086587985

  position of ions in fractional coordinates (direct lattice)
     0.088915595  0.940722942  0.000000000
     0.588915599  0.607389569  0.099999994
     0.088915587  0.274056137  0.199999943
     0.588915591  0.940722823  0.299999893
     0.088915587  0.607389331  0.399999946
     0.588915599  0.274055839  0.500000000
     0.088915603  0.190722957  0.000000005
     0.588915719  0.857389510  0.099999987
     0.088915587  0.524056137  0.199999914
     0.588915591  0.190722764  0.299999893
     0.088915587  0.857389450  0.399999827
     0.588915829  0.524055839  0.499999881
     0.088915595  0.059277076  0.500000000
     0.588915599  0.392610461  0.600000024
     0.088915587  0.725943863  0.699999988
     0.588915591  0.059277177  0.799999893
     0.088915587  0.392610669  0.899999917
     0.588915599  0.725944161  0.999999940
     0.088915573  0.809277058  0.500000000
     0.588915599  0.142610431  0.600000024
     0.088915587  0.475943923  0.699999928
     0.588915591  0.809277177  0.799999893
     0.088915587  0.142610550  0.899999797
     0.588915837  0.475944281  0.999999821

  ion indices of the primitive-cell ions
   primitive index   ion index
                 1           1
                 2          14
                 3          15
                 4          16
                 5           5
                 6          18
                 7          19
                 8           8
                 9           9
                10          10
                11          23
                12          24
                13          25
                14          38
                15          39
                16          40
                17          29
                18          42
                19          43
                20          32
                21          33
                22          34
                23          47
                24          36

 KPOINTS: Automatic KPOINTS generated

Automatic generation of k-mesh.
 Grid dimensions read from file:
 generate k-points for:    4    3    3

 Generating k-lattice:

  Cartesian coordinates                     Fractional coordinates (reciprocal lattice)
     0.031244774  0.000000000  0.000000000     0.250000000  0.000000000  0.000000000
     0.000000000  0.034015002  0.000000000     0.000000000  0.333333333  0.000000000
     0.000000000  0.000000000  0.028862662     0.000000000  0.000000000  0.333333333

  Length of vectors
     0.031244774  0.034015002  0.028862662

  Shift w.r.t. Gamma in fractional coordinates (k-lattice)
[...]
     42      -1.2880      1.00000
     43      -1.1896      1.00000
     44      -1.1896      1.00000
     45      -1.0197      1.00000
     46      -1.0197      1.00000
     47      -0.8128      1.00000
     48      -0.8128      1.00000
     49      -0.6642      1.00000
     50      -0.6642      1.00000
     51      -0.3807      1.00000
     52      -0.3807      1.00000
     53       0.2419      1.00000
     54       0.2419      1.00000
     55       0.5227      1.00000
     56       0.5227      1.00000
     57       0.6580      1.00000
     58       0.6580      1.00000
     59       0.9625      1.00000
     60       0.9626      1.00000
[...]
    102       6.0942      0.00000
    103       6.1883      0.00000
    104       6.1883      0.00000
    105       6.6116      0.00000
    106       6.6116      0.00000
    107       6.9117      0.00000
    108       6.9117      0.00000
    109       7.1293      0.00000
    110       7.1293      0.00000
    111       7.2587      0.00000
    112       7.2587      0.00000
    113       7.4001      0.00000
    114       7.4001      0.00000
    115       7.5166      0.00000
    116       7.5166      0.00000
 Fermi energy:         5.5961745797

 spin component 2

[...]

 k-point    12 :       0.5000    0.3333    0.3333
  band No.  band energies     occupation
      1     -10.9772      1.00000
      2     -10.9772      1.00000
      3     -10.9641      1.00000
      4     -10.9641      1.00000
      5      -9.2221      1.00000
      6      -9.2220      1.00000
      7      -9.1949      1.00000
      8      -9.1949      1.00000
      9      -7.4700      1.00000
     10      -7.4700      1.00000
     11      -7.4064      1.00000
     12      -7.4064      1.00000
     13      -6.1462      1.00000
     14      -6.1462      1.00000
     15      -6.0414      1.00000
     16      -6.0414      1.00000
     17      -5.5334      1.00000
     18      -5.5334      1.00000
     19      -5.2535      1.00000
     20      -5.2535      1.00000
     21      -4.8328      1.00000
     22      -4.8327      1.00000
     23      -4.6027      1.00000
     24      -4.6027      1.00000
     25      -3.8533      1.00000
     26      -3.8533      1.00000
     27      -3.7130      1.00000
     28      -3.7130      1.00000
     29      -2.8253      1.00000
     30      -2.8253      1.00000
     31      -2.7188      1.00000
     32      -2.7188      1.00000
     33      -2.3021      1.00000
     34      -2.3021      1.00000
     35      -2.1633      1.00000
     36      -2.1633      1.00000
     37      -1.6901      1.00000
     38      -1.6901      1.00000
     39      -1.5869      1.00000
     40      -1.5868      1.00000
     41      -1.2677      1.00000
     42      -1.2677      1.00000
     43      -1.1681      1.00000
     44      -1.1681      1.00000
     45      -0.9973      1.00000
     46      -0.9973      1.00000
     47      -0.7913      1.00000
     48      -0.7913      1.00000
     49      -0.6442      1.00000
     50      -0.6442      1.00000
     51      -0.3609      1.00000
     52      -0.3609      1.00000
     53       0.2606      1.00000
     54       0.2606      1.00000
     55       0.5421      1.00000
     56       0.5422      1.00000
     57       0.6777      1.00000
     58       0.6777      1.00000
     59       0.9811      1.00000
     60       0.9811      1.00000
[...]
    102       6.1200      0.00000
    103       6.2140      0.00000
    104       6.2140      0.00000
    105       6.6361      0.00000
    106       6.6361      0.00000
    107       6.9358      0.00000
    108       6.9358      0.00000
    109       7.1530      0.00000
    110       7.1530      0.00000
    111       7.2836      0.00000
    112       7.2836      0.00000
    113       7.4250      0.00000
    114       7.4250      0.00000
    115       7.5405      0.00000
    116       7.5405      0.00000

 soft charge-density along one line, spin component           1
         0         1         2         3         4         5         6         7         8         9
 total charge-density along one line

 soft charge-density along one line, spin component           2
         0         1         2         3         4         5         6         7         8         9
 total charge-density along one line

------------------------ aborting loop because EDIFF is reached ----------------------------------------

  FORCE on cell =-STRESS in cart. coord.  units (eV):
  Direction    XX          YY          ZZ          XY          YZ          ZX
  Alpha Z   486.29899   486.29899   486.29899
  Ewald   -2353.12548 -1168.50031 -1543.35132    -0.00006    -0.00013    -0.00030
  Hartree   168.46055   305.32795    60.06634     0.00001     0.00000     0.00001
  E(xc)    -700.19207  -712.29013  -714.97346     0.00000    -0.00000     0.00000
  Local    -403.72899 -1299.74424  -459.24693     0.00002    -0.00000     0.00008
  n-local  1140.54036  1272.48074  1302.81480     0.14795    -0.41741    -0.32167
  augment    42.08793    83.20006   119.08259    -0.00000     0.00000    -0.00001
  Kinetic  1691.11086  1598.51380  1639.12811     2.00112    -0.46589     0.19851
  Fock        0.00000     0.00000     0.00000     0.00000     0.00000     0.00000
  Total      71.45214   565.28686   889.81912     0.00000     0.00000     0.00000
  in kB     126.41908  1000.15253  1574.34201     0.00000     0.00000     0.00000

 VOLUME and BASIS-vectors are now :
  energy-cutoff  :      700.00
  volume of cell :      905.55
      direct lattice vectors                 reciprocal lattice vectors
     8.001338005  0.000000000  0.000000000     0.124979097  0.000000000  0.000000000
     0.000000000  9.799597740  0.000000000     0.000000000  0.102045005  0.000000000
     0.000000000  0.000000000 11.548946381     0.000000000  0.000000000  0.086587985

  length of vectors
     8.001338005  9.799597740 11.548946381     0.124979097  0.102045005  0.086587985

 FORCES acting on ions
    electron-ion (+dipol)            ewald-force                    non-local-force                 convergence-correction
   0.556E-06 0.882E+01 -.915E+01   0.186E-05 -.107E+02 0.820E+01   -.844E-18 -.112E+01 0.183E+01   0.431E-07 -.675E-04 0.235E-04
   -.496E-04 0.691E+01 -.560E+02   -.761E-04 -.134E+02 0.781E+02   0.206E-18 -.242E+01 0.199E+02   0.552E-06 -.306E-04 0.387E-04
   0.443E-05 0.433E+01 -.940E+01   0.865E-05 -.474E+01 0.960E+01   0.821E-18 0.322E+00 -.328E+00   -.820E-07 0.228E-04 0.300E-04
   0.384E-04 -.411E+01 0.205E+02   -.147E-04 0.338E+01 -.197E+02   0.576E-17 0.828E+00 -.215E+01   -.519E-06 -.445E-05 -.634E-04
   0.366E-05 0.185E+02 0.236E+02   0.211E-05 -.219E+02 -.242E+02   0.212E-17 -.821E+00 -.674E+00   0.738E-08 -.385E-04 -.323E-04
   -.181E-03 0.190E+00 0.553E+02   0.191E-04 -.635E+01 -.772E+02   0.766E-18 -.167E+01 -.202E+02   0.684E-06 0.177E-05 -.103E-04
   0.810E-05 -.976E+01 -.491E+02   0.876E-05 0.415E+02 0.129E+03   -.221E-18 0.155E+02 0.372E+02   -.612E-07 0.509E-04 0.533E-04
   -.558E-04 -.398E+02 -.436E+02   0.161E-04 0.508E+02 0.514E+02   0.210E-17 0.104E+02 0.954E+01   -.511E-06 -.145E-06 0.360E-04
   0.401E-05 0.640E+01 -.238E+02   0.734E-05 -.610E+01 0.235E+02   0.241E-17 -.244E-01 0.130E+01   0.482E-07 0.334E-05 0.153E-04
   0.587E-06 -.658E+01 0.189E+02   -.134E-04 0.678E+01 -.196E+02   0.991E-18 0.309E+00 0.220E+00   0.515E-06 0.255E-04 -.159E-04
   0.332E-05 -.196E+01 0.443E+02   -.113E-04 0.342E+02 -.122E+03   -.591E-19 0.135E+02 -.374E+02   -.161E-07 -.190E-04 -.705E-04
   0.845E-05 -.381E+02 0.298E+02   0.252E-04 0.493E+02 -.367E+02   0.598E-18 0.963E+01 -.106E+02   -.740E-06 0.210E-04 0.305E-05
   0.634E-05 0.882E+01 -.915E+01   0.209E-04 -.107E+02 0.820E+01   0.375E-18 -.112E+01 0.183E+01   -.443E-07 -.675E-04 0.234E-04
   0.798E-06 0.691E+01 -.560E+02   -.202E-04 -.134E+02 0.781E+02   0.178E-19 -.242E+01 0.199E+02   -.549E-06 -.306E-04 0.386E-04
   0.238E-05 0.433E+01 -.940E+01   -.264E-05 -.474E+01 0.960E+01   -.657E-19 0.322E+00 -.328E+00   0.801E-07 0.227E-04 0.299E-04
   0.746E-05 -.411E+01 0.205E+02   0.253E-04 0.338E+01 -.197E+02   -.406E-17 0.828E+00 -.215E+01   0.520E-06 -.442E-05 -.634E-04
   0.960E-05 0.185E+02 0.236E+02   0.353E-04 -.219E+02 -.242E+02   -.338E-17 -.821E+00 -.674E+00   -.940E-08 -.385E-04 -.322E-04
   0.112E-04 0.190E+00 0.553E+02   0.250E-04 -.635E+01 -.772E+02   0.593E-18 -.167E+01 -.202E+02   -.682E-06 0.178E-05 -.102E-04
   -.564E-05 -.976E+01 -.491E+02   0.458E-05 0.415E+02 0.129E+03   -.356E-18 0.155E+02 0.372E+02   0.597E-07 0.509E-04 0.534E-04
   -.432E-05 -.398E+02 -.436E+02   -.405E-04 0.508E+02 0.514E+02   -.259E-17 0.104E+02 0.954E+01   0.512E-06 -.102E-06 0.361E-04
   0.653E-05 0.640E+01 -.238E+02   0.216E-04 -.610E+01 0.235E+02   -.299E-17 -.244E-01 0.130E+01   -.509E-07 0.339E-05 0.154E-04
   0.437E-05 -.658E+01 0.189E+02   0.807E-05 0.678E+01 -.196E+02   0.251E-17 0.309E+00 0.220E+00   -.513E-06 0.255E-04 -.159E-04
   0.596E-05 -.196E+01 0.443E+02   0.216E-05 0.342E+02 -.122E+03   -.196E-18 0.135E+02 -.374E+02   0.150E-07 -.189E-04 -.707E-04
   -.107E-03 -.381E+02 0.298E+02   -.522E-04 0.493E+02 -.367E+02   -.649E-18 0.963E+01 -.106E+02   0.742E-06 0.210E-04 0.298E-05
   0.227E-05 -.882E+01 -.915E+01   0.116E-04 0.107E+02 0.820E+01   0.673E-18 0.112E+01 0.183E+01   -.132E-07 0.634E-04 0.360E-04
   -.502E-04 -.691E+01 -.560E+02   -.782E-04 0.134E+02 0.781E+02   -.201E-18 0.242E+01 0.199E+02   0.743E-06 0.340E-04 0.497E-04
   0.103E-05 -.433E+01 -.940E+01   -.109E-04 0.474E+01 0.960E+01   0.330E-17 -.322E+00 -.328E+00   0.473E-07 -.224E-04 0.345E-04
   0.481E-04 0.411E+01 0.205E+02   0.381E-04 -.338E+01 -.197E+02   0.413E-17 -.828E+00 -.215E+01   -.636E-06 0.585E-06 -.670E-04
   0.909E-05 -.185E+02 0.236E+02   0.335E-04 0.219E+02 -.242E+02   -.144E-17 0.821E+00 -.674E+00   0.239E-08 0.421E-04 -.424E-04
   -.178E-03 -.190E+00 0.553E+02   0.322E-04 0.635E+01 -.772E+02   0.113E-17 0.167E+01 -.202E+02   0.578E-06 -.134E-05 -.232E-04
   0.622E-05 0.976E+01 -.491E+02   -.202E-05 -.415E+02 0.129E+03   0.833E-18 -.155E+02 0.372E+02   0.159E-07 -.524E-04 0.662E-04
   0.896E-05 0.398E+02 -.436E+02   0.262E-04 -.508E+02 0.514E+02   -.267E-17 -.104E+02 0.954E+01   -.690E-06 -.256E-05 0.466E-04
   0.629E-05 -.640E+01 -.238E+02   0.198E-04 0.610E+01 0.235E+02   -.236E-17 0.244E-01 0.130E+01   -.566E-07 0.910E-06 0.201E-04
   -.231E-05 0.658E+01 0.189E+02   -.298E-04 -.678E+01 -.196E+02   -.397E-17 -.309E+00 0.220E+00   0.685E-06 -.275E-04 -.193E-04
   0.450E-05 0.196E+01 0.443E+02   -.461E-05 -.342E+02 -.122E+03   0.639E-19 -.135E+02 -.374E+02   -.257E-07 0.166E-04 -.808E-04
   -.975E-04 0.381E+02 0.298E+02   -.438E-05 -.493E+02 -.367E+02   0.262E-19 -.963E+01 -.106E+02   -.547E-06 -.167E-04 -.102E-04
   0.360E-05 -.882E+01 -.915E+01   0.544E-05 0.107E+02 0.820E+01   0.224E-18 0.112E+01 0.183E+01   0.121E-07 0.634E-04 0.361E-04
   0.847E-05 -.691E+01 -.560E+02   0.152E-04 0.134E+02 0.781E+02   -.125E-18 0.242E+01 0.199E+02   -.741E-06 0.340E-04 0.497E-04
   0.272E-05 -.433E+01 -.940E+01   -.158E-05 0.474E+01 0.960E+01   -.200E-17 -.322E+00 -.328E+00   -.486E-07 -.223E-04 0.345E-04
   -.121E-05 0.411E+01 0.205E+02   -.215E-04 -.338E+01 -.197E+02   -.508E-17 -.828E+00 -.215E+01   0.637E-06 0.588E-06 -.669E-04
   0.980E-05 -.185E+02 0.236E+02   0.371E-04 0.219E+02 -.242E+02   -.968E-18 0.821E+00 -.674E+00   -.491E-08 0.422E-04 -.426E-04
   0.604E-05 -.190E+00 0.553E+02   0.959E-07 0.635E+01 -.772E+02   0.953E-18 0.167E+01 -.202E+02   -.575E-06 -.136E-05 -.232E-04
   0.173E-04 0.976E+01 -.491E+02   -.350E-05 -.415E+02 0.129E+03   0.800E-18 -.155E+02 0.372E+02   -.169E-07 -.523E-04 0.661E-04
   -.380E-04 0.398E+02 -.436E+02   -.528E-04 -.508E+02 0.514E+02   0.127E-17 -.104E+02 0.954E+01   0.691E-06 -.257E-05 0.466E-04
   0.275E-05 -.640E+01 -.238E+02   0.166E-05 0.610E+01 0.235E+02   0.261E-17 0.244E-01 0.130E+01   0.544E-07 0.955E-06 0.200E-04
   0.503E-04 0.658E+01 0.189E+02   0.369E-04 -.678E+01 -.196E+02   -.282E-17 -.309E+00 0.220E+00   -.684E-06 -.275E-04 -.194E-04
   0.208E-05 0.196E+01 0.443E+02   -.166E-04 -.342E+02 -.122E+03   0.499E-18 -.135E+02 -.374E+02   0.245E-07 0.166E-04 -.807E-04
   -.103E-03 0.381E+02 0.298E+02   -.330E-04 -.493E+02 -.367E+02   -.343E-19 -.963E+01 -.106E+02   0.550E-06 -.168E-04 -.101E-04
   -.558E-03 0.213E-04 0.577E+01   0.130E-13 0.995E-13 -.178E-12   -.132E-17 -.213E-13 -.565E+01   0.228E-08 0.717E-07 0.353E-04

 POSITION                                       TOTAL-FORCE (eV/Angst)
      0.35572      9.21871      0.00000         0.000000     -3.026786      0.875728
      2.35606      5.95217      1.15489        -0.000000     -8.948629     42.031797
      4.35639      2.68564      2.30979         0.000000     -0.090482     -0.136940
      6.35672      9.21871      3.46468        -0.000000      0.090861     -1.374662
      0.35572      5.95217      4.61958         0.000000     -4.183335     -1.321589
      2.35606      2.68564      5.77447         0.000000     -7.821506    -42.152227
      4.35639      1.86901      0.00000         0.000000     47.148862    117.162844
      6.35673      8.40207      1.15489         0.000000     21.443432     17.348377
      0.35572      5.13554      2.30979        -0.000000      0.277444      1.014714
      2.35606      1.86901      3.46468         0.000000      0.505564     -0.512682
      4.35639      8.40207      4.61958         0.000000     45.735898   -115.393197
      6.35673      5.13554      5.77447         0.000000     20.841294    -17.542160
      4.35639      9.21871      0.00000        -0.000000     -3.026786      0.875728
      6.35673      5.95217      1.15489         0.000000     -8.948629     42.031797
      0.35572      2.68564      2.30979         0.000000     -0.090482     -0.136940
      2.35606      9.21871      3.46468         0.000000      0.090861     -1.374662
      4.35639      5.95217      4.61958        -0.000000     -4.183335     -1.321589
      6.35673      2.68564      5.77447         0.000000     -7.821506    -42.152227
      0.35572      1.86901      0.00000         0.000000     47.148862    117.162844
      2.35606      8.40207      1.15489         0.000000     21.443432     17.348377
      4.35639      5.13554      2.30979        -0.000000      0.277444      1.014714
      6.35673      1.86901      3.46468        -0.000000      0.505564     -0.512682
      0.35572      8.40207      4.61958         0.000000     45.735898   -115.393197
      2.35606      5.13554      5.77447        -0.000000     20.841294    -17.542160
      0.35572      0.58089      5.77447         0.000000      3.026786      0.875728
      2.35606      3.84742      6.92937         0.000000      8.948629     42.031797
      4.35639      7.11396      8.08426         0.000000      0.090482     -0.136940
      6.35672      0.58089      9.23916        -0.000000     -0.090861     -1.374662
      0.35572      3.84743     10.39405        -0.000000      4.183335     -1.321589
      2.35606      7.11396     11.54895        -0.000000      7.821506    -42.152227
      4.35639      7.93059      5.77447        -0.000000    -47.148862    117.162844
      6.35673      1.39752      6.92937         0.000000    -21.443432     17.348377
      0.35572      4.66406      8.08426         0.000000     -0.277444      1.014714
      2.35606      7.93059      9.23916         0.000000     -0.505564     -0.512682
      4.35639      1.39753     10.39405         0.000000    -45.735898   -115.393197
      6.35673      4.66406     11.54894        -0.000000    -20.841294    -17.542160
      4.35639      0.58089      5.77447        -0.000000      3.026786      0.875728
      6.35673      3.84742      6.92937         0.000000      8.948629     42.031797
      0.35572      7.11396      8.08426         0.000000      0.090482     -0.136940
      2.35606      0.58089      9.23916         0.000000     -0.090861     -1.374662
      4.35639      3.84743     10.39405        -0.000000      4.183335     -1.321589
      6.35673      7.11396     11.54895        -0.000000      7.821506    -42.152227
      0.35572      7.93059      5.77447         0.000000    -47.148862    117.162844
      2.35606      1.39752      6.92937        -0.000000    -21.443432     17.348377
      4.35639      4.66406      8.08426         0.000000     -0.277444      1.014714
      6.35672      7.93059      9.23916         0.000000     -0.505564     -0.512682
      0.35572      1.39753     10.39405         0.000000    -45.735898   -115.393197
      2.35606      4.66406     11.54894        -0.000000    -20.841294    -17.542160
    total drift:                               -0.000558      0.000021      0.121522

  FREE ENERGIE OF THE ION-ELECTRON SYSTEM (eV)
  free  energy   TOTEN  =        52.15700689 eV

  energy  without entropy=       52.15797303  energy(sigma->0) =       52.15748996