 vasp.6.4.3 19Mar24 (build Oct 22 2024 11:23:12) complex

 executed on             LinuxIFC date 2025.06.10  15:50:39

 INCAR:
   SYSTEM = Si and Ge interface calculation
   ISTART = 0
   ICHARG = 2
   LWAVE = .FALSE.
   LREAL = AUTO
   ENCUT = 700
   ENAUG = 900
   ADDGRID = .TRUE.
   LMAXMIX = 6
   LASPH = .TRUE.
   LMIXTAU = .TRUE.
   NCORE = 16
   NELM = 100
   NBANDS = 634
   EDIFF = 1d-7
   AMIX = 0.6
   ISMEAR = 0
   SIGMA = 0.01
   NELECT = 1056
   ISPIN = 2
   NUPDOWN = 1
   LVTOT = .FALSE.
   LVHAR = .TRUE.

 POTCAR:    PAW_PBE Si 05Jan2001
 POTCAR:    PAW_PBE Sn 08Apr2002
|           W    W    AA    RRRRR   N    N  II  N    N   GGGG   !!!           |
|           W    W   A  A   R    R  NN   N  II  NN   N  G    G  !!!           |
|           W    W  A    A  R    R  N N  N  II  N N  N  G       !!!           |
|           W WW W  AAAAAA  RRRRR   N  N N  II  N  N N  G  GGG   !            |
|           WW  WW  A    A  R   R   N   NN  II  N   NN  G    G                |
|           W    W  A    A  R    R  N    N  II  N    N   GGGG   !!!           |
|     You use a magnetic or noncollinear calculation, but did not specify     |
|     the initial magnetic moment with the MAGMOM tag. Note that a            |
|     default of 3.788e-3 will be used for all atoms. This ferromagnetic      |
|     setup may break the symmetry of the crystal, in particular it may       |
|     rule out finding an antiferromagnetic solution. Thence, we              |
|     recommend setting the initial magnetic moment manually or verifying     |
|     carefully that this magnetic setup is desired.                          |

 POTCAR:    PAW_PBE Si 05Jan2001
   VRHFIN =Si: s2p2

   TITEL  = PAW_PBE Si 05Jan2001
   POMASS =   28.085; ZVAL   =    4.000    mass and valenz
   ENMAX  =  245.345; ENMIN  =  184.009 eV

 POTCAR:    PAW_PBE Sn 08Apr2002
   VRHFIN =Sn: s2p2

   TITEL  = PAW_PBE Sn 08Apr2002
   POMASS =  118.710; ZVAL   =    4.000    mass and valenz
   ENMAX  =  103.236; ENMIN  =   77.427 eV

 Optimization of the real space projectors (new method)

 maximal supplied QI-value         = 19.84
 optimisation between [QCUT,QGAM] = [ 13.49, 26.99] = [ 50.98,203.92] Ry
 Optimized for a Real-space Cutoff    1.07 Angstroem

   l    n(q)    QCUT    max X(q) W(low)/X(q) W(high)/X(q)  e(spline)
   0      9    13.493   159.560    0.22E-03    0.15E-03    0.72E-07
   0      9    13.493   115.863    0.21E-03    0.15E-03    0.71E-07
   1      8    13.493    88.339    0.15E-03    0.11E-03    0.13E-06
   1      8    13.493    48.592    0.15E-03    0.10E-03    0.13E-06
 Optimization of the real space projectors (new method)

 maximal supplied QI-value         = 12.47
 optimisation between [QCUT,QGAM] = [ 12.47, 27.06] = [ 43.56,205.12] Ry
 Optimized for a Real-space Cutoff    1.58 Angstroem

   l    n(q)    QCUT    max X(q) W(low)/X(q) W(high)/X(q)  e(spline)
   0     13    12.472    14.688    0.45E-04    0.45E-04    0.25E-05
   0     13    12.472     7.308    0.94E-04    0.11E-03    0.61E-05
   1     12    12.472    45.102    0.34E-03    0.14E-03    0.21E-05
   1     12    12.472    30.691    0.31E-03    0.13E-03    0.20E-05
   2     12    12.472     7.156    0.86E-04    0.11E-03    0.17E-05
 WARNING: PSMAXN for non-local potential too small
          PSMAXN should be >   13.5545592237991       NTYP=           2
  PAW_PBE Si 05Jan2001                  :
  PAW_PBE Sn 08Apr2002                  :

 POSCAR: Si+Sn
  positions in direct lattice

 exchange-correlation table for PE
   RHO(1)=    0.500       N(1)  =     2000
   RHO(2)=  100.500       N(2)  =     4000

 ion  position               nearest neighbor table
   1  0.996  0.997  0.000- 145 2.35  49 2.35  22 2.84
   2  0.881  0.920  0.142-  76 2.35 146 2.35  50 2.35 145 2.35
   3  0.765  0.843  0.284-  77 2.35  51 2.35 217 2.35 146 2.35
   4  0.073  0.382  0.000- 264 2.35 159 2.35
   5  0.957  0.305  0.142-  73 2.35  44 2.35 155 2.35 159 2.35
   6  0.842  0.228  0.284-  74 2.35  45 2.35 155 2.35 156 2.35
   7  0.412  0.214  0.890- 165 2.82 213 2.82 234 2.89  88 2.89
   8  0.111  0.074  0.142-  49 2.35  47 2.35 192 2.35 187 2.35
   9  0.996  0.997  0.284-  50 2.35 178 2.35 120 2.35 187 2.35
  10  0.150  0.766  0.000-  52 2.35 177 2.35 261 2.99
  11  0.034  0.690  0.142-  40 2.35 122 2.35 177 2.35  53 2.35
  12  0.995  0.631  0.465- 229 2.26 199 2.82 241 2.82
  13  0.304  0.536  0.000-  55 2.35 174 2.35 118 2.99
  14  0.188  0.459  0.142- 264 2.35 125 2.35  56 2.35 174 2.35
  15  0.073  0.382  0.284-  44 2.35  57 2.35 226 2.35 125 2.35
  16  0.162  0.797  0.805- 261 2.82 251 2.82 206 2.82  25 2.82
  17  0.342  0.228  0.142-  46 2.35 128 2.35  59 2.35 127 2.35
  18  0.227  0.151  0.284-  47 2.35  60 2.35 163 2.35 128 2.35
  19  0.611  0.074  0.000-  79 2.26 130 2.35  61 2.35
  20  0.496  0.997  0.142-  64 2.35 131 2.35 130 2.35  62 2.35
  21  0.381  0.920  0.284-  65 2.35  63 2.35 211 2.35 131 2.35
  22  0.912  0.047  0.890- 222 2.82 121 2.82   1 2.84 201 2.99
  23  0.995  0.631  0.805- 210 2.82 251 2.82 200 2.82 252 2.82
  24  0.150  0.766  0.284-  53 2.35  66 2.35 135 2.35 134 2.35
  25  0.078  0.881  0.890- 121 2.82  16 2.82
  26  0.419  0.613  0.142-  55 2.35 202 2.35  68 2.35 258 2.35
  27  0.304  0.536  0.284-  56 2.35 238 2.35 160 2.35 202 2.35
  28  0.688  0.459  0.000- 139 2.35  70 2.35 103 2.94
  29  0.662  0.964  0.805-  85 2.82 188 2.82 239 2.82  79 2.82
  30  0.457  0.305  0.284- 141 2.35  59 2.35 232 2.35 140 2.35
  31  0.842  0.228  0.000- 142 2.35  73 2.35 195 2.84
  32  0.727  0.151  0.142-  61 2.35  74 2.35 143 2.35 142 2.35
  33  0.611  0.074  0.284-  62 2.35 144 2.35  75 2.35 143 2.35
  34  0.765  0.843  0.000-  85 2.26 148 2.35  76 2.35
  35  0.650  0.766  0.142-  67 2.35 149 2.35  77 2.35 148 2.35
  36  0.534  0.690  0.284-  68 2.35  78 2.35 150 2.35 149 2.35
  37  0.078  0.214  0.890- 240 2.32 151 2.82 231 2.82
  38  0.804  0.536  0.142-  70 2.35  41 2.35 152 2.35 183 2.35
  39  0.688  0.459  0.284- 181 2.35  71 2.35 153 2.35 152 2.35
  40  0.015  0.593  0.071- 204 2.35  11 2.35  82 2.35  83 2.35
  41  0.900  0.516  0.213-  83 2.35  38 2.35 169 2.35 223 2.35
  42  0.328  0.297  0.465- 141 2.26 253 2.82 137 2.82
  43  0.245  0.381  0.890- 198 2.26 237 2.82 165 2.82
  44  0.054  0.286  0.213-  15 2.35   5 2.35  87 2.35  86 2.35
  45  0.938  0.209  0.355-   6 2.35  87 2.35  90 2.94
  46  0.323  0.132  0.071-  17 2.35 186 2.35  88 2.35  89 2.35
  47  0.207  0.055  0.213-  18 2.35   8 2.35  89 2.35 172 2.35
  48  0.328  0.631  0.465- 250 2.82  93 2.82 160 3.37
  49  0.092  0.978  0.071-   8 2.35   1 2.35  91 2.35  92 2.35
  50  0.977  0.901  0.213-   9 2.35   2 2.35  92 2.35 208 2.35
  51  0.861  0.824  0.355- 214 2.26   3 2.35 208 2.35
  52  0.246  0.747  0.071- 180 2.35  10 2.35 246 2.35  95 2.35
  53  0.131  0.670  0.213-  24 2.35  95 2.35  11 2.35  96 2.35
  54  0.495  0.131  0.465- 144 2.26 256 2.82 137 2.82
  55  0.400  0.516  0.071-  26 2.35  97 2.35  13 2.35  98 2.35
  56  0.284  0.440  0.213-  27 2.35  98 2.35  14 2.35  99 2.35
  57  0.169  0.363  0.355-  99 2.35  15 2.35 126 2.89
  58  0.554  0.286  0.071- 168 2.35 101 2.35 255 2.35 234 2.35
  59  0.438  0.209  0.213-  30 2.35 102 2.35  17 2.35 101 2.35
  60  0.323  0.132  0.355-  18 2.35 102 2.35
[...]
 250  0.245  0.714  0.550-  48 2.82  84 2.82 233 2.82 179 2.82
 251  0.078  0.714  0.720- 179 2.82  16 2.82 224 2.82  23 2.82
 252  0.912  0.714  0.890- 225 2.82  23 2.82 115 2.89 204 2.89
 253  0.245  0.381  0.550-  42 2.82 126 2.82 236 2.82 182 2.82
 254  0.078  0.381  0.720- 182 2.82 237 2.82 227 2.82 151 2.82
 255  0.650  0.266  0.000-  58 2.35 142 2.35 195 2.99  94 3.37
 256  0.578  0.047  0.550-  54 2.82 212 2.82 158 2.82 157 2.82
 257  0.412  0.047  0.720- 230 2.82 154 2.82 213 2.82 158 2.82
 258  0.438  0.709  0.071- 107 2.35 246 2.35 207 2.35  26 2.35
 259  0.578  0.714  0.550-  72 2.82 215 2.82 161 2.82  69 2.82
 260  0.412  0.714  0.720- 233 2.82 162 2.82 216 2.82 161 2.82
 261  0.245  0.714  0.890-  16 2.82 162 2.82 246 2.84  10 2.99
 262  0.578  0.381  0.550- 235 2.82 218 2.82 164 2.82 129 2.82
 263  0.412  0.381  0.720- 236 2.82 165 2.82 164 2.82 219 2.82
 264  0.169  0.363  0.071-  14 2.35   4 2.35  86 2.35 198 2.35

  LATTYP: Found a simple tetragonal cell.
 ALAT       =    19.5817508700
 C/A-ratio  =     0.9754107470

  Lattice vectors:

 A1 = (  19.5817508700,   0.0000000000,   0.0000000000)
 A2 = (   0.0000000000,  19.5817489620,   0.0000000000)
 A3 = (   0.0000000000,   0.0000000000,  19.1002502440)

Analysis of symmetry for initial positions (statically):
 Subroutine PRICEL returns:
 Original cell was already a primitive cell.

 Routine SETGRP: Setting up the symmetry group for a
 simple tetragonal supercell.

 Subroutine GETGRP returns: Found  1 space group operations
 (whereof  1 operations were pure point group operations)
 out of a pool of 16 trial point group operations.

The static configuration has the point symmetry C_1 .

Analysis of symmetry for dynamics (positions and initial velocities):
 Subroutine PRICEL returns:
 Original cell was already a primitive cell.

[...]

The dynamic configuration has the point symmetry C_1 .

Analysis of structural, dynamic, and magnetic symmetry:
 Subroutine PRICEL returns:
 Original cell was already a primitive cell.

 Routine SETGRP: Setting up the symmetry group for a
 simple tetragonal supercell.

 Subroutine GETGRP returns: Found  1 space group operations
 (whereof  1 operations were pure point group operations)
 out of a pool of 16 trial point group operations.

The overall configuration has the point symmetry C_1 .

 Subroutine INISYM returns: Found  1 space group operations
 (whereof  1 operations are pure point group operations),
 and found     1 'primitive' translations

                                     Primitive cell

  volume of cell :    7323.8941

  direct lattice vectors                    reciprocal lattice vectors
    19.581750870  0.000000000  0.000000000     0.051067956  0.000000000  0.000000000
     0.000000000 19.581748962  0.000000000     0.000000000  0.051067961  0.000000000
     0.000000000  0.000000000 19.100250244     0.000000000  0.000000000  0.052355335

  length of vectors
    19.581750870 19.581748962 19.100250244     0.051067956  0.051067961  0.052355335

  position of ions in fractional coordinates (direct lattice)
     0.995893002  0.997262001  0.000000000
     0.880508363  0.920338869  0.142170906
     0.765123725  0.843415737  0.284341902
     0.072816126  0.381877452  0.000000000
     0.957431436  0.304954290  0.142170906
     0.842046797  0.228031158  0.284341902
     0.411701679  0.214102626  0.890053868
     0.111277618  0.074185051  0.142170906
     0.995892942  0.997261941  0.284341902
     0.149739221  0.766492844  0.000000000
     0.034354534  0.689569712  0.142170906
     0.995035172  0.630769253  0.465373576
     0.303585410  0.535723567  0.000000000
     0.188200727  0.458800435  0.142170906
     0.072816066  0.381877303  0.284341902
     0.161701918  0.797435880  0.805117786
     0.342046857  0.228031203  0.142170906
     0.226662204  0.151108071  0.284341902
     0.611277699  0.074185103  0.000000000
     0.495893002  0.997261941  0.142170906
[...]
     0.000000000  0.000000000 19.100250244     0.000000000  0.000000000  0.052355335

  length of vectors
    19.581750870 19.581748962 19.100250244     0.051067956  0.051067961  0.052355335

 FORCES acting on ions
    electron-ion (+dipol)            ewald-force                    non-local-force                 convergence-correction
   -.685E+01 -.337E+00 0.123E+03   0.597E+01 -.722E+00 -.122E+03   0.515E-01 0.106E+01 -.143E+01   -.336E-05 0.469E-04 0.130E-03
   -.282E+00 0.738E+00 0.277E+02   0.607E-01 -.114E+00 -.275E+02   0.182E+00 -.540E+00 -.243E+00   -.338E-04 0.240E-04 0.107E-03
   0.134E+01 -.230E+00 -.776E+02   -.109E+01 0.519E+00 0.775E+02   0.207E+01 -.453E+00 -.924E+00   -.513E-05 0.487E-04 -.311E-04
   -.756E+00 -.425E-01 0.129E+03   0.637E+00 -.663E-02 -.131E+03   -.615E-01 0.105E+00 -.197E+01   0.160E-04 0.607E-06 0.672E-04
   -.272E+00 0.320E+00 0.278E+02   -.621E-02 -.172E+00 -.273E+02   -.227E+00 -.241E+01 0.122E+01   -.379E-04 -.257E-05 0.918E-04
   0.475E-01 -.788E+00 -.787E+02   0.144E+00 0.150E+01 0.788E+02   -.145E-01 -.224E+00 0.214E+00   -.508E-04 -.149E-04 0.459E-04
   0.282E+01 -.335E+00 0.891E+02   -.273E+01 0.546E+00 -.899E+02   0.506E+00 -.705E+00 0.170E+01   0.126E-04 0.281E-04 -.132E-04
   0.423E+00 -.505E+00 0.277E+02   -.157E+00 -.135E+00 -.275E+02   0.160E+01 -.207E+01 -.811E-01   -.746E-05 0.376E-04 0.693E-04
   -.574E+00 -.131E+01 -.747E+02   0.142E+00 0.119E+01 0.759E+02   -.238E+01 -.140E+01 -.114E+01   -.961E-04 0.523E-04 -.561E-05
   0.590E+01 0.151E+01 0.124E+03   -.492E+01 -.105E+01 -.123E+03   0.175E+01 -.861E+00 -.234E+01   0.772E-05 -.459E-04 0.109E-03
   -.161E+00 -.278E+00 0.277E+02   0.192E+00 0.121E+00 -.275E+02   -.459E+00 -.213E+01 0.150E+01   -.149E-04 -.277E-04 0.525E-04
   0.433E+01 -.883E+01 -.103E+03   -.372E+01 0.830E+01 0.103E+03   -.724E+00 0.150E+01 0.478E+01   -.274E-04 -.325E-04 0.518E-05
   0.805E+01 0.111E+01 0.128E+03   -.714E+01 -.729E+00 -.127E+03   0.257E+01 -.685E+00 -.361E+01   0.344E-04 -.484E-04 0.375E-04
   0.942E-01 -.235E+00 0.279E+02   0.120E-02 0.127E+00 -.273E+02   -.126E+00 0.114E+00 0.276E+01   0.102E-04 -.242E-04 0.351E-04
   -.267E-01 -.968E-01 -.778E+02   0.164E-01 0.168E+00 0.787E+02   0.236E+01 -.453E+00 -.216E+01   -.168E-04 -.282E-04 -.339E-04
   -.242E+00 -.198E+00 0.548E+02   0.165E+00 0.441E+00 -.535E+02   -.189E+00 0.355E+00 -.120E+01   0.298E-04 -.331E-04 -.660E-04
   0.228E+00 -.538E+00 0.274E+02   -.258E+00 -.437E-01 -.272E+02   0.161E-01 0.533E+00 -.168E+00   0.189E-04 0.464E-05 0.312E-04
   -.849E+00 -.724E+00 -.768E+02   0.163E+01 0.497E+00 0.774E+02   0.157E+01 -.285E+00 -.224E+01   0.126E-04 0.367E-04 -.402E-04
   -.102E+02 -.715E+01 0.108E+03   0.889E+01 0.735E+01 -.108E+03   0.117E+01 0.119E+00 0.521E+00   -.104E-04 0.439E-04 0.844E-04
   0.199E+00 -.265E+00 0.277E+02   -.162E+00 -.561E-01 -.273E+02   -.616E-01 0.312E+00 -.436E+00   0.262E-04 0.478E-04 0.479E-04
   -.769E+00 0.249E+00 -.769E+02   0.104E+01 -.750E+00 0.771E+02   0.195E+01 -.410E+00 -.139E+01   0.297E-04 0.266E-04 -.454E-04
   0.419E+00 -.380E+01 0.917E+02   -.214E+00 0.449E+01 -.916E+02   0.320E+00 -.136E+01 -.466E-01   -.582E-04 0.636E-04 -.246E-04
   -.782E+00 0.834E+00 0.526E+02   0.387E+00 0.326E+00 -.528E+02   0.496E+00 -.936E+00 0.243E+00   -.212E-04 -.487E-04 -.549E-04
   0.556E+00 0.913E+00 -.748E+02   -.504E+00 -.113E+01 0.759E+02   -.126E+00 0.653E-01 -.954E+00   -.134E-04 -.123E-04 -.432E-04
   0.140E+00 -.441E+00 0.870E+02   -.614E+00 0.122E+00 -.854E+02   0.610E+00 0.284E+00 -.180E+01   0.161E-04 0.728E-05 -.128E-05
   0.363E+00 -.158E+01 0.274E+02   0.830E-01 0.267E+00 -.271E+02   0.143E+01 -.141E+01 -.141E+00   0.173E-04 -.552E-04 0.151E-04
   -.371E+00 0.560E+00 -.786E+02   -.123E+00 -.140E+01 0.787E+02   -.508E-01 -.183E+01 -.120E+01   0.166E-04 -.463E-04 -.687E-04
   0.109E+01 0.408E+01 0.127E+03   -.105E+01 -.441E+01 -.126E+03   -.142E+00 0.653E+00 -.309E+01   -.464E-04 -.492E-04 0.808E-04
   -.454E+00 0.923E+00 0.512E+02   0.256E+00 -.513E-01 -.521E+02   0.508E-01 -.647E+00 0.187E+01   -.210E-04 0.397E-04 -.692E-04
   -.895E+00 -.463E+00 -.803E+02   0.912E+00 -.127E-01 0.797E+02   -.230E+01 0.623E+00 -.337E+00   0.399E-04 -.616E-05 -.356E-04
   -.967E+01 -.177E+01 0.126E+03   0.853E+01 0.125E+01 -.125E+03   0.264E+00 0.453E+00 -.169E+01   -.240E-04 0.262E-04 0.102E-03
   -.241E+00 0.108E+01 0.276E+02   -.105E+00 -.257E+00 -.271E+02   0.247E+00 -.694E+00 -.354E+00   -.431E-05 0.311E-04 0.105E-03
   0.418E+00 -.952E+00 -.791E+02   0.623E+00 0.811E+00 0.787E+02   -.817E+00 0.182E+00 0.931E+00   0.587E-04 0.464E-04 -.123E-04
   -.567E+01 0.980E+01 0.107E+03   0.428E+01 -.934E+01 -.107E+03   0.731E+00 -.653E+00 0.574E+00   -.960E-05 0.759E-05 0.114E-03
   -.522E-01 0.217E+00 0.276E+02   0.166E+00 0.100E+00 -.272E+02   0.131E-01 -.285E+00 -.481E+00   0.206E-05 0.609E-05 0.658E-04
   -.399E+00 0.100E+01 -.791E+02   -.489E+00 -.105E+01 0.788E+02   0.622E+00 -.111E+00 0.854E+00   0.247E-04 -.215E-04 -.367E-04
   -.731E+01 -.521E+01 0.101E+03   0.755E+01 0.538E+01 -.100E+03   -.530E-03 0.131E+01 -.396E+01   0.238E-04 0.392E-04 -.379E-04
   -.336E+00 0.846E-01 0.275E+02   0.242E+00 0.311E-01 -.271E+02   -.342E+00 -.238E+01 0.126E+01   -.160E-04 -.491E-04 0.562E-04
   0.287E+00 0.405E+00 -.806E+02   -.655E+00 0.242E-01 0.800E+02   -.180E+01 0.165E+00 -.197E+00   -.114E-04 -.569E-04 -.211E-04
   0.138E+01 -.171E+00 0.775E+02   -.109E+01 0.519E+00 -.775E+02   0.205E+01 -.503E+00 0.933E+00   -.112E-04 -.319E-04 0.892E-04
   -.107E+00 0.309E+00 -.282E+02   0.166E+00 0.100E+00 0.272E+02   -.422E-01 -.381E+00 -.219E+01   -.207E-04 -.427E-04 0.280E-05
   0.646E+01 0.636E+01 -.104E+03   -.663E+01 -.623E+01 0.103E+03   0.671E+00 -.104E+01 0.245E+01   0.226E-04 -.131E-04 0.144E-04
   0.436E+01 -.882E+01 0.103E+03   -.372E+01 0.830E+01 -.103E+03   -.755E+00 0.147E+01 -.481E+01   0.424E-04 -.521E-05 -.129E-04
   -.267E+00 0.347E+00 -.272E+02   0.242E+00 0.310E-01 0.271E+02   0.539E-01 -.367E+00 0.155E+00   -.252E-04 0.109E-04 0.274E-04
   0.103E+01 0.403E+01 -.127E+03   -.105E+01 -.441E+01 0.126E+03   -.954E-01 0.621E+00 0.294E+01   -.110E-03 -.252E-04 -.220E-04
   -.691E-02 -.808E-01 0.778E+02   0.164E-01 0.167E+00 -.787E+02   0.236E+01 -.464E+00 0.216E+01   0.298E-04 0.359E-04 0.605E-04
   -.135E+00 0.102E+01 -.278E+02   -.623E-02 -.172E+00 0.273E+02   0.561E+00 0.141E+01 -.125E+01   0.224E-05 0.439E-04 -.627E-05
   -.338E+00 -.764E+00 -.863E+02   -.614E+00 0.122E+00 0.854E+02   0.145E+01 0.714E-01 0.756E+00   0.196E-04 -.191E-04 0.350E-05
   0.544E-02 -.881E+00 0.787E+02   0.144E+00 0.150E+01 -.788E+02   0.688E-01 -.128E+00 -.190E+00   0.164E-04 0.332E-04 0.122E-03
   -.155E+00 0.109E+01 -.275E+02   -.105E+00 -.257E+00 0.271E+02   0.652E+00 0.149E+01 -.121E+01   -.460E-04 0.382E-04 0.351E-04
   -.992E+01 -.726E+01 -.108E+03   0.889E+01 0.735E+01 0.108E+03   -.332E+00 0.141E+01 -.178E+01   -.146E-04 0.490E-04 -.550E-04
   -.539E+00 -.121E+01 0.747E+02   0.142E+00 0.119E+01 -.759E+02   -.242E+01 -.149E+01 0.118E+01   0.709E-05 -.313E-04 0.810E-04
   -.253E+00 0.975E+00 -.278E+02   0.607E-01 -.114E+00 0.275E+02   0.935E-01 -.756E+00 0.213E+00   -.123E-04 -.254E-04 -.119E-04
   0.473E+01 -.908E+01 -.104E+03   -.372E+01 0.830E+01 0.103E+03   -.943E+00 0.111E+01 0.237E+01   0.456E-04 0.453E-04 0.807E-05
   0.595E+00 0.880E+00 0.748E+02   -.504E+00 -.113E+01 -.759E+02   -.928E-01 0.603E-01 0.957E+00   0.230E-04 -.483E-04 0.176E-04
   -.147E+00 -.435E+00 -.277E+02   0.192E+00 0.121E+00 0.275E+02   0.965E-03 0.227E+00 0.173E+00   0.123E-04 -.369E-04 -.236E-04
   0.308E+00 0.704E+01 -.126E+03   -.115E+01 -.833E+01 0.125E+03   0.243E+00 0.160E+01 0.143E+01   -.189E-04 -.279E-04 -.608E-04
   -.374E+00 0.549E+00 0.786E+02   -.123E+00 -.140E+01 -.787E+02   -.300E-01 -.183E+01 0.117E+01   0.765E-05 0.179E-04 0.733E-04
   0.366E-01 -.526E+00 -.277E+02   0.117E-02 0.127E+00 0.273E+02   -.490E-01 0.373E+00 0.258E+00   0.282E-04 0.137E-04 -.104E-04
   -.769E+00 -.316E-01 -.129E+03   0.637E+00 -.659E-02 0.131E+03   0.108E+00 0.870E-03 -.124E+01   0.206E-04 0.416E-04 -.441E-04
[...]
   0.114E-01 0.128E+00 0.168E+02   -.294E-01 -.262E-01 -.167E+02   0.129E+00 -.198E+00 0.973E+00   -.187E-04 -.402E-04 -.628E-04
   0.275E+01 -.705E+00 0.897E+02   -.273E+01 0.546E+00 -.899E+02   0.103E+01 -.150E+00 0.723E+00   -.275E-04 -.374E-04 -.132E-04
   -.598E+00 0.461E+00 -.527E+02   0.387E+00 0.326E+00 0.528E+02   0.227E+00 -.493E+00 -.138E+01   0.941E-05 -.317E-04 0.233E-04
   -.188E+00 -.265E+00 0.169E+02   0.468E-02 -.887E-03 -.168E+02   -.433E+00 -.343E+00 0.551E+00   -.125E-05 -.194E-04 -.331E-04
   0.521E+01 0.121E+01 0.124E+03   -.492E+01 -.105E+01 -.123E+03   -.214E+00 -.596E-01 -.372E+01   -.259E-04 0.257E-04 0.716E-04
   -.543E+00 0.114E+01 -.528E+02   0.232E+00 -.450E+00 0.528E+02   -.397E+00 0.850E-01 -.654E+00   0.344E-04 0.532E-04 -.160E-05
   -.212E+00 -.314E+00 0.169E+02   -.192E-02 -.330E-01 -.167E+02   -.417E+00 -.326E+00 0.456E+00   0.346E-04 0.494E-04 -.333E-04
   0.763E+00 0.142E+00 0.821E+02   -.655E+00 0.239E-01 -.800E+02   0.750E-01 -.806E-01 0.117E+01   0.200E-04 -.404E-04 0.566E-04
   0.473E+00 -.114E+01 -.533E+02   -.303E+00 0.477E+00 0.529E+02   -.819E-02 0.361E+00 -.801E+00   0.323E-04 -.232E-04 0.155E-04
   -.189E-01 -.360E+00 0.166E+02   0.200E-01 -.403E-02 -.167E+02   -.746E-01 0.394E+00 0.390E-01   0.318E-04 -.266E-04 -.109E-04
   0.141E+01 0.373E+01 0.913E+02   -.192E+01 -.406E+01 -.916E+02   -.574E+00 0.847E+00 0.254E+00   0.496E-04 -.659E-04 0.588E-05
   0.258E+00 -.216E+00 -.535E+02   0.610E-01 -.122E-01 0.527E+02   0.291E+00 -.331E+00 0.503E+00   0.337E-04 -.376E-04 -.633E-05
   0.129E+00 0.262E+00 0.168E+02   -.169E-01 0.355E-01 -.167E+02   -.285E-01 -.392E+00 -.219E+00   0.190E-04 -.178E-04 -.358E-05
   -.394E-01 0.858E+00 0.783E+02   -.165E+01 -.357E+00 -.779E+02   -.138E+01 0.290E+00 0.162E+01   0.264E-04 0.123E-06 0.679E-04
   -.352E+01 -.433E+01 0.189E+00   0.577E-14 -.349E-13 0.711E-12   0.373E+01 0.444E+01 -.306E+00   -.179E-04 -.176E-04 0.172E-02

 POSITION                                       TOTAL-FORCE (eV/Angst)
     19.50133     19.52813      0.00000        -0.824990     -0.001197     -0.811422
     17.24190     18.02184      2.71550        -0.040256      0.083389      0.006871
     14.98246     16.51556      5.43100         2.318615     -0.163078     -1.014018
      1.42587      7.47783      0.00000        -0.181584      0.055094     -3.892772
     18.74818      5.97154      2.71550        -0.505639     -2.263800      1.710722
     16.48875      4.46525      5.43100         0.175899      0.483279      0.253131
      8.06184      4.19250     17.00025         0.595709     -0.494383      0.875927
      2.17901      1.45267      2.71550         1.868963     -2.711292      0.124716
     19.50133     19.52813      5.43100        -2.810176     -1.519080      0.038795
      2.93216     15.00927      0.00000         2.726412     -0.398319     -2.141828
      0.67272     13.50298      2.71550        -0.429089     -2.283132      1.685803
     19.48453     12.35157      8.88875        -0.118815      0.968561      4.172946
      5.94473     10.49040      0.00000         3.481087     -0.301457     -2.501613
      3.68530      8.98411      2.71550        -0.031064      0.004818      3.329609
      1.42587      7.47783      5.43100         2.353208     -0.382302     -1.285445
      3.16641     15.61519     15.37795        -0.266925      0.596964      0.137132
      6.69788      4.46525      2.71550        -0.014002     -0.049674      0.091837
      4.43844      2.95896      5.43100         2.353248     -0.512988     -1.629151
     11.96989      1.45267      0.00000        -0.172117      0.326396      0.345397
      9.71045     19.52813      2.71550        -0.025107     -0.009568     -0.021073
      7.45102     18.02184      5.43100         2.226796     -0.912115     -1.208641
     17.85272      0.92888     17.00025         0.523688     -0.679048      0.054868
     19.48453     12.35157     15.37795         0.099761      0.223486      0.018571
      2.93216     15.00927      5.43100        -0.075256     -0.154911      0.112197
      1.53459     17.24700     17.00025         0.135428     -0.034653     -0.180939
      8.20416     11.99669      2.71550         1.872572     -2.720447      0.092405
      5.94473     10.49040      5.43100        -0.545740     -2.663278     -1.058981
     13.47617      8.98412      0.00000        -0.106152      0.321016     -1.425868
     12.95728     18.87882     15.37795        -0.148412      0.224889      0.969263
      8.95731      5.97154      5.43100        -2.279766      0.146874     -0.925394
     16.48875      4.46525      0.00000        -0.876378     -0.071595     -0.402100
     14.22932      2.95896      2.71550        -0.100175      0.123947      0.060288
     11.96989      1.45267      5.43100         0.223082      0.041090      0.547768
     14.98247     16.51556      0.00000        -0.653425     -0.187569      0.429363
     12.72303     15.00927      2.71550         0.125829      0.031476     -0.087342
     10.46360     13.50298      5.43100        -0.267436     -0.164359      0.527198
      1.53459      4.19250     17.00025         0.242761      1.474083     -3.373578
     15.73561     10.49040      2.71550        -0.436727     -2.260759      1.607341
     13.47617      8.98411      5.43100        -2.167212      0.593712     -0.832555
      0.29615     11.62012      1.35775         2.341140     -0.154943      0.998442
     17.61847     10.11383      4.07325         0.015571      0.027310     -3.182163
      6.43003      5.82432      8.88875         0.502403     -0.914142      1.137652
      4.79822      7.45613     17.00025        -0.112328      0.951840     -4.190064
      1.04929      5.59497      4.07325         0.027483      0.010611      0.024854
     18.37161      4.08868      6.78875        -0.112722      0.240127      1.401506
      6.32131      2.58239      1.35775         2.367725     -0.377754      1.278792
      4.06187      1.07610      4.07325         0.418555      2.257374     -1.811220
      6.43003     12.35157      8.88875         0.501772     -0.571043     -0.152578
      1.80244     19.15156      1.35775         0.217241      0.486252     -0.272260
     19.12476     17.64527      4.07325         0.391317      2.314800     -1.610126
     16.86532     16.13898      6.78875        -1.363822      1.508346     -2.081543
      4.81502     14.63270      1.35775        -2.813365     -1.510966     -0.040997
      2.55558     13.12641      4.07325        -0.099198      0.103949     -0.049965
      9.69366      2.56069      8.88875         0.066263      0.322779      1.242770
      7.82759     10.11383      1.35775        -0.002449     -0.192197     -0.118128
      5.56816      8.60754      4.07325         0.045354     -0.087036     -0.052828
      3.30873      7.10125      6.78875        -0.599135      0.310764      0.920725
     10.84017      5.59497      1.35775        -0.527424     -2.680377      1.068788
      8.58074      4.08868      4.07325        -0.011967     -0.027070     -0.099074
      6.32130      2.58239      6.78875        -0.024698     -0.037684      0.810745
[...]
      4.79822     13.98338     10.51105        -0.092955      0.001278     -0.926839
      1.53459     13.98338     13.75565         0.109943     -0.096213      1.114136
     17.85272     13.98338     17.00025         1.041965     -0.309524      0.457858
      4.79822      7.45613     10.51105         0.014511      0.293630     -1.287327
      1.53459      7.45613     13.75565        -0.617376     -0.609298      0.617435
     12.72303      5.21839      0.00000         0.081999      0.099994     -3.152677
     11.32547      0.92888     10.51105        -0.709108      0.779335     -0.626816
      8.06184      0.92888     13.75565        -0.630981     -0.673247      0.624795
      8.58074     13.87956      1.35775         0.182211      0.084849      3.362471
     11.32547     13.98338     10.51105         0.161337     -0.297702     -1.223394
      8.06184     13.98338     13.75565        -0.074244      0.029309     -0.124916
      4.79822     13.98338     17.00025        -1.089085      0.513254     -0.079385
     11.32547      7.45613     10.51105         0.608980     -0.558994     -0.344680
      8.06184      7.45613     13.75565         0.082746     -0.094890     -0.100986
      3.30873      7.10126      1.35775        -3.076742      0.790165      1.974758
    total drift:                                0.206854      0.113438     -0.115444

  FREE ENERGIE OF THE ION-ELECTRON SYSTEM (eV)
  free  energy   TOTEN  =     -1096.36339025 eV

  energy  without entropy=    -1096.35809876  energy(sigma->0) =    -1096.36074450