 vasp.6.4.3 19Mar24 (build Oct 22 2024 11:23:12) complex

 executed on             LinuxIFC date 2025.06.08  15:22:14

 INCAR:
   SYSTEM = Si and Ge interface calculation
   ISTART = 0
   ICHARG = 2
   LWAVE = .FALSE.
   LREAL = AUTO
   ENCUT = 700
   ENAUG = 900
   ADDGRID = .TRUE.
   LMAXMIX = 6
   LASPH = .TRUE.
   LMIXTAU = .TRUE.
   NCORE = 16
   NELM = 100
   NBANDS = 288
   EDIFF = 1d-7
   AMIX = 0.6
   ISMEAR = 0
   SIGMA = 0.01
   NELECT = 480
   ISPIN = 2
   NUPDOWN = 1
   LVTOT = .FALSE.
   LVHAR = .TRUE.

 POTCAR:    PAW_PBE Si 05Jan2001
 POTCAR:    PAW_PBE Ge 05Jan2001
|           W    W    AA    RRRRR   N    N  II  N    N   GGGG   !!!           |
|           W    W   A  A   R    R  NN   N  II  NN   N  G    G  !!!           |
|           W    W  A    A  R    R  N N  N  II  N N  N  G       !!!           |
|           W WW W  AAAAAA  RRRRR   N  N N  II  N  N N  G  GGG   !            |
|           WW  WW  A    A  R   R   N   NN  II  N   NN  G    G                |
|           W    W  A    A  R    R  N    N  II  N    N   GGGG   !!!           |
|     You use a magnetic or noncollinear calculation, but did not specify     |
|     the initial magnetic moment with the MAGMOM tag. Note that a            |
|     default of 8.333e-3 will be used for all atoms. This ferromagnetic      |
|     setup may break the symmetry of the crystal, in particular it may       |
|     rule out finding an antiferromagnetic solution. Thence, we              |
|     recommend setting the initial magnetic moment manually or verifying     |
|     carefully that this magnetic setup is desired.                          |

 POTCAR:    PAW_PBE Si 05Jan2001
   VRHFIN =Si: s2p2

   TITEL  = PAW_PBE Si 05Jan2001
   POMASS =   28.085; ZVAL   =    4.000    mass and valenz
   ENMAX  =  245.345; ENMIN  =  184.009 eV

 POTCAR:    PAW_PBE Ge 05Jan2001
   VRHFIN =Ge: s2p2

   TITEL  = PAW_PBE Ge 05Jan2001
   POMASS =   72.610; ZVAL   =    4.000    mass and valenz
   ENMAX  =  173.807; ENMIN  =  130.355 eV

 Optimization of the real space projectors (new method)

 maximal supplied QI-value         = 19.84
 optimisation between [QCUT,QGAM] = [ 13.49, 26.99] = [ 50.98,203.92] Ry
 Optimized for a Real-space Cutoff    1.07 Angstroem

   l    n(q)    QCUT    max X(q) W(low)/X(q) W(high)/X(q)  e(spline)
   0      9    13.493   159.560    0.22E-03    0.15E-03    0.72E-07
   0      9    13.493   115.863    0.21E-03    0.15E-03    0.71E-07
   1      8    13.493    88.339    0.15E-03    0.11E-03    0.13E-06
   1      8    13.493    48.592    0.15E-03    0.10E-03    0.13E-06
 Optimization of the real space projectors (new method)

 maximal supplied QI-value         = 16.25
 optimisation between [QCUT,QGAM] = [ 13.49, 26.98] = [ 50.95,203.80] Ry
 Optimized for a Real-space Cutoff    1.25 Angstroem

   l    n(q)    QCUT    max X(q) W(low)/X(q) W(high)/X(q)  e(spline)
   0     10    13.489    65.336    0.91E-04    0.11E-03    0.34E-06
   0     10    13.489    52.220    0.89E-04    0.11E-03    0.34E-06
   1     10    13.489    36.409    0.22E-03    0.27E-03    0.14E-06
   1     10    13.489    21.334    0.21E-03    0.27E-03    0.14E-06
   2      9    13.489     4.673    0.11E-03    0.12E-03    0.19E-06
  PAW_PBE Si 05Jan2001                  :
  PAW_PBE Ge 05Jan2001                  :

 POSCAR: Si+Ge
  positions in direct lattice

 exchange-correlation table for PE
   RHO(1)=    0.500       N(1)  =     2000
   RHO(2)=  100.500       N(2)  =     4000

 ion  position               nearest neighbor table
   1  0.130  0.826  0.413-  72 2.35  35 2.35
   2  0.964  0.076  0.000- 119 2.23  64 2.35  21 2.35
   3  0.797  0.426  0.083-  65 2.35  68 2.35  22 2.35  96 2.86
   4  0.630  0.776  0.165-  66 2.35  32 2.35  69 2.35  23 2.35
   5  0.464  0.126  0.248-  61 2.35  33 2.35  24 2.35  70 2.35
   6  0.297  0.476  0.330-  19 2.35  71 2.35  34 2.35 103 2.45
   7  0.464  0.826  0.413-  60 2.35  23 2.35 115 2.84  81 3.03
   8  0.297  0.076  0.000-  70 2.35  27 2.35  77 2.64
   9  0.130  0.426  0.083-  71 2.35  56 2.35  28 2.35  90 2.80
  10  0.964  0.776  0.165-  72 2.35  20 2.35  57 2.35  29 2.35
  11  0.797  0.126  0.248-  67 2.35  30 2.35  21 2.35  58 2.35
  12  0.630  0.476  0.330-  25 2.35  59 2.35  22 2.35  91 2.49
  13  0.797  0.826  0.413-  66 2.35  29 2.35
  14  0.630  0.076  0.000-  58 2.35  33 2.35  83 2.57
  15  0.464  0.426  0.083-  59 2.35  62 2.35  34 2.35 108 2.48
  16  0.297  0.776  0.165-  60 2.35  26 2.35  63 2.35  35 2.35
  17  0.130  0.126  0.248-  55 2.35  27 2.35  36 2.35  64 2.35
  18  0.964  0.476  0.330-  31 2.35  65 2.35  28 2.35
  19  0.214  0.576  0.413-  79 2.29  53 2.35   6 2.35
  20  0.047  0.826  0.000- 114 2.15  95 2.31  10 2.35  45 2.35
  21  0.880  0.176  0.083-  46 2.35  11 2.35   2 2.35
  22  0.714  0.526  0.165-  50 2.35  47 2.35  12 2.35   3 2.35
  23  0.547  0.876  0.248-  51 2.35  48 2.35   7 2.35   4 2.35
  24  0.380  0.226  0.330-  52 2.35   5 2.35  43 2.35
  25  0.547  0.576  0.413-  41 2.35  12 2.35 115 2.69  91 2.90
  26  0.380  0.826  0.000-  84 2.19 101 2.35  16 2.35  51 2.35
  27  0.214  0.176  0.083-  52 2.35  17 2.35   8 2.35
  28  0.047  0.526  0.165-  38 2.35  53 2.35  18 2.35   9 2.35
  29  0.880  0.876  0.248-  39 2.35  54 2.35  13 2.35  10 2.35
  30  0.714  0.226  0.330-  40 2.35  11 2.35  49 2.35
  31  0.880  0.576  0.413-  47 2.35  18 2.35 109 2.62  97 2.94
  32  0.714  0.826  0.000-   4 2.35  39 2.35  78 2.85 120 2.95 107 2.97
  33  0.547  0.176  0.083-  40 2.35   5 2.35  14 2.35
  34  0.380  0.526  0.165-  44 2.35  41 2.35   6 2.35  15 2.35
  35  0.214  0.876  0.248-  45 2.35  42 2.35   1 2.35  16 2.35
  36  0.047  0.226  0.330-  46 2.35  17 2.35  37 2.35
  37  0.130  0.326  0.413- 116 2.26  71 2.35  36 2.35  85 2.40
  38  0.964  0.576  0.000- 102 2.06  28 2.35  57 2.35
  39  0.797  0.926  0.083-  29 2.35  58 2.35  32 2.35
  40  0.630  0.276  0.165-  30 2.35  68 2.35  33 2.35  59 2.35
  41  0.464  0.626  0.248-  25 2.35  69 2.35  34 2.35  60 2.35
  42  0.297  0.976  0.330-  70 2.35  35 2.35  55 2.35
  43  0.464  0.326  0.413-  59 2.35  24 2.35 110 2.90  74 3.00  91 3.02
  44  0.297  0.576  0.000-  34 2.35  63 2.35  90 2.51 118 2.98
  45  0.130  0.926  0.083-  35 2.35  64 2.35  20 2.35
  46  0.964  0.276  0.165-  36 2.35  56 2.35  21 2.35  65 2.35
  47  0.797  0.626  0.248-  31 2.35  22 2.35  57 2.35  66 2.35
  48  0.630  0.976  0.330-  58 2.35  23 2.35  61 2.35
  49  0.797  0.326  0.413-  80 2.22  65 2.35  30 2.35  97 2.37
  50  0.630  0.576  0.000-  22 2.35  69 2.35  96 2.43  76 3.01
  51  0.464  0.926  0.083-  23 2.35  70 2.35  26 2.35
  52  0.297  0.276  0.165-  24 2.35  62 2.35  27 2.35  71 2.35
  53  0.130  0.626  0.248-  19 2.35  63 2.35  28 2.35  72 2.35
  54  0.964  0.976  0.330-  64 2.35  29 2.35  67 2.35
  55  0.214  0.076  0.413-  92 2.13  17 2.35  42 2.35
  56  0.047  0.326  0.000-  46 2.35   9 2.35
  57  0.880  0.676  0.083-  38 2.35  47 2.35  10 2.35  78 2.59
  58  0.714  0.026  0.165-  14 2.35  48 2.35  39 2.35  11 2.35
  59  0.547  0.376  0.248-  15 2.35  43 2.35  12 2.35  40 2.35
  60  0.380  0.726  0.330-  16 2.35   7 2.35  41 2.35 115 2.70
[...]
 106  0.210  0.265  0.738-  77 2.48  74 2.48 116 2.48
 107  0.835  0.876  0.803-  78 2.48  75 2.48 117 2.48  32 2.97
 108  0.460  0.488  0.867- 118 2.48  76 2.48  15 2.48
 109  0.960  0.682  0.546-  93 2.48  99 2.48  31 2.62  72 2.77
 110  0.585  0.293  0.610-  91 2.48  94 2.48 100 2.48  43 2.90
 111  0.210  0.904  0.674-  92 2.48  95 2.48 101 2.48
 112  0.835  0.515  0.738-  97 2.46  93 2.48 102 2.48  96 2.48
 113  0.460  0.126  0.803-  98 2.46  94 2.48
 114  0.085  0.738  0.867-  20 2.15  99 2.46  95 2.48
 115  0.460  0.682  0.546-  87 2.48 105 2.48  25 2.69  60 2.70   7 2.84
 116  0.085  0.293  0.610-  37 2.26  85 2.48  88 2.48 106 2.48
 117  0.710  0.904  0.674-  86 2.48  89 2.48 107 2.48
 118  0.335  0.515  0.738- 103 2.46  87 2.48 108 2.48  90 2.48  44 2.98
 119  0.960  0.126  0.803-   2 2.23 104 2.46  88 2.48
 120  0.585  0.738  0.867- 105 2.46  89 2.48  69 2.55  32 2.95

  LATTYP: Found a simple orthorhombic cell.
 ALAT       =    10.4023427960
 B/A-ratio  =     1.5662818939
 C/A-ratio  =     1.6510059411

  Lattice vectors:

 A1 = (   0.0000000000,   0.0000002530,  10.4023427960)
 A2 = (  16.2930011750,   0.0000000000,   0.0000000000)
 A3 = (   0.0000000000,  17.1743297580,   0.0000000000)

Analysis of symmetry for initial positions (statically):
 Subroutine PRICEL returns:
 Original cell was already a primitive cell.

 Routine SETGRP: Setting up the symmetry group for a
 simple orthorhombic supercell.

 Subroutine GETGRP returns: Found  1 space group operations
 (whereof  1 operations were pure point group operations)
 out of a pool of  8 trial point group operations.

The static configuration has the point symmetry C_1 .

Analysis of symmetry for dynamics (positions and initial velocities):
 Subroutine PRICEL returns:
 Original cell was already a primitive cell.

[...]

The dynamic configuration has the point symmetry C_1 .

Analysis of structural, dynamic, and magnetic symmetry:
 Subroutine PRICEL returns:
 Original cell was already a primitive cell.

 Routine SETGRP: Setting up the symmetry group for a
 simple orthorhombic supercell.

 Subroutine GETGRP returns: Found  1 space group operations
 (whereof  1 operations were pure point group operations)
 out of a pool of  8 trial point group operations.

The overall configuration has the point symmetry C_1 .

 Subroutine INISYM returns: Found  1 space group operations
 (whereof  1 operations are pure point group operations),
 and found     1 'primitive' translations

                                     Primitive cell

  volume of cell :    2910.7979

  direct lattice vectors                    reciprocal lattice vectors
    16.293001175  0.000000000  0.000000000     0.061376047  0.000000000  0.000000000
     0.000000000 17.174329758  0.000000000     0.000000000  0.058226435 -0.000000001
     0.000000000  0.000000253 10.402342796     0.000000000  0.000000000  0.096132191

  length of vectors
    16.293001175 17.174329758 10.402342796     0.061376047  0.058226435  0.096132191

  position of ions in fractional coordinates (direct lattice)
     0.130378902  0.826204658  0.412752151
     0.963712454  0.076203912  0.000000057
     0.797045708  0.426204026  0.082550481
     0.630379081  0.776204169  0.165100887
     0.463712275  0.126204491  0.247651324
     0.297045529  0.476204634  0.330201805
     0.463712275  0.826204658  0.412752151
     0.297045797  0.076203912  0.000000057
     0.130379081  0.426204026  0.082550481
     0.963712394  0.776204169  0.165100887
     0.797045588  0.126204491  0.247651324
     0.630378842  0.476204634  0.330201805
     0.797045588  0.826204658  0.412752151
     0.630379140  0.076203912  0.000000057
     0.463712424  0.426204026  0.082550481
     0.297045767  0.776204169  0.165100887
     0.130378976  0.126204491  0.247651324
     0.963712215  0.476204634  0.330201805
     0.213712215  0.576204777  0.412752092
     0.047045767  0.826204002  0.000000000
     0.880379081  0.176204205  0.082550466
     0.713712335  0.526204467  0.165100798
     0.547045588  0.876204610  0.247651264
     0.380378962  0.226204634  0.330201626
[...]
     0.000000000  0.000000253 10.402342796     0.000000000  0.000000000  0.096132191

  length of vectors
    16.293001175 17.174329758 10.402342796     0.061376047  0.058226435  0.096132191

 FORCES acting on ions
    electron-ion (+dipol)            ewald-force                    non-local-force                 convergence-correction
   0.357E+01 -.372E+02 -.461E+02   -.407E+01 0.378E+02 0.454E+02   0.886E+00 -.665E+00 0.155E+01   -.717E-03 0.680E-04 0.842E-04
   -.614E+00 0.194E+02 0.292E+02   0.304E+00 -.177E+02 -.288E+02   -.438E-01 -.197E+01 0.960E+00   0.200E-03 0.188E-03 0.419E-04
   -.197E+02 0.193E+02 0.308E+02   0.187E+02 -.197E+02 -.293E+02   0.886E+00 0.327E+00 -.163E+01   0.682E-03 -.105E-03 -.221E-03
   -.842E+00 -.195E+02 -.563E+01   0.777E+00 0.196E+02 0.470E+01   -.112E+00 -.399E+00 0.127E+01   0.709E-03 -.299E-03 0.636E-04
   0.132E+01 0.419E+01 -.851E+01   -.548E+00 -.407E+01 0.835E+01   -.632E+00 0.357E-01 0.120E+00   -.461E-03 0.362E-03 -.969E-05
   -.113E+02 0.115E+02 -.145E+02   0.104E+02 -.113E+02 0.134E+02   0.840E+00 0.499E-01 0.161E+01   -.590E-03 -.236E-03 0.180E-03
   -.396E+00 -.399E+02 -.436E+02   -.152E+00 0.394E+02 0.416E+02   0.115E+00 0.424E+00 0.289E+01   -.921E-04 -.677E-04 0.280E-03
   -.551E+01 0.130E+02 0.439E+02   0.530E+01 -.119E+02 -.420E+02   -.242E+00 -.676E+00 -.287E+01   -.104E-02 0.123E-03 0.921E-04
   -.135E+02 0.192E+02 0.303E+02   0.116E+02 -.200E+02 -.286E+02   0.230E+01 0.784E+00 -.238E+01   -.654E-03 -.245E-03 -.159E-03
   0.779E+00 -.194E+02 -.185E+01   -.745E+00 0.194E+02 0.188E+01   -.380E+00 -.952E-01 0.203E+00   0.213E-03 -.805E-04 0.182E-04
   0.458E+00 0.488E+01 -.960E+01   -.249E+00 -.439E+01 0.860E+01   -.137E+00 -.125E-01 0.988E+00   0.113E-02 0.420E-03 -.829E-04
   -.224E+02 0.120E+02 -.160E+02   0.209E+02 -.118E+02 0.146E+02   0.138E+01 -.279E+00 0.184E+01   0.605E-03 -.147E-03 0.198E-03
   -.227E+01 -.378E+02 -.459E+02   0.250E+01 0.376E+02 0.459E+02   -.682E+00 0.559E+00 0.545E+00   0.790E-03 -.186E-03 0.218E-03
   0.723E+01 0.129E+02 0.418E+02   -.732E+01 -.125E+02 -.407E+02   -.103E+00 -.112E+00 -.187E+01   0.781E-03 0.242E-03 -.235E-04
   -.184E+02 0.214E+02 0.235E+02   0.158E+02 -.228E+02 -.220E+02   0.212E+01 0.139E+01 -.193E+01   0.841E-04 0.371E-04 0.295E-04
   0.151E+01 -.199E+02 -.468E+01   -.181E+01 0.196E+02 0.508E+01   -.246E+00 0.282E+00 -.269E+00   -.826E-03 0.112E-03 0.165E-04
   0.126E+01 0.470E+01 -.921E+01   -.980E+00 -.435E+01 0.857E+01   -.119E+00 0.354E-01 0.825E+00   -.663E-03 0.203E-03 -.837E-05
   -.167E+02 0.159E+02 -.253E+02   0.148E+02 -.150E+02 0.234E+02   0.232E+01 -.120E+01 0.275E+01   0.630E-04 -.136E-03 0.176E-03
   -.122E+01 0.999E+01 -.234E+02   0.809E+00 -.925E+01 0.225E+02   0.428E-01 -.171E+01 -.246E+00   -.726E-03 -.319E-03 0.210E-03
   0.140E+02 -.281E+02 0.344E+01   -.138E+02 0.280E+02 -.248E+01   -.149E+01 0.150E+01 0.237E+01   -.323E-03 0.127E-03 -.571E-04
   0.187E+02 -.451E+00 0.394E+02   -.174E+02 0.206E+00 -.380E+02   -.140E+01 0.278E+00 -.159E+01   0.675E-03 0.220E-03 -.142E-03
   -.118E+01 0.617E+01 -.255E+00   0.698E+00 -.633E+01 -.833E+00   0.670E+00 -.139E+00 0.126E+01   0.759E-03 -.152E-03 -.329E-04
   -.957E+00 -.205E+02 -.154E+02   0.709E+00 0.210E+02 0.153E+02   0.334E+00 -.410E+00 0.267E+00   0.300E-03 -.260E-03 0.122E-03
   0.149E+02 0.313E+02 -.336E+02   -.142E+02 -.306E+02 0.321E+02   -.118E+01 -.615E+00 0.215E+01   -.746E-03 0.279E-03 0.102E-03
   -.117E+01 -.384E+01 -.252E+02   0.145E+01 0.336E+01 0.238E+02   -.520E+00 0.825E+00 0.151E+01   0.347E-03 -.297E-03 0.246E-03
   -.173E+02 -.269E+02 0.602E+01   0.164E+02 0.269E+02 -.543E+01   0.203E+01 0.126E+01 0.156E+01   -.502E-03 -.478E-04 -.149E-03
   0.170E+02 -.195E+01 0.357E+02   -.151E+02 0.791E+00 -.346E+02   -.200E+01 0.131E+01 -.127E+01   -.110E-02 0.184E-03 0.873E-04
   -.166E+01 0.702E+01 0.317E+01   0.136E+01 -.676E+01 -.314E+01   0.552E+00 -.677E-01 -.263E+00   -.343E-03 -.245E-03 -.114E-03
   -.524E+00 -.209E+02 -.148E+02   0.460E+00 0.210E+02 0.152E+02   0.244E+00 0.706E-02 -.403E+00   0.734E-03 -.198E-04 0.655E-04
   0.158E+02 0.297E+02 -.347E+02   -.155E+02 -.292E+02 0.339E+02   -.110E+01 -.539E+00 0.884E+00   0.941E-03 0.448E-03 0.112E-03
   0.165E+01 -.208E+01 -.251E+02   -.532E+00 0.202E+01 0.238E+02   -.596E+00 -.425E+00 0.172E+01   0.350E-03 -.142E-03 0.203E-03
   0.141E+01 -.191E+02 0.270E+02   -.985E+00 0.197E+02 -.248E+02   -.621E+00 -.133E+01 -.287E+01   0.856E-03 -.336E-03 -.220E-03
   0.154E+02 -.874E+00 0.399E+02   -.136E+02 0.134E+00 -.384E+02   -.213E+01 0.722E+00 -.185E+01   0.151E-03 0.556E-03 0.465E-04
   0.641E+00 0.646E+01 0.271E+01   -.282E+00 -.671E+01 -.288E+01   -.355E+00 0.361E-02 0.179E+00   -.334E-03 -.348E-03 0.128E-03
   -.885E+00 -.211E+02 -.142E+02   0.608E+00 0.209E+02 0.144E+02   0.451E+00 0.173E+00 -.290E-01   -.953E-03 0.183E-03 0.876E-04
   0.167E+02 0.313E+02 -.331E+02   -.164E+02 -.308E+02 0.318E+02   -.847E+00 -.454E+00 0.145E+01   -.287E-03 0.518E-04 0.512E-04
   -.132E+02 0.241E+02 -.897E+01   0.133E+02 -.256E+02 0.799E+01   0.725E+00 0.144E+01 -.116E+01   -.653E-03 -.585E-04 0.146E-03
   0.259E+00 -.166E+02 0.136E+02   0.131E+00 0.149E+02 -.142E+02   -.318E-01 0.519E+01 0.426E+01   0.109E-04 -.222E-03 -.206E-03
   -.147E+02 -.335E+02 0.309E+02   0.139E+02 0.327E+02 -.292E+02   0.115E+01 0.772E+00 -.250E+01   0.110E-02 0.437E-04 -.148E-03
   0.107E+01 0.193E+02 0.148E+02   -.760E+00 -.197E+02 -.146E+02   -.340E+00 0.240E+00 -.283E+00   0.731E-03 0.464E-03 -.234E-04
   0.875E+00 -.392E+01 -.293E+00   -.503E+00 0.401E+01 0.136E+01   -.632E+00 0.227E+00 -.127E+01   -.289E-04 -.450E-03 0.538E-04
   -.179E+02 -.127E+01 -.404E+02   0.170E+02 0.120E+01 0.391E+02   0.997E+00 0.401E-04 0.140E+01   -.957E-03 0.147E-03 0.751E-04
   0.199E+01 0.197E+02 -.276E+02   -.195E+01 -.205E+02 0.256E+02   0.194E+00 0.137E+01 0.268E+01   -.126E-03 0.348E-03 0.121E-03
   -.415E+01 0.767E+00 0.221E+02   0.314E+01 -.470E+00 -.209E+02   0.749E+00 0.350E+00 -.132E+01   -.668E-03 -.408E-03 -.106E-03
   -.172E+02 -.328E+02 0.310E+02   0.170E+02 0.325E+02 -.296E+02   0.702E+00 0.329E+00 -.172E+01   -.681E-03 0.230E-03 -.731E-04
   0.102E+01 0.196E+02 0.137E+02   -.573E+00 -.195E+02 -.139E+02   -.580E+00 -.127E+00 0.145E-02   0.184E-03 -.114E-03 -.114E-03
   -.589E+00 -.464E+01 -.295E+01   0.633E-01 0.459E+01 0.315E+01   0.377E+00 0.211E+00 -.157E+00   0.735E-03 -.219E-03 0.919E-04
   -.150E+02 -.685E+00 -.401E+02   0.135E+02 0.111E+01 0.388E+02   0.184E+01 -.568E+00 0.152E+01   0.773E-03 -.149E-03 0.139E-03
   0.142E+02 0.251E+02 -.581E+01   -.131E+02 -.263E+02 0.532E+01   -.198E+01 0.110E+01 -.189E+01   0.701E-03 0.139E-03 0.115E-03
   0.599E+01 -.552E+00 0.217E+02   -.497E+01 0.106E+01 -.204E+02   -.930E+00 -.430E+00 -.845E+00   0.640E-03 -.320E-03 -.259E-03
   -.152E+02 -.314E+02 0.328E+02   0.152E+02 0.311E+02 -.320E+02   0.816E+00 0.330E+00 -.103E+01   -.323E-03 -.130E-03 -.103E-03
   0.539E+00 0.195E+02 0.145E+02   -.444E+00 -.197E+02 -.147E+02   -.282E+00 0.127E+00 0.281E+00   -.965E-03 0.822E-04 0.954E-04
   0.177E+01 -.503E+01 -.273E+01   -.134E+01 0.453E+01 0.295E+01   -.703E+00 0.254E+00 -.105E-01   -.772E-03 -.119E-03 0.131E-03
   -.171E+02 0.329E+00 -.365E+02   0.156E+02 0.452E+00 0.358E+02   0.159E+01 -.100E+01 0.938E+00   0.447E-03 0.147E-03 -.895E-05
   -.192E+01 -.206E+02 -.232E+02   0.164E+01 0.186E+02 0.234E+02   0.660E+00 0.266E+01 -.315E+01   -.925E-03 0.284E-03 -.964E-04
   -.313E+01 0.330E+02 0.470E+02   0.344E+01 -.336E+02 -.465E+02   -.524E+00 0.377E+00 -.132E+01   -.309E-03 -.649E-04 -.139E-03
   0.124E+02 -.101E+02 0.194E+02   -.109E+02 0.989E+01 -.179E+02   -.147E+01 0.457E+00 -.237E+01   0.454E-03 -.265E-03 -.129E-03
   -.135E+01 -.633E+01 0.838E+01   0.627E+00 0.625E+01 -.821E+01   0.623E+00 -.854E-01 -.126E+00   0.115E-02 0.174E-03 0.639E-04
   0.618E+00 0.209E+02 0.591E+01   -.550E+00 -.210E+02 -.504E+01   0.230E+00 0.430E+00 -.122E+01   0.231E-03 0.150E-03 0.316E-04
   0.207E+02 -.171E+02 -.262E+02   -.199E+02 0.177E+02 0.249E+02   -.905E+00 -.462E+00 0.133E+01   -.493E-03 -.174E-03 0.148E-03
[...]
   -.819E+01 -.383E+02 0.106E+02   0.853E+01 0.390E+02 -.105E+02   -.392E-01 -.104E+00 0.719E+00   0.810E-03 -.900E-04 -.522E-04
   -.427E+01 0.180E+02 0.141E+02   0.466E+01 -.189E+02 -.139E+02   0.136E+00 0.704E+00 0.184E+00   0.836E-04 -.121E-03 -.149E-03
   -.240E+01 -.333E+02 -.783E+01   0.224E+01 0.339E+02 0.738E+01   0.907E-01 -.339E+00 -.101E+01   0.826E-04 -.150E-03 0.330E-05
   -.672E+01 0.393E+02 -.898E+01   0.631E+01 -.396E+02 0.859E+01   -.276E+00 0.632E-01 -.466E+00   0.522E-03 0.538E-03 -.573E-04
   -.267E+01 -.128E+02 0.140E+02   0.253E+01 0.123E+02 -.148E+02   0.111E-01 0.171E+00 0.504E-01   -.864E-03 0.285E-04 -.287E-04
   0.262E+01 0.151E+02 -.451E+00   -.276E+01 -.153E+02 0.287E+00   0.525E-01 0.195E+00 0.161E+00   0.542E-03 -.224E-03 -.225E-04
   0.166E+01 0.132E+02 -.475E+01   -.168E+01 -.136E+02 0.602E+01   -.261E+00 0.275E+00 -.122E+00   -.355E-03 0.377E-03 0.636E-04
   -.102E+02 0.124E+02 0.198E+02   0.995E+01 -.129E+02 -.190E+02   0.160E+01 -.255E+01 -.170E+01   -.577E-03 -.101E-03 -.148E-03
   0.197E+01 -.229E+02 -.175E+02   -.176E+01 0.232E+02 0.172E+02   0.174E+00 -.208E+00 -.373E+00   0.154E-04 -.290E-03 0.228E-03
   0.938E+01 0.423E+02 -.278E+02   -.909E+01 -.426E+02 0.282E+02   -.583E+00 -.101E+01 0.138E+01   -.478E-03 0.131E-03 0.686E-05
   0.209E+01 -.149E+02 0.205E+02   -.249E+01 0.150E+02 -.206E+02   0.503E+00 -.678E+00 -.476E+00   0.898E-03 -.314E-03 -.542E-04
   -.324E+01 0.172E+02 0.796E+01   0.312E+01 -.171E+02 -.808E+01   0.334E+00 -.268E+00 0.182E+00   -.551E-03 -.292E-03 -.171E-03
   -.137E+01 0.425E+01 0.181E+02   0.135E+01 -.439E+01 -.181E+02   0.626E-01 0.485E+00 -.982E+00   0.229E-03 0.214E-03 0.172E-03
   0.524E+01 -.156E+02 0.195E+02   -.549E+01 0.155E+02 -.195E+02   0.218E+00 0.709E-01 0.830E+00   0.477E-03 -.289E-03 -.217E-03
   0.304E+01 -.593E+01 0.921E+00   0.218E-12 -.231E-13 -.380E-12   -.298E+01 0.613E+01 -.856E+00   -.927E-04 -.126E-02 0.247E-03

 POSITION                                       TOTAL-FORCE (eV/Angst)
      2.12426     14.18951      4.29359         0.381226     -0.011868      0.898039
     15.70177      1.30875      0.00000        -0.353629     -0.300131      1.406196
     12.98627      7.31977      0.85872        -0.138388     -0.041444     -0.197196
     10.27077     13.33079      1.71744        -0.175991     -0.330954      0.339934
      7.55526      2.16748      2.57615         0.136082      0.152013     -0.038964
      4.83976      8.17850      3.43487        -0.098895      0.225703      0.508790
      7.55526     14.18951      4.29359        -0.432712     -0.059774      0.885213
      4.83977      1.30875      0.00000        -0.447030      0.453781     -1.032264
      2.12427      7.31977      0.85872         0.320274     -0.003385     -0.681930
     15.70177     13.33079      1.71744        -0.346049     -0.102085      0.231928
     12.98626      2.16748      2.57615         0.072435      0.479309     -0.015354
     10.27076      8.17850      3.43487        -0.109965     -0.074700      0.503028
     12.98626     14.18951      4.29359        -0.448653      0.420254      0.558781
     10.27077      1.30875      0.00000        -0.194192      0.353571     -0.759468
      7.55527      7.31977      0.85872        -0.488493     -0.026918     -0.373547
      4.83977     13.33079      1.71744        -0.547773     -0.046037      0.127751
      2.12426      2.16748      2.57615         0.158493      0.382964      0.179483
     15.70176      8.17850      3.43487         0.364067     -0.202596      0.766182
      3.48201      9.89593      4.29359        -0.372704     -0.961055     -1.064022
      0.76652     14.18950      0.00000        -1.304769      1.400970      3.324852
     14.34402      3.02619      0.85872        -0.124709      0.031424     -0.192751
     11.62852      9.03721      1.71744         0.190099     -0.299987      0.176262
      8.91301     15.04823      2.57615         0.085888      0.107084      0.133882
      6.19751      3.88491      3.43487        -0.451044      0.083975      0.616763
      8.91301      9.89593      4.29359        -0.234539      0.341104      0.114601
      6.19752     14.18950      0.00000         1.137087      1.261169      2.144709
      3.48202      3.02619      0.85872        -0.091799      0.148314     -0.203425
      0.76652      9.03721      1.71744         0.249596      0.190781     -0.231228
     14.34402     15.04823      2.57615         0.180678      0.072668     -0.046992
     11.62852      3.88491      3.43487        -0.785189      0.021615      0.110992
     14.34401      9.89593      4.29359         0.526585     -0.482552      0.434376
     11.62852     14.18950      0.00000        -0.200862     -0.760764     -0.680336
      8.91302      3.02619      0.85872        -0.321399     -0.018776     -0.313392
      6.19752      9.03721      1.71744         0.002431     -0.251869      0.004933
      3.48201     15.04823      2.57615         0.172207     -0.035433      0.128260
      0.76651      3.88491      3.43487        -0.526662      0.088218      0.147399
      2.12426      5.60235      4.29359         0.768557     -0.039125     -2.147052
     15.70177      9.89592      0.00000         0.357856      3.540542      3.668354
     12.98627     15.90694      0.85872         0.373456     -0.028475     -0.798008
     10.27077      4.74362      1.71744        -0.031579     -0.134012     -0.146213
      7.55526     10.75464      2.57615        -0.260666      0.312918     -0.212342
      4.83977     16.76566      3.43487         0.130710     -0.073232      0.159377
      7.55526      5.60235      4.29359         0.227118      0.498689      0.722049
      4.83977      9.89592      0.00000        -0.261287      0.644484     -0.111985
      2.12427     15.90694      0.85872         0.493830      0.066724     -0.324309
     15.70177      4.74362      1.71744        -0.137086     -0.007757     -0.166072
     12.98626     10.75464      2.57615        -0.148260      0.165198      0.033433
     10.27077     16.76566      3.43487         0.293514     -0.141363      0.222038
     12.98626      5.60235      4.29359        -0.914800     -0.071215     -2.389046
     10.27077      9.89592      0.00000         0.093343      0.074280      0.465712
      7.55527     15.90694      0.85872         0.774796     -0.045063     -0.239165
      4.83977      4.74362      1.71744        -0.187871     -0.101248      0.008731
      2.12426     10.75464      2.57615        -0.275109     -0.245655      0.204747
     15.70177     16.76566      3.43487         0.043448     -0.220778      0.174913
      3.48201      1.30877      4.29359         0.384056      0.591219     -2.980086
      0.76652      5.60233      0.00000        -0.217090     -0.200571     -0.735711
     14.34402     11.61335      0.85872         0.039586      0.196618     -0.921444
     11.62852      0.45004      1.71744        -0.094702     -0.164402      0.042801
      8.91301      6.46106      2.57615         0.297043      0.340246     -0.349422
      6.19751     12.47208      3.43487        -0.040083      0.108567      0.011538
[...]
      3.41394      4.55613      7.68136         0.123869      0.384501      0.531658
     13.59707     15.05156      8.34813         0.300125      0.601368      0.806101
      7.48719      8.37264      9.01491         0.520434     -0.210571      0.435395
     15.63369     11.71211      5.68102        -0.069036      0.206549     -1.469983
      9.52381      5.03320      6.34780        -0.684507     -0.197978     -0.856563
      3.41394     15.52862      7.01458        -0.130221     -0.315294     -0.775200
     13.59707      8.84971      7.68136        -0.088565     -0.033124     -0.003953
      7.48719      2.17081      8.34813        -0.281921     -0.170312      1.148387
      1.37731     12.66623      9.01491         1.318686     -3.076541     -0.803683
      7.48719     11.71211      5.68102         0.387101      0.176426     -0.641855
      1.37731      5.03320      6.34780        -0.285210     -1.290329      1.813082
     11.56044     15.52862      7.01458         0.110381     -0.573771     -0.570185
      5.45057      8.84972      7.68136         0.215383     -0.216751      0.056760
     15.63369      2.17081      8.34813         0.035227      0.347189     -1.020308
      9.52381     12.66623      9.01491        -0.031986     -0.033976      0.797643
    total drift:                                0.058089      0.200541      0.065428

  FREE ENERGIE OF THE ION-ELECTRON SYSTEM (eV)
  free  energy   TOTEN  =      -539.32312230 eV

  energy  without entropy=     -539.32010474  energy(sigma->0) =     -539.32161352