 vasp.6.4.3 19Mar24 (build Oct 22 2024 11:23:12) complex

 executed on             LinuxIFC date 2025.06.08  17:38:14

 INCAR:
   SYSTEM = Si and Ge interface calculation
   ISTART = 0
   ICHARG = 2
   LWAVE = .FALSE.
   LREAL = AUTO
   ENCUT = 700
   ENAUG = 900
   ADDGRID = .TRUE.
   LMAXMIX = 6
   LASPH = .TRUE.
   LMIXTAU = .TRUE.
   NCORE = 16
   NELM = 100
   NBANDS = 346
   EDIFF = 1d-7
   AMIX = 0.6
   ISMEAR = 0
   SIGMA = 0.01
   NELECT = 576
   ISPIN = 2
   NUPDOWN = 1
   LVTOT = .FALSE.
   LVHAR = .TRUE.

 POTCAR:    PAW_PBE Si 05Jan2001
|           W    W    AA    RRRRR   N    N  II  N    N   GGGG   !!!           |
|           W    W   A  A   R    R  NN   N  II  NN   N  G    G  !!!           |
|           W    W  A    A  R    R  N N  N  II  N N  N  G       !!!           |
|           W WW W  AAAAAA  RRRRR   N  N N  II  N  N N  G  GGG   !            |
|           WW  WW  A    A  R   R   N   NN  II  N   NN  G    G                |
|           W    W  A    A  R    R  N    N  II  N    N   GGGG   !!!           |
|     You use a magnetic or noncollinear calculation, but did not specify     |
|     the initial magnetic moment with the MAGMOM tag. Note that a            |
|     default of 6.944e-3 will be used for all atoms. This ferromagnetic      |
|     setup may break the symmetry of the crystal, in particular it may       |
|     rule out finding an antiferromagnetic solution. Thence, we              |
|     recommend setting the initial magnetic moment manually or verifying     |
|     carefully that this magnetic setup is desired.                          |

 POTCAR:    PAW_PBE Si 05Jan2001
   VRHFIN =Si: s2p2

   TITEL  = PAW_PBE Si 05Jan2001
   POMASS =   28.085; ZVAL   =    4.000    mass and valenz
   ENMAX  =  245.345; ENMIN  =  184.009 eV

 Optimization of the real space projectors (new method)

 maximal supplied QI-value         = 19.84
 optimisation between [QCUT,QGAM] = [ 13.49, 26.99] = [ 50.98,203.92] Ry
 Optimized for a Real-space Cutoff    1.07 Angstroem

   l    n(q)    QCUT    max X(q) W(low)/X(q) W(high)/X(q)  e(spline)
   0      9    13.493   159.560    0.22E-03    0.15E-03    0.72E-07
   0      9    13.493   115.863    0.21E-03    0.15E-03    0.71E-07
   1      8    13.493    88.339    0.15E-03    0.11E-03    0.13E-06
   1      8    13.493    48.592    0.15E-03    0.10E-03    0.13E-06
  PAW_PBE Si 05Jan2001                  :

 POSCAR: Si+Si
  positions in direct lattice

 exchange-correlation table for PE
   RHO(1)=    0.500       N(1)  =     2000
   RHO(2)=  100.500       N(2)  =     4000

 ion  position               nearest neighbor table
   1  0.979  0.979  0.000- 138 1.40  83 1.95  49 2.35  62 2.35  55 2.35 137 2.84 102 3.15 108 3.15

   2  0.729  0.729  0.100- 108 1.95  50 2.35  56 2.35  63 2.35  49 2.35 126 2.84
   3  0.479  0.479  0.200-  51 2.35  64 2.35  57 2.35  50 2.35
   4  0.229  0.229  0.300-  52 2.35  65 2.35  58 2.35  51 2.35
   5  0.979  0.979  0.400-  85 1.95  53 2.35  59 2.35  66 2.35  52 2.35 139 2.84
   6  0.729  0.729  0.500- 127 1.40  92 1.95  54 2.35  60 2.35  53 2.35 110 2.84  97 3.15  91 3.15

[...]

  49  0.729  0.812  0.000- 108 1.05 138 1.33   1 2.35  31 2.35   2 2.35 143 2.80  84 2.93 126 3.01
                            83 3.12
  50  0.479  0.562  0.100-   2 2.35  32 2.35  25 2.35   3 2.35 114 2.80 108 3.12
  51  0.229  0.312  0.200-   3 2.35  33 2.35  26 2.35   4 2.35
  52  0.979  0.062  0.300-   4 2.35  27 2.35  34 2.35   5 2.35
  53  0.729  0.812  0.400-   5 2.35  28 2.35  35 2.35   6 2.35 127 2.80  85 3.12
  54  0.479  0.562  0.500-  97 1.05 127 1.33   6 2.35  36 2.35  29 2.35 116 2.80  73 2.93 115 3.01
                            92 3.12
  55  0.229  0.979  0.000- 102 1.40 137 1.95   1 2.35  19 2.35  20 2.35 107 2.84 120 3.15 126 3.15

[...]

  79  0.631  0.326  0.500-  18 0.96  48 1.40 115 2.35 134 2.35 133 2.35  72 2.78  47 2.84  23 3.09
                            30 3.15
  80  0.214  0.243  0.600-  30 1.95 121 2.35 135 2.35 116 2.35 134 2.35  66 3.12
  81  0.798  0.160  0.700- 135 2.35 136 2.35 122 2.35 117 2.35
  82  0.381  0.076  0.800- 118 2.35 136 2.35 123 2.35 137 2.35
  83  0.964  0.993  0.900-   1 1.95 137 2.35 124 2.35 119 2.35 138 2.35  49 3.12
  84  0.548  0.910  0.000-  31 1.33  38 2.00 125 2.35 120 2.35 138 2.35   8 2.80  49 2.93
  85  0.964  0.993  0.500-  66 1.05   5 1.95 121 2.35 140 2.35 139 2.35  12 3.01  53 3.12  30 3.15

[...]

 109  0.381  0.826  0.500-  42 0.96  35 2.20  24 2.28  86 2.35  91 2.35  73 2.35  71 3.09  60 3.15

[...]

 121  0.048  0.160  0.500-  66 1.33  30 1.40  80 2.35 103 2.35  85 2.35  12 2.45  65 2.80
 122  0.631  0.076  0.600-  12 2.20 104 2.35  86 2.35  81 2.35 103 2.35  42 3.09
 123  0.214  0.993  0.700- 104 2.35 105 2.35  87 2.35  82 2.35
 124  0.798  0.910  0.800- 106 2.35  88 2.35  83 2.35 105 2.35
 125  0.381  0.826  0.900-  31 2.20 107 2.35  84 2.35  89 2.35 106 2.35  67 3.09
 126  0.964  0.743  0.000-  13 1.67  56 1.95  90 2.35 108 2.35 107 2.35   2 2.84  20 2.98  49 3.01
                            55 3.15
 127  0.548  0.660  0.500-  54 1.33   6 1.40  92 2.35  97 2.35  73 2.35  36 2.45  53 2.80
 128  0.131  0.576  0.600-  36 2.20  93 2.35  73 2.35  98 2.35  74 2.35  72 3.09
 129  0.714  0.493  0.700-  94 2.35  99 2.35  74 2.35  75 2.35
 130  0.298  0.410  0.800-  95 2.35  75 2.35 100 2.35  76 2.35
 131  0.881  0.326  0.900-   7 2.20  96 2.35 101 2.35  77 2.35  76 2.35  37 3.09
 132  0.464  0.243  0.000-  19 1.67  44 1.95 102 2.35  77 2.35  78 2.35  26 2.84  14 2.98  61 3.01
                            43 3.15
 133  0.881  0.326  0.500-  72 0.96  11 2.20  18 2.28  98 2.35 103 2.35  79 2.35  41 3.09  48 3.15

 134  0.464  0.243  0.600-  48 1.95  99 2.35 104 2.35  79 2.35  80 2.35  30 2.84  18 2.98
 135  0.048  0.160  0.700-  80 2.35 105 2.35  81 2.35 100 2.35
 136  0.631  0.076  0.800- 101 2.35 106 2.35  81 2.35  82 2.35
 137  0.214  0.993  0.900-  55 1.95  83 2.35 107 2.35 102 2.35  82 2.35   1 2.84  19 2.98
 138  0.798  0.910  0.000-  49 1.33   1 1.40 108 2.35  84 2.35  83 2.35  31 2.45  62 2.80
 139  0.214  0.993  0.500-  24 1.67  59 1.95 104 2.35  91 2.35  85 2.35   5 2.84  23 2.98  66 3.01
                            48 3.15
 140  0.798  0.910  0.600-  92 2.35 105 2.35  85 2.35  86 2.35  66 2.80
 141  0.381  0.826  0.700-  93 2.35  86 2.35 106 2.35  87 2.35
 142  0.964  0.743  0.800-  94 2.35 107 2.35  87 2.35  88 2.35
 143  0.548  0.660  0.900-  95 2.35 108 2.35  88 2.35  89 2.35  49 2.80
 144  0.131  0.576  0.000-  67 0.96  32 2.20  13 2.28  96 2.35  89 2.35  90 2.35  68 3.09  43 3.15

  LATTYP: Found a simple orthorhombic cell.
 ALAT       =     9.4067678450
 B/A-ratio  =     1.4142136768
 C/A-ratio  =     2.0412420843

  Lattice vectors:

 A1 = (   9.4067678450,   0.0000000000,   0.0000000000)
 A2 = (  -0.0000009540,  13.3031797410,   0.0000000000)
 A3 = (   0.0000000000,   0.0000000000,  19.2014904020)

Analysis of symmetry for initial positions (statically):
 Subroutine PRICEL returns following result:

[...]

   2 primitive cells build up your supercell.

 Routine SETGRP: Setting up the symmetry group for a
 simple orthorhombic supercell.

 Subroutine GETGRP returns: Found  2 space group operations
 (whereof  1 operations were pure point group operations)
 out of a pool of  8 trial point group operations.

The static configuration has the point symmetry C_1 .
 The point group associated with its full space group is C_1h.

Analysis of symmetry for dynamics (positions and initial velocities):
 Subroutine PRICEL returns following result:

[...]

The dynamic configuration has the point symmetry C_1 .
 The point group associated with its full space group is C_1h.

Analysis of structural, dynamic, and magnetic symmetry:
 Subroutine PRICEL returns following result:

  LATTYP: Found a simple orthorhombic cell.
 ALAT       =     6.6515902696
 B/A-ratio  =     1.4142132782
 C/A-ratio  =     2.8867518328

  Lattice vectors:

 A1 = (  -0.0000007592,   6.6515902696,   0.0000000000)
 A2 = (  -9.4067672806,  -0.0000007982,   0.0000000000)
 A3 = (   0.0000000000,   0.0000000000,  19.2014904020)

   2 primitive cells build up your supercell.

 Routine SETGRP: Setting up the symmetry group for a
 simple orthorhombic supercell.

 Subroutine GETGRP returns: Found  2 space group operations
 (whereof  1 operations were pure point group operations)
 out of a pool of  8 trial point group operations.

The overall configuration has the point symmetry C_1 .
 The point group associated with its full space group is C_1h.

 Subroutine INISYM returns: Found  2 space group operations
 (whereof  1 operations are pure point group operations),
 and found     2 'primitive' translations

                                     Primitive cell

  volume of cell :    1201.4365

  direct lattice vectors                    reciprocal lattice vectors
    -0.000000759  6.651590270  0.000000000    -0.000000013  0.150339988  0.000000000
    -9.406767281 -0.000000798  0.000000000    -0.106306446 -0.000000012  0.000000000
     0.000000000  0.000000000 19.201490402     0.000000000  0.000000000  0.052079291

  length of vectors
     6.651590270  9.406767281 19.201490402     0.150339988  0.106306446  0.052079291

  position of ions in fractional coordinates (direct lattice)
     0.957034471  0.999999941  0.000000002
     0.457034441  0.999999971  0.099999987
     0.957034233  0.999999882  0.199999973
     0.457034085  0.999999867  0.299999982
     0.957033755  0.999999821  0.399999946
     0.457033845  0.999999926  0.500000000
     0.623701157  0.333333284  0.000000002
     0.123701045  0.333333288  0.099999987
     0.623700979  0.333333255  0.199999973
     0.123700897  0.333333273  0.299999952
     0.623700501  0.333333194  0.399999946
     0.123700413  0.333333150  0.500000000
     0.290367963  0.666666687  0.000000002
     0.790367695  0.666666598  0.099999987
     0.290367487  0.666666509  0.199999973
     0.790367577  0.666666613  0.299999982
     0.290367247  0.666666567  0.399999946
     0.790367099  0.666666553  0.500000000
     0.290367845  0.416666568  0.000000000
     0.790367785  0.416666658  0.099999987
     0.290367695  0.416666672  0.199999973
     0.790367247  0.416666389  0.299999982
     0.290367159  0.416666404  0.399999946
     0.790367129  0.416666508  0.500000000
     0.957034561  0.749999986  0.000000001
     0.457034233  0.749999882  0.099999987
     0.957034323  0.749999897  0.199999973
     0.457033995  0.749999763  0.299999982
     0.957033845  0.749999807  0.399999946
     0.457033755  0.749999821  0.500000000
     0.623701367  0.083333329  0.000000000
     0.123700971  0.083333251  0.099999987
     0.623700889  0.083333269  0.199999973
     0.123700851  0.083333191  0.299999982
     0.623700651  0.083333150  0.399999946
     0.123700263  0.083333075  0.500000000
     0.319011414  0.361976904  0.500000000
     0.152344612  0.695310279  0.599999964
     0.985677722  0.028643610  0.699999988
     0.819011206  0.361977157  0.799999952
     0.652344210  0.695310465  0.899999976
     0.485677366  0.028644028  0.000000000
     0.652344926  0.695310346  0.500000000
     0.485678020  0.028643669  0.599999964
     0.319011116  0.361976933  0.699999988
[...]
     0.000000000  0.000000000 19.201490402     0.000000000  0.000000000  0.052079291

  length of vectors
     9.406767845 16.293001272 19.201490402     0.130198268  0.075169998  0.052079291

 FORCES acting on ions
    electron-ion (+dipol)            ewald-force                    non-local-force                 convergence-correction
   -.572E+02 -.720E+02 -.335E+02   0.662E+02 0.784E+02 0.314E+02   0.370E+02 0.326E+02 0.913E+01   -.220E-03 -.109E-03 0.144E-03
   0.323E+01 0.109E+02 -.105E+03   -.195E+01 -.121E+02 0.103E+03   -.105E+01 0.743E+00 0.805E+01   -.155E-03 0.698E-04 0.955E-04
   -.555E+00 -.161E+01 -.262E+02   0.756E+00 0.121E+01 0.264E+02   -.204E+00 0.234E+00 -.173E+00   -.926E-04 -.108E-04 0.463E-04
   -.555E+00 -.161E+01 0.262E+02   0.756E+00 0.121E+01 -.264E+02   -.204E+00 0.234E+00 0.173E+00   -.926E-04 -.130E-04 -.447E-04
   0.323E+01 0.109E+02 0.105E+03   -.195E+01 -.121E+02 -.103E+03   -.105E+01 0.743E+00 -.805E+01   -.155E-03 0.683E-04 -.941E-04
   -.572E+02 -.720E+02 0.335E+02   0.662E+02 0.784E+02 -.314E+02   0.370E+02 0.326E+02 -.913E+01   -.220E-03 -.105E-03 -.144E-03
   0.200E+01 0.800E+02 -.150E+02   0.311E+01 -.103E+03 0.140E+02   0.101E+02 -.507E+02 0.314E+01   0.208E-03 0.175E-03 0.137E-03
   -.175E+02 -.104E+02 -.851E+02   0.175E+02 0.978E+01 0.860E+02   0.956E+00 0.101E+01 0.572E+00   0.131E-03 -.736E-04 0.211E-03
   0.149E+01 0.109E+01 -.269E+02   -.100E+01 -.143E+01 0.273E+02   -.206E+00 0.173E+00 -.371E+00   0.471E-04 0.188E-04 0.453E-04
   0.149E+01 0.109E+01 0.269E+02   -.100E+01 -.143E+01 -.273E+02   -.206E+00 0.173E+00 0.371E+00   0.471E-04 0.213E-04 -.437E-04
   -.175E+02 -.104E+02 0.851E+02   0.175E+02 0.978E+01 -.860E+02   0.956E+00 0.101E+01 -.572E+00   0.131E-03 -.717E-04 -.209E-03
   0.200E+01 0.800E+02 0.150E+02   0.311E+01 -.103E+03 -.140E+02   0.101E+02 -.507E+02 -.314E+01   0.208E-03 0.171E-03 -.137E-03
   -.398E+02 -.636E+02 0.860E+01   0.779E+02 0.203E+03 -.966E+01   0.303E+02 0.270E+02 0.837E+00   0.124E-04 0.203E-03 0.138E-03
   -.619E+00 0.210E+01 -.618E+02   0.651E-01 -.307E+01 0.622E+02   0.310E+00 0.644E+00 0.271E+00   0.420E-04 -.233E-04 0.236E-03
   -.672E+00 -.817E+00 -.301E+02   0.266E+00 0.578E+00 0.301E+02   0.377E+00 0.940E-03 0.725E-01   0.375E-04 0.262E-05 0.117E-03
   -.672E+00 -.817E+00 0.301E+02   0.266E+00 0.578E+00 -.301E+02   0.377E+00 0.940E-03 -.725E-01   0.374E-04 0.234E-05 -.114E-03
   -.619E+00 0.210E+01 0.618E+02   0.653E-01 -.307E+01 -.622E+02   0.310E+00 0.644E+00 -.271E+00   0.420E-04 -.238E-04 -.235E-03
   -.398E+02 -.636E+02 -.860E+01   0.779E+02 0.203E+03 0.966E+01   0.303E+02 0.270E+02 -.837E+00   0.124E-04 0.204E-03 -.138E-03
   -.398E+02 -.636E+02 0.860E+01   0.779E+02 0.203E+03 -.966E+01   0.303E+02 0.270E+02 0.837E+00   0.124E-04 0.202E-03 0.138E-03
   -.619E+00 0.210E+01 -.618E+02   0.652E-01 -.307E+01 0.622E+02   0.310E+00 0.644E+00 0.271E+00   0.420E-04 -.272E-04 0.236E-03
   -.672E+00 -.817E+00 -.301E+02   0.266E+00 0.578E+00 0.301E+02   0.377E+00 0.940E-03 0.725E-01   0.374E-04 0.442E-05 0.116E-03
   -.672E+00 -.817E+00 0.301E+02   0.266E+00 0.578E+00 -.301E+02   0.377E+00 0.940E-03 -.725E-01   0.374E-04 0.469E-05 -.115E-03
   -.619E+00 0.210E+01 0.618E+02   0.652E-01 -.307E+01 -.622E+02   0.310E+00 0.644E+00 -.271E+00   0.421E-04 -.268E-04 -.235E-03
   -.398E+02 -.636E+02 -.860E+01   0.779E+02 0.203E+03 0.966E+01   0.303E+02 0.270E+02 -.837E+00   0.124E-04 0.201E-03 -.137E-03
   -.572E+02 -.720E+02 -.335E+02   0.662E+02 0.784E+02 0.314E+02   0.370E+02 0.326E+02 0.913E+01   -.220E-03 -.104E-03 0.144E-03
   0.323E+01 0.109E+02 -.105E+03   -.195E+01 -.121E+02 0.103E+03   -.105E+01 0.743E+00 0.805E+01   -.155E-03 0.704E-04 0.964E-04
   -.555E+00 -.161E+01 -.262E+02   0.756E+00 0.121E+01 0.264E+02   -.204E+00 0.234E+00 -.173E+00   -.926E-04 -.143E-04 0.471E-04
   -.555E+00 -.161E+01 0.262E+02   0.756E+00 0.121E+01 -.264E+02   -.204E+00 0.234E+00 0.173E+00   -.926E-04 -.121E-04 -.447E-04
   0.323E+01 0.109E+02 0.105E+03   -.195E+01 -.121E+02 -.103E+03   -.105E+01 0.743E+00 -.805E+01   -.155E-03 0.718E-04 -.947E-04
   -.572E+02 -.720E+02 0.335E+02   0.662E+02 0.784E+02 -.314E+02   0.370E+02 0.326E+02 -.913E+01   -.220E-03 -.107E-03 -.144E-03
   0.200E+01 0.800E+02 -.150E+02   0.311E+01 -.103E+03 0.140E+02   0.101E+02 -.507E+02 0.314E+01   0.208E-03 0.171E-03 0.137E-03
   -.175E+02 -.104E+02 -.851E+02   0.175E+02 0.978E+01 0.860E+02   0.956E+00 0.101E+01 0.572E+00   0.131E-03 -.703E-04 0.210E-03
   0.149E+01 0.109E+01 -.269E+02   -.100E+01 -.143E+01 0.273E+02   -.206E+00 0.173E+00 -.371E+00   0.471E-04 0.205E-04 0.454E-04
   0.149E+01 0.109E+01 0.269E+02   -.100E+01 -.143E+01 -.273E+02   -.206E+00 0.173E+00 0.371E+00   0.471E-04 0.181E-04 -.430E-04
   -.175E+02 -.104E+02 0.851E+02   0.175E+02 0.978E+01 -.860E+02   0.956E+00 0.101E+01 -.572E+00   0.131E-03 -.721E-04 -.208E-03
   0.200E+01 0.800E+02 0.150E+02   0.311E+01 -.103E+03 -.140E+02   0.101E+02 -.507E+02 -.314E+01   0.208E-03 0.175E-03 -.136E-03
   -.362E+02 -.782E+02 -.267E+02   0.788E+02 0.217E+03 0.233E+02   0.114E+02 0.434E+02 0.948E+01   0.300E-03 0.128E-03 0.145E-03
   0.146E+02 0.141E+02 -.955E+02   -.154E+02 -.122E+02 0.953E+02   -.115E+01 -.263E+01 0.576E+01   0.171E-03 -.353E-04 0.964E-04
   -.118E+01 -.148E+01 -.276E+02   0.108E+01 0.141E+01 0.275E+02   -.124E+00 0.226E+00 0.191E+00   0.744E-04 0.710E-06 0.102E-03
   -.118E+01 -.147E+01 0.276E+02   0.108E+01 0.141E+01 -.275E+02   -.124E+00 0.226E+00 -.191E+00   0.744E-04 0.981E-06 -.101E-03
   0.146E+02 0.141E+02 0.955E+02   -.154E+02 -.122E+02 -.953E+02   -.115E+01 -.263E+01 -.576E+01   0.171E-03 -.348E-04 -.949E-04
   -.362E+02 -.782E+02 0.267E+02   0.788E+02 0.217E+03 -.233E+02   0.114E+02 0.434E+02 -.948E+01   0.300E-03 0.127E-03 -.144E-03
   0.213E+02 0.100E+03 -.314E+02   -.260E+02 -.107E+03 0.314E+02   -.167E+02 -.521E+02 0.756E+01   -.179E-03 -.276E-03 0.166E-03
   -.985E+01 -.563E+01 -.106E+03   0.865E+01 0.741E+01 0.103E+03   0.214E+01 -.167E+01 0.103E+02   -.715E-04 0.890E-04 0.295E-03
   0.115E+01 0.135E+01 -.266E+02   -.670E+00 -.127E+01 0.264E+02   -.357E+00 0.948E-01 0.157E+00   0.425E-05 -.151E-04 0.882E-04
   0.115E+01 0.135E+01 0.266E+02   -.670E+00 -.127E+01 -.264E+02   -.357E+00 0.948E-01 -.157E+00   0.424E-05 -.129E-04 -.858E-04
   -.985E+01 -.563E+01 0.106E+03   0.865E+01 0.741E+01 -.103E+03   0.214E+01 -.167E+01 -.103E+02   -.715E-04 0.904E-04 -.293E-03
   0.213E+02 0.100E+03 0.314E+02   -.260E+02 -.107E+03 -.314E+02   -.167E+02 -.521E+02 -.756E+01   -.179E-03 -.279E-03 -.166E-03
   0.124E+02 0.275E+02 0.915E+01   -.613E+02 0.440E+02 -.870E+01   -.694E+01 -.152E+02 0.119E+01   -.175E-03 0.460E-04 0.134E-03
   -.974E+00 -.497E+01 -.622E+02   0.102E+01 0.578E+01 0.632E+02   0.271E-01 -.455E+00 -.574E+00   -.853E-04 -.429E-04 0.118E-03
   0.329E+00 0.321E+00 -.307E+02   -.228E+00 -.484E+00 0.302E+02   -.420E+00 0.332E+00 0.513E+00   -.742E-04 0.962E-05 0.238E-04
   0.329E+00 0.321E+00 0.307E+02   -.228E+00 -.484E+00 -.302E+02   -.420E+00 0.332E+00 -.513E+00   -.742E-04 0.717E-05 -.214E-04
   -.974E+00 -.497E+01 0.622E+02   0.102E+01 0.578E+01 -.632E+02   0.271E-01 -.455E+00 0.574E+00   -.853E-04 -.447E-04 -.117E-03
   0.124E+02 0.275E+02 -.915E+01   -.613E+02 0.440E+02 0.870E+01   -.694E+01 -.152E+02 -.119E+01   -.175E-03 0.499E-04 -.134E-03
   0.213E+02 0.100E+03 -.314E+02   -.260E+02 -.107E+03 0.314E+02   -.167E+02 -.521E+02 0.756E+01   -.179E-03 -.281E-03 0.166E-03
   -.985E+01 -.563E+01 -.106E+03   0.865E+01 0.741E+01 0.103E+03   0.214E+01 -.167E+01 0.103E+02   -.715E-04 0.884E-04 0.294E-03
   0.115E+01 0.135E+01 -.266E+02   -.670E+00 -.127E+01 0.264E+02   -.357E+00 0.948E-01 0.157E+00   0.425E-05 -.116E-04 0.874E-04
   0.115E+01 0.135E+01 0.266E+02   -.670E+00 -.127E+01 -.264E+02   -.357E+00 0.948E-01 -.157E+00   0.427E-05 -.138E-04 -.858E-04
   -.985E+01 -.563E+01 0.106E+03   0.865E+01 0.741E+01 -.103E+03   0.214E+01 -.167E+01 -.103E+02   -.715E-04 0.869E-04 -.293E-03
   0.213E+02 0.100E+03 0.314E+02   -.260E+02 -.107E+03 -.314E+02   -.167E+02 -.521E+02 -.756E+01   -.179E-03 -.278E-03 -.165E-03
[...]
   0.166E+02 -.125E+02 0.806E+02   -.176E+02 0.114E+02 -.820E+02   -.696E+00 0.155E+01 -.604E+00   0.171E-03 0.366E-04 0.712E-04
   0.311E+02 -.634E+02 0.353E+02   -.282E+02 0.603E+02 -.336E+02   -.166E+02 0.197E+02 -.953E+01   -.233E-03 0.229E-03 0.120E-03
   0.370E+01 0.823E+02 -.118E+02   -.418E+02 -.223E+03 0.100E+02   -.157E+02 -.420E+02 0.429E+01   0.311E-03 -.123E-03 -.152E-03
   -.266E-01 0.222E+01 -.107E+03   -.583E+00 -.330E+01 0.106E+03   0.137E-01 0.149E+01 0.928E+01   -.106E-03 -.871E-04 0.106E-03
   0.521E+00 -.140E+01 -.295E+02   -.632E+00 0.101E+01 0.297E+02   -.836E-01 0.131E+00 -.195E+00   -.558E-04 -.174E-04 -.400E-04
   -.153E+01 0.151E+01 0.283E+02   0.103E+01 -.147E+01 -.282E+02   0.196E+00 -.182E+00 -.177E+00   0.651E-04 -.760E-05 -.532E-04
   -.265E-01 0.222E+01 0.107E+03   -.583E+00 -.330E+01 -.106E+03   0.137E-01 0.149E+01 -.928E+01   -.106E-03 -.894E-04 -.107E-03
   0.652E+02 -.565E+02 -.665E+01   -.771E+02 0.660E+02 0.784E+01   -.494E+02 0.260E+02 -.150E+01   -.156E-03 -.961E-04 0.138E-03
   0.311E+02 -.634E+02 -.353E+02   -.282E+02 0.603E+02 0.336E+02   -.166E+02 0.197E+02 0.953E+01   -.233E-03 0.226E-03 -.119E-03
   -.277E+01 0.830E+01 -.623E+02   0.260E+01 -.951E+01 0.641E+02   0.313E+00 0.104E+01 -.908E+00   -.484E-04 0.650E-04 -.940E-04
   -.153E+01 0.151E+01 -.283E+02   0.103E+01 -.147E+01 0.282E+02   0.196E+00 -.182E+00 0.177E+00   0.651E-04 -.657E-05 0.501E-04
   0.741E+00 -.835E+00 0.261E+02   -.420E+00 0.812E+00 -.259E+02   -.229E+00 -.125E+00 -.234E+00   -.184E-04 0.891E-05 -.314E-04
   -.277E+01 0.830E+01 0.623E+02   0.260E+01 -.951E+01 -.641E+02   0.313E+00 0.104E+01 0.908E+00   -.484E-04 0.678E-04 0.925E-04
   0.370E+01 0.823E+02 0.118E+02   -.418E+02 -.223E+03 -.100E+02   -.157E+02 -.420E+02 -.429E+01   0.311E-03 -.122E-03 0.152E-03
   0.276E+02 -.667E+01 0.139E-02   -.995E-13 0.171E-12 0.860E-12   -.277E+02 0.661E+01 0.266E-14   -.485E-03 -.101E-03 0.542E-05

 POSITION                                       TOTAL-FORCE (eV/Angst)
     -0.00000     13.01739      0.00000        45.958474     39.028733      6.999203
     -0.00000      9.69159      1.92015         0.232912     -0.468612      6.789067
      0.00000      6.36580      3.84030        -0.002824     -0.158690      0.004264
      0.00000      3.04000      5.76045        -0.002824     -0.158690     -0.004264
      0.00000     13.01739      7.68060         0.232912     -0.468612     -6.789067
      0.00000      9.69159      9.60075        45.958474     39.028733     -6.999203
      6.27118      4.14861      0.00000        15.213064    -73.625308      2.217208
      6.27118      0.82281      1.92015         0.894962      0.427795      1.440878
     -3.13559     10.80019      3.84030         0.284257     -0.162075      0.084555
     -3.13559      7.47440      5.76045         0.284257     -0.162075     -0.084555
      6.27118      4.14860      7.68060         0.894962      0.427795     -1.440878
      6.27118      0.82280      9.60075        15.213064    -73.625308     -2.217208
      3.13559      8.58300      0.00000        68.424624    166.844927     -0.221780
      3.13559      5.25720      1.92015        -0.242967     -0.324908      0.725508
      3.13559      1.93141      3.84030        -0.027889     -0.236971      0.142621
     -6.27118     11.90879      5.76045        -0.027889     -0.236971     -0.142621
      3.13559      8.58299      7.68060        -0.242967     -0.324908     -0.725508
      3.13559      5.25720      9.60075        68.424624    166.844927      0.221780
      3.13559      1.93141      0.00000        68.424624    166.844927     -0.221780
     -6.27118     11.90879      1.92015        -0.242967     -0.324908      0.725508
      3.13559      8.58300      3.84030        -0.027889     -0.236971      0.142621
      3.13559      5.25720      5.76045        -0.027889     -0.236971     -0.142621
      3.13559      1.93140      7.68060        -0.242967     -0.324908     -0.725508
     -6.27118     11.90879      9.60075        68.424624    166.844927      0.221780
     -0.00000      6.36580      0.00000        45.958474     39.028733      6.999203
     -0.00000      3.04001      1.92015         0.232912     -0.468612      6.789067
     -0.00000     13.01739      3.84030        -0.002824     -0.158690      0.004264
     -0.00000      9.69159      5.76045        -0.002824     -0.158690     -0.004264
      0.00000      6.36580      7.68060         0.232912     -0.468612     -6.789067
      0.00000      3.04000      9.60075        45.958474     39.028733     -6.999203
     -3.13559     10.80020      0.00000        15.213064    -73.625308      2.217208
     -3.13559      7.47440      1.92015         0.894962      0.427795      1.440878
      6.27118      4.14860      3.84030         0.284257     -0.162075      0.084555
      6.27118      0.82281      5.76045         0.284257     -0.162075     -0.084555
     -3.13559     10.80019      7.68060         0.894962      0.427795     -1.440878
     -3.13559      7.47439      9.60075        15.213064    -73.625308     -2.217208
      5.48728      1.93141      0.00000        53.976693    182.563482      6.070128
     -3.91949     11.90879      1.92015        -1.963247     -0.806200      5.525065
     -3.91949      8.58300      3.84030        -0.219080      0.164869      0.033623
      5.48728      5.25720      5.76045        -0.219080      0.164869     -0.033623
      5.48728      1.93140      7.68060        -1.963247     -0.806200     -5.525065
     -3.91949     11.90879      9.60074        53.976693    182.563482     -6.070128
      2.35169      6.36580      0.00000       -21.299909    -58.522851      7.510177
      2.35169      3.04001      1.92015         0.938213      0.101376      7.596310
     -7.05508     13.01739      3.84030         0.127018      0.168160      0.000525
      2.35169      9.69159      5.76045         0.127018      0.168160     -0.000525
      2.35169      6.36580      7.68060         0.938213      0.101376     -7.596310
      2.35169      3.04000      9.60074       -21.299909    -58.522851     -7.510177
     -0.78390     10.80020      0.00000       -55.818588     56.300876      1.644504
     -0.78390      7.47440      1.92015         0.070033      0.354383      0.407274
     -0.78390      4.14860      3.84030        -0.318935      0.170016      0.015859
      8.62287      0.82281      5.76045        -0.318935      0.170016     -0.015859
     -0.78390     10.80019      7.68060         0.070033      0.354383     -0.407274
     -0.78390      7.47440      9.60074       -55.818588     56.300876     -1.644504
     -7.05508     13.01739      0.00000       -21.299909    -58.522851      7.510177
      2.35169      9.69159      1.92015         0.938213      0.101376      7.596310
      2.35169      6.36580      3.84030         0.127018      0.168160      0.000525
      2.35169      3.04000      5.76045         0.127018      0.168160     -0.000525
     -7.05508     13.01739      7.68060         0.938213      0.101376     -7.596310
      2.35169      9.69159      9.60075       -21.299909    -58.522851     -7.510177
[...]
     -1.05334      5.44773     15.36119        -0.194231     -0.263760     -0.004873
      5.21784      4.33913     17.28134        -1.697495      0.413769     -1.940360
      2.08225      3.23053      0.00000       -13.728135     16.586977     -7.789976
      5.21784      4.33913      9.60075       -53.889681   -182.477494      2.550796
      2.08225      3.23053     11.52089        -0.595127      0.414937      7.694156
     -1.05334      2.12193     13.44104        -0.194231     -0.263760      0.004873
      5.21784      1.01333     15.36119        -0.305069     -0.150017     -0.118548
     -7.32452     13.20791     17.28134        -0.595127      0.414937     -7.694156
     -1.05334     12.09931      0.00000       -61.326283     35.499158     -0.308714
     -7.32452     13.20792      9.60075       -13.728135     16.586977      7.789976
     -1.05334     12.09932     11.52089         0.141474     -0.162360      0.821682
     -4.18893     10.99072     13.44104        -0.305069     -0.150017      0.118548
      2.08225      9.88212     15.36119         0.091892     -0.148643     -0.060043
     -1.05334      8.77352     17.28134         0.141474     -0.162360     -0.821682
     -4.18893      7.66492      0.00000       -53.889681   -182.477494     -2.550796
    total drift:                               -0.062143     -0.061293      0.001393

  FREE ENERGIE OF THE ION-ELECTRON SYSTEM (eV)
  free  energy   TOTEN  =       381.64759992 eV

  energy  without entropy=      381.65164194  energy(sigma->0) =      381.64962093