 vasp.6.4.3 19Mar24 (build Oct 22 2024 11:23:12) complex

 executed on             LinuxIFC date 2025.06.09  04:26:49

 INCAR:
   SYSTEM = Si and Ge interface calculation
   ISTART = 0
   ICHARG = 2
   LWAVE = .FALSE.
   LREAL = AUTO
   ENCUT = 700
   ENAUG = 900
   ADDGRID = .TRUE.
   LMAXMIX = 6
   LASPH = .TRUE.
   LMIXTAU = .TRUE.
   NCORE = 16
   NELM = 100
   NBANDS = 404
   EDIFF = 1d-7
   AMIX = 0.6
   ISMEAR = 0
   SIGMA = 0.01
   NELECT = 672
   ISPIN = 2
   NUPDOWN = 1
   LVTOT = .FALSE.
   LVHAR = .TRUE.

 POTCAR:    PAW_PBE Sn 08Apr2002
 POTCAR:    PAW_PBE Ge 05Jan2001
|           W    W    AA    RRRRR   N    N  II  N    N   GGGG   !!!           |
|           W    W   A  A   R    R  NN   N  II  NN   N  G    G  !!!           |
|           W    W  A    A  R    R  N N  N  II  N N  N  G       !!!           |
|           W WW W  AAAAAA  RRRRR   N  N N  II  N  N N  G  GGG   !            |
|           WW  WW  A    A  R   R   N   NN  II  N   NN  G    G                |
|           W    W  A    A  R    R  N    N  II  N    N   GGGG   !!!           |
|     You use a magnetic or noncollinear calculation, but did not specify     |
|     the initial magnetic moment with the MAGMOM tag. Note that a            |
|     default of 5.952e-3 will be used for all atoms. This ferromagnetic      |
|     setup may break the symmetry of the crystal, in particular it may       |
|     rule out finding an antiferromagnetic solution. Thence, we              |
|     recommend setting the initial magnetic moment manually or verifying     |
|     carefully that this magnetic setup is desired.                          |

 POTCAR:    PAW_PBE Sn 08Apr2002
   VRHFIN =Sn: s2p2

   TITEL  = PAW_PBE Sn 08Apr2002
   POMASS =  118.710; ZVAL   =    4.000    mass and valenz
   ENMAX  =  103.236; ENMIN  =   77.427 eV

 POTCAR:    PAW_PBE Ge 05Jan2001
   VRHFIN =Ge: s2p2

   TITEL  = PAW_PBE Ge 05Jan2001
   POMASS =   72.610; ZVAL   =    4.000    mass and valenz
   ENMAX  =  173.807; ENMIN  =  130.355 eV

 Optimization of the real space projectors (new method)

 maximal supplied QI-value         = 12.47
 optimisation between [QCUT,QGAM] = [ 12.47, 27.06] = [ 43.56,205.12] Ry
 Optimized for a Real-space Cutoff    1.58 Angstroem

   l    n(q)    QCUT    max X(q) W(low)/X(q) W(high)/X(q)  e(spline)
   0     13    12.472    14.688    0.45E-04    0.45E-04    0.25E-05
   0     13    12.472     7.308    0.94E-04    0.11E-03    0.61E-05
   1     12    12.472    45.102    0.34E-03    0.14E-03    0.21E-05
   1     12    12.472    30.691    0.31E-03    0.13E-03    0.20E-05
   2     12    12.472     7.156    0.86E-04    0.11E-03    0.17E-05
 WARNING: PSMAXN for non-local potential too small
          PSMAXN should be >   13.5545592237991       NTYP=           1
 Optimization of the real space projectors (new method)

 maximal supplied QI-value         = 16.25
 optimisation between [QCUT,QGAM] = [ 13.49, 26.98] = [ 50.95,203.80] Ry
 Optimized for a Real-space Cutoff    1.25 Angstroem

   l    n(q)    QCUT    max X(q) W(low)/X(q) W(high)/X(q)  e(spline)
   0     10    13.489    65.336    0.91E-04    0.11E-03    0.34E-06
   0     10    13.489    52.220    0.89E-04    0.11E-03    0.34E-06
   1     10    13.489    36.409    0.22E-03    0.27E-03    0.14E-06
   1     10    13.489    21.334    0.21E-03    0.27E-03    0.14E-06
   2      9    13.489     4.673    0.11E-03    0.12E-03    0.19E-06
  PAW_PBE Sn 08Apr2002                  :
  PAW_PBE Ge 05Jan2001                  :

 POSCAR: Sn+Ge
  positions in direct lattice

 exchange-correlation table for PE
   RHO(1)=    0.500       N(1)  =     2000
   RHO(2)=  100.500       N(2)  =     4000

 ion  position               nearest neighbor table
   1  0.000  0.012  0.000-  96 0.28 129 2.19 108 2.52 156 2.63  34 2.81  46 2.81  64 2.81
   2  0.000  0.346  0.237-  35 2.81  47 2.81  65 2.81  10 2.81
   3  0.000  0.679  0.475- 145 1.48 115 2.37  48 2.81  36 2.81  66 2.81  11 2.81  85 2.96  73 3.00

   4  0.333  0.679  0.000-  78 0.86 162 2.11 120 2.24 141 2.56  67 2.81  28 2.81  49 2.81  92 3.28

[...]

   7  0.667  0.346  0.000- 135 2.03 153 2.26  99 2.38 111 2.38 159 2.50 123 2.69  70 2.81  31 2.81
                            52 2.81
   8  0.667  0.679  0.237-  71 2.81  16 2.81  32 2.81  53 2.81
   9  0.667  0.012  0.475- 130 1.59 166 2.09  17 2.81  72 2.81  33 2.81  54 2.81  82 2.89
  10  0.000  0.346  0.059- 165 1.80 105 2.05  93 2.63  61 2.81  37 2.81  19 2.81   2 2.81
  11  0.000  0.679  0.297-  62 2.81  20 2.81  38 2.81   3 2.81
  12  0.000  0.012  0.534-  76 0.28 160 2.26 118 2.38 139 2.69  63 2.81  21 2.81  39 2.81
  13  0.333  0.012  0.059- 144 1.70 150 2.33  90 2.76  22 2.81  55 2.81  40 2.81   5 2.81  75 3.02

[...]

  67  0.500  0.846  0.059- 162 1.80 102 2.05  90 2.63   4 2.81  22 2.81  59 2.81  43 2.81
  68  0.500  0.179  0.297-  60 2.81   5 2.81  23 2.81  44 2.81
  69  0.500  0.512  0.534-  79 0.28 163 2.26 109 2.38 136 2.69   6 2.81  45 2.81  24 2.81
  70  0.833  0.512  0.059- 135 1.70 153 2.33  93 2.76  37 2.81   7 2.81  25 2.81  62 2.81  84 3.02

  71  0.833  0.846  0.297-  38 2.81   8 2.81  63 2.81  26 2.81
  72  0.833  0.179  0.534- 148 2.11 142 2.19 106 2.24 118 2.52 130 2.56 166 2.63  39 2.81   9 2.81
                            27 2.81
  73  0.986  0.493  0.534-  48 0.28 142 2.44 115 2.44 157 2.44  27 2.56  57 2.89   3 3.00
  74  0.652  0.326  0.741- 116 2.44 143 2.44 158 2.44  94 2.45  18 3.28
  75  0.319  0.160  0.948-  40 0.86 144 2.44 117 2.44 159 2.44  95 2.45  13 3.02  64 3.13
  76  0.986  0.993  0.534-  12 0.28 118 2.44 160 2.44 139 2.44  63 2.56  21 2.89  39 3.00
  77  0.652  0.826  0.741- 119 2.44 161 2.44 140 2.44  91 2.45  54 3.28
  78  0.319  0.660  0.948-   4 0.86 120 2.44 141 2.44 162 2.44  92 2.45  49 3.02  28 3.13
  79  0.486  0.493  0.534-  69 0.28 136 2.44 109 2.44 163 2.44   6 2.56  45 2.89  24 3.00
  80  0.152  0.326  0.741- 137 2.44 110 2.44 164 2.44  88 2.45  30 3.28
  81  0.819  0.160  0.948-  61 0.86 138 2.44 111 2.44 165 2.44  89 2.45  34 3.02  52 3.13
  82  0.486  0.993  0.534-  33 0.28 112 2.44 166 2.44 133 2.44  42 2.56   9 2.89  60 3.00
  83  0.152  0.826  0.741- 113 2.44 167 2.44 134 2.44  85 2.45  66 3.28
  84  0.819  0.660  0.948-  25 0.86 114 2.44 135 2.44 168 2.44  86 2.45  70 3.02  16 3.13
  85  0.152  0.826  0.586-  66 0.86  97 2.44 145 2.44 124 2.44  83 2.45   3 2.96  42 3.25
  86  0.819  0.660  0.793-  98 2.44 146 2.44 125 2.44  84 2.45  25 3.28
  87  0.486  0.493  0.000-  58 0.28  99 2.44 147 2.44 126 2.44  31 2.63  49 2.76  16 3.07
  88  0.152  0.326  0.586-  30 0.86 148 2.44 100 2.44 121 2.44  80 2.45  39 2.96   6 3.25
  89  0.819  0.160  0.793- 122 2.44 101 2.44 149 2.44  81 2.45  61 3.28
  90  0.486  0.993  0.000-  22 0.28 102 2.44 123 2.44 150 2.44  67 2.63  13 2.76  52 3.07
  91  0.652  0.826  0.586-  54 0.86 151 2.44 103 2.44 130 2.44  77 2.45  24 2.96  63 3.25
  92  0.319  0.660  0.793- 104 2.44 152 2.44 131 2.44  78 2.45   4 3.28
  93  0.986  0.493  0.000-  37 0.28 105 2.44 153 2.44 132 2.44  10 2.63  70 2.76  28 3.07
  94  0.652  0.326  0.586-  18 0.86 154 2.44 127 2.44 106 2.44  74 2.45  60 2.96  27 3.25
  95  0.319  0.160  0.793- 128 2.44 107 2.44 155 2.44  75 2.45  40 3.28
  96  0.986  0.993  0.000-   1 0.28 108 2.44 129 2.44 156 2.44  46 2.63  34 2.76  64 3.07
  97  0.236  0.743  0.534-  42 1.85  15 2.24  66 2.38  85 2.44 133 2.44 157 2.44
  98  0.902  0.576  0.741-  86 2.44 134 2.44 158 2.44 115 2.45
  99  0.569  0.410  0.948-  31 2.05   7 2.38  87 2.44 159 2.44 135 2.44 116 2.45  58 2.52
 100  0.236  0.243  0.534-   6 1.85  51 2.24  30 2.38 136 2.44 160 2.44  88 2.44
 101  0.902  0.076  0.741- 161 2.44  89 2.44 137 2.44 118 2.45
 102  0.569  0.910  0.948-  67 2.05  43 2.38  90 2.44 162 2.44 138 2.44 119 2.45  22 2.52
 103  0.736  0.743  0.534-  63 1.85  36 2.24  54 2.38  91 2.44 163 2.44 139 2.44
 104  0.402  0.576  0.741-  92 2.44 164 2.44 140 2.44 109 2.45
 105  0.069  0.410  0.948-  10 2.05  19 2.38  93 2.44 165 2.44 141 2.44 110 2.45  37 2.52
 106  0.736  0.243  0.534-  27 1.85  72 2.24  18 2.38 166 2.44  94 2.44 142 2.44
 107  0.402  0.076  0.741- 167 2.44  95 2.44 143 2.44 112 2.45
 108  0.069  0.910  0.948-  46 2.05  55 2.38  96 2.44 168 2.44 144 2.44 113 2.45   1 2.52
 109  0.402  0.576  0.586-  24 2.37  69 2.38 121 2.44  79 2.44 151 2.44 104 2.45  15 2.52
 110  0.069  0.410  0.793- 122 2.44  80 2.44 152 2.44 105 2.45
 111  0.736  0.243  0.000-  52 1.41  61 2.24   7 2.38  81 2.44 153 2.44 123 2.44
 112  0.402  0.076  0.586-  60 2.37  33 2.38  82 2.44 124 2.44 154 2.44 107 2.45  51 2.52
 113  0.069  0.910  0.793- 125 2.44  83 2.44 155 2.44 108 2.45
 114  0.736  0.743  0.000-  16 1.41  25 2.24  43 2.38  84 2.44 156 2.44 126 2.44
 115  0.902  0.576  0.586-   3 2.37  48 2.38  73 2.44 127 2.44 145 2.44  98 2.45  36 2.52
 116  0.569  0.410  0.793-  74 2.44 146 2.44 128 2.44  99 2.45
 117  0.236  0.243  0.000-  64 1.41  40 2.24  19 2.38  75 2.44 147 2.44 129 2.44
 118  0.902  0.076  0.586-  39 2.37  12 2.38  76 2.44 148 2.44 130 2.44 101 2.45  72 2.52
 119  0.569  0.910  0.793-  77 2.44 149 2.44 131 2.44 102 2.45
 120  0.236  0.743  0.000-  28 1.41   4 2.24  55 2.38  78 2.44 150 2.44 132 2.44
 121  0.236  0.493  0.534-  57 1.59  30 2.03 157 2.44 109 2.44  88 2.44  15 2.56
 122  0.902  0.326  0.741- 158 2.44 110 2.44  89 2.44 142 2.45
 123  0.569  0.160  0.948-  22 2.19  52 2.26  90 2.44 159 2.44 111 2.44 143 2.45   7 2.69
 124  0.236  0.993  0.534-  21 1.59  66 2.03 160 2.44 112 2.44  85 2.44  51 2.56
 125  0.902  0.826  0.741- 161 2.44 113 2.44  86 2.44 139 2.45
 126  0.569  0.660  0.948-  58 2.19  16 2.26 162 2.44 114 2.44  87 2.44 140 2.45  43 2.69
 127  0.736  0.493  0.534-  45 1.59  18 2.03 163 2.44  94 2.44 115 2.44  36 2.56
 128  0.402  0.326  0.741- 164 2.44  95 2.44 116 2.44 136 2.45
 129  0.069  0.160  0.948-   1 2.19  64 2.26 165 2.44  96 2.44 117 2.44 137 2.45  19 2.69
 130  0.736  0.993  0.534-   9 1.59  54 2.03 166 2.44 118 2.44  91 2.44  72 2.56
 131  0.402  0.826  0.741- 167 2.44 119 2.44  92 2.44 133 2.45
 132  0.069  0.660  0.948-  37 2.19  28 2.26 168 2.44  93 2.44 120 2.44 134 2.45  55 2.69
[...]
 154  0.486  0.243  0.534-  60 1.48  51 2.11  94 2.44 112 2.44 136 2.44  18 2.50
 155  0.152  0.076  0.741- 113 2.44 137 2.44  95 2.44 160 2.45
 156  0.819  0.910  0.948-  43 2.26  34 2.33 138 2.44 114 2.44  96 2.44 161 2.45   1 2.63
 157  0.152  0.576  0.586-  57 2.09  48 2.26 121 2.44  73 2.44  97 2.44 152 2.45  15 2.63
 158  0.819  0.410  0.793- 122 2.44  98 2.44  74 2.44 153 2.45
 159  0.486  0.243  0.000-  31 1.80  40 2.11  99 2.44 123 2.44  75 2.44   7 2.50
 160  0.152  0.076  0.586-  21 2.09  12 2.26 124 2.44 100 2.44  76 2.44 155 2.45  51 2.63
 161  0.819  0.910  0.793- 101 2.44 125 2.44  77 2.44 156 2.45
 162  0.486  0.743  0.000-  67 1.80   4 2.11 126 2.44 102 2.44  78 2.44  43 2.50
 163  0.652  0.576  0.586-  45 2.09  69 2.26 127 2.44 103 2.44  79 2.44 146 2.45  36 2.63
 164  0.319  0.410  0.793- 128 2.44 104 2.44  80 2.44 147 2.45
 165  0.986  0.243  0.000-  10 1.80  61 2.11 129 2.44 105 2.44  81 2.44  19 2.50
 166  0.652  0.076  0.586-   9 2.09  33 2.26 130 2.44 106 2.44  82 2.44 149 2.45  72 2.63
 167  0.319  0.910  0.793- 107 2.44 131 2.44  83 2.44 150 2.45
[...]
     0.000000000  0.000000000 15.779419899     0.000000000  0.000000000  0.063373686

  length of vectors
    15.895228386 15.895229818 15.779419899     0.072644477  0.072644470  0.063373686

 FORCES acting on ions
    electron-ion (+dipol)            ewald-force                    non-local-force                 convergence-correction
   -.540E+01 -.142E+02 -.839E+02   0.759E+03 0.287E+04 0.811E+02   0.295E+01 0.762E+01 0.721E+01   -.360E-04 0.388E-04 0.414E-05
   0.190E+00 -.477E+00 -.266E+02   -.140E+00 0.222E+00 0.262E+02   -.349E-01 0.252E+00 0.797E+00   -.485E-05 -.650E-05 0.731E-05
   -.206E+02 0.148E+02 0.151E+03   0.426E+02 -.393E+02 -.180E+03   0.228E+02 -.252E+02 -.320E+02   -.128E-03 0.129E-03 0.199E-04
   0.193E+01 -.139E+01 -.954E+02   0.195E+02 0.834E+02 0.346E+03   0.291E+00 0.746E+01 0.313E+02   0.247E-04 -.652E-05 0.689E-04
   -.549E+00 -.505E-01 -.268E+02   0.332E+00 0.130E+00 0.262E+02   0.248E+00 -.297E-01 0.924E+00   -.223E-04 0.254E-04 0.139E-04
   0.371E+01 -.188E+02 0.152E+03   -.995E+00 0.270E+02 -.158E+03   0.317E+01 0.142E+02 -.182E+02   0.467E-04 0.369E-04 0.445E-04
   0.371E+01 0.171E+02 -.793E+02   -.454E+01 -.205E+02 0.813E+02   -.160E+01 -.912E+01 0.642E+00   0.791E-05 0.301E-05 0.114E-04
   0.373E+00 0.504E+00 -.270E+02   -.194E+00 -.355E+00 0.264E+02   -.248E+00 -.286E+00 0.834E+00   0.107E-04 -.312E-04 0.486E-04
   0.182E+02 0.386E+01 0.158E+03   -.395E+02 -.178E+00 -.177E+03   -.268E+02 0.236E+01 -.309E+02   0.227E-03 0.273E-04 -.439E-04
   0.146E+02 -.848E+01 -.157E+03   -.199E+02 0.166E+02 0.165E+03   -.100E+02 0.123E+02 0.229E+02   -.503E-04 0.374E-04 0.160E-04
   -.318E+00 0.522E+00 0.270E+02   0.303E+00 -.294E+00 -.263E+02   0.131E+00 -.322E+00 -.899E+00   -.444E-04 0.394E-05 0.487E-04
   -.333E+01 -.181E+02 0.837E+02   0.757E+03 0.287E+04 -.808E+02   0.187E+01 0.926E+01 -.696E+01   0.128E-04 -.152E-04 0.328E-04
   -.216E+02 -.132E+02 -.150E+03   0.358E+02 0.171E+02 0.160E+03   0.230E+02 0.646E+01 0.217E+02   0.114E-03 0.241E-04 0.320E-04
   -.237E+00 -.400E+00 0.267E+02   0.474E-01 0.250E+00 -.262E+02   0.157E+00 0.132E+00 -.929E+00   0.216E-04 0.246E-04 0.589E-04
   0.462E+01 0.163E+02 0.795E+02   -.571E+01 -.184E+02 -.816E+02   -.259E+01 -.755E+01 -.886E+00   0.730E-04 -.915E-04 -.557E-06
   0.512E+01 0.198E+02 -.153E+03   -.266E+02 -.532E+02 0.191E+03   -.170E+02 -.290E+02 0.358E+02   -.364E-04 -.609E-04 0.388E-04
   0.608E+00 -.108E+00 0.267E+02   -.350E+00 0.416E-01 -.263E+02   -.319E+00 0.102E+00 -.703E+00   0.575E-04 0.180E-04 -.314E-04
   -.729E+00 0.346E+01 0.953E+02   0.230E+02 0.774E+02 -.346E+03   0.212E+01 0.398E+01 -.310E+02   -.774E-04 0.812E-04 0.257E-04
   0.371E+01 0.171E+02 -.793E+02   -.454E+01 -.205E+02 0.813E+02   -.160E+01 -.912E+01 0.642E+00   -.496E-05 0.128E-04 0.187E-04
   0.373E+00 0.504E+00 -.270E+02   -.194E+00 -.355E+00 0.264E+02   -.248E+00 -.286E+00 0.834E+00   -.255E-04 -.223E-04 0.275E-04
   0.182E+02 0.386E+01 0.158E+03   -.395E+02 -.178E+00 -.177E+03   -.268E+02 0.236E+01 -.309E+02   -.457E-04 -.233E-04 0.222E-04
   -.540E+01 -.142E+02 -.839E+02   0.759E+03 0.287E+04 0.811E+02   0.295E+01 0.762E+01 0.721E+01   0.104E-04 0.461E-04 -.331E-05
   0.190E+00 -.477E+00 -.266E+02   -.140E+00 0.222E+00 0.262E+02   -.349E-01 0.252E+00 0.797E+00   0.618E-05 0.409E-04 0.272E-04
   -.206E+02 0.148E+02 0.151E+03   0.426E+02 -.393E+02 -.180E+03   0.228E+02 -.252E+02 -.320E+02   0.103E-03 -.108E-03 0.400E-04
   0.193E+01 -.139E+01 -.954E+02   0.195E+02 0.834E+02 0.346E+03   0.291E+00 0.746E+01 0.313E+02   -.464E-04 -.729E-04 0.556E-04
   -.549E+00 -.504E-01 -.268E+02   0.332E+00 0.130E+00 0.262E+02   0.248E+00 -.297E-01 0.924E+00   0.559E-05 -.572E-05 0.595E-04
   0.371E+01 -.188E+02 0.152E+03   -.995E+00 0.270E+02 -.158E+03   0.317E+01 0.142E+02 -.182E+02   -.964E-04 -.897E-04 -.429E-04
   0.512E+01 0.198E+02 -.153E+03   -.266E+02 -.532E+02 0.191E+03   -.170E+02 -.290E+02 0.358E+02   -.653E-04 -.566E-04 0.586E-04
   0.608E+00 -.107E+00 0.267E+02   -.350E+00 0.416E-01 -.263E+02   -.319E+00 0.102E+00 -.703E+00   -.241E-04 0.350E-05 0.896E-04
   -.729E+00 0.346E+01 0.953E+02   0.230E+02 0.774E+02 -.346E+03   0.212E+01 0.398E+01 -.310E+02   0.740E-04 -.303E-04 -.556E-05
   0.146E+02 -.848E+01 -.157E+03   -.199E+02 0.166E+02 0.165E+03   -.100E+02 0.123E+02 0.229E+02   0.222E-04 0.787E-04 0.132E-04
   -.318E+00 0.522E+00 0.270E+02   0.303E+00 -.294E+00 -.263E+02   0.131E+00 -.322E+00 -.899E+00   0.621E-04 -.537E-04 0.429E-04
   -.333E+01 -.181E+02 0.837E+02   0.757E+03 0.287E+04 -.808E+02   0.187E+01 0.926E+01 -.696E+01   0.309E-06 0.142E-03 0.605E-05
   -.216E+02 -.132E+02 -.150E+03   0.358E+02 0.171E+02 0.160E+03   0.230E+02 0.646E+01 0.217E+02   -.727E-04 -.523E-05 0.389E-04
   -.236E+00 -.400E+00 0.267E+02   0.474E-01 0.250E+00 -.262E+02   0.157E+00 0.132E+00 -.929E+00   -.215E-04 0.220E-05 -.199E-04
   0.462E+01 0.163E+02 0.795E+02   -.571E+01 -.184E+02 -.816E+02   -.259E+01 -.755E+01 -.886E+00   -.310E-04 0.235E-04 0.116E-04
   -.540E+01 -.142E+02 -.839E+02   0.759E+03 0.287E+04 0.811E+02   0.295E+01 0.762E+01 0.721E+01   -.496E-04 -.685E-04 -.129E-05
   0.190E+00 -.477E+00 -.266E+02   -.140E+00 0.222E+00 0.262E+02   -.349E-01 0.252E+00 0.797E+00   -.154E-04 -.242E-04 0.109E-03
   -.206E+02 0.148E+02 0.151E+03   0.426E+02 -.393E+02 -.180E+03   0.228E+02 -.252E+02 -.320E+02   0.261E-04 -.323E-04 0.132E-04
   0.193E+01 -.139E+01 -.954E+02   0.195E+02 0.834E+02 0.346E+03   0.291E+00 0.746E+01 0.313E+02   0.514E-04 0.806E-04 0.346E-04
   -.549E+00 -.505E-01 -.268E+02   0.332E+00 0.130E+00 0.262E+02   0.248E+00 -.297E-01 0.924E+00   0.374E-04 -.215E-04 0.433E-04
   0.371E+01 -.188E+02 0.152E+03   -.995E+00 0.270E+02 -.158E+03   0.317E+01 0.142E+02 -.182E+02   -.167E-03 -.183E-03 -.638E-04
   0.371E+01 0.171E+02 -.793E+02   -.454E+01 -.205E+02 0.813E+02   -.160E+01 -.912E+01 0.642E+00   0.184E-04 -.202E-04 0.213E-04
   0.373E+00 0.504E+00 -.270E+02   -.194E+00 -.355E+00 0.264E+02   -.248E+00 -.286E+00 0.834E+00   0.549E-06 0.488E-04 -.319E-04
   0.182E+02 0.386E+01 0.158E+03   -.395E+02 -.178E+00 -.177E+03   -.268E+02 0.236E+01 -.309E+02   -.599E-04 0.313E-04 0.545E-04
   0.146E+02 -.848E+01 -.157E+03   -.199E+02 0.166E+02 0.165E+03   -.100E+02 0.123E+02 0.229E+02   0.142E-04 -.554E-04 0.807E-04
   -.318E+00 0.522E+00 0.270E+02   0.303E+00 -.294E+00 -.263E+02   0.131E+00 -.322E+00 -.899E+00   0.102E-04 0.130E-05 0.607E-04
   -.333E+01 -.181E+02 0.837E+02   0.757E+03 0.287E+04 -.808E+02   0.187E+01 0.926E+01 -.696E+01   -.451E-04 0.935E-04 0.191E-04
   -.216E+02 -.132E+02 -.150E+03   0.358E+02 0.171E+02 0.160E+03   0.230E+02 0.646E+01 0.217E+02   0.963E-04 -.547E-04 0.482E-04
   -.236E+00 -.400E+00 0.267E+02   0.474E-01 0.250E+00 -.262E+02   0.157E+00 0.132E+00 -.929E+00   -.399E-04 -.287E-04 -.252E-04
   0.462E+01 0.163E+02 0.795E+02   -.571E+01 -.184E+02 -.816E+02   -.259E+01 -.755E+01 -.886E+00   -.565E-04 0.709E-04 0.104E-04
   0.512E+01 0.198E+02 -.153E+03   -.266E+02 -.532E+02 0.191E+03   -.170E+02 -.290E+02 0.358E+02   -.386E-04 0.119E-04 -.840E-05
   0.608E+00 -.108E+00 0.267E+02   -.350E+00 0.416E-01 -.263E+02   -.319E+00 0.102E+00 -.703E+00   -.229E-04 0.925E-05 0.548E-04
   -.729E+00 0.346E+01 0.953E+02   0.230E+02 0.774E+02 -.346E+03   0.212E+01 0.398E+01 -.310E+02   0.134E-03 -.891E-04 0.130E-04
   0.371E+01 0.171E+02 -.793E+02   -.454E+01 -.205E+02 0.813E+02   -.160E+01 -.912E+01 0.642E+00   0.231E-04 -.264E-04 0.187E-04
   0.373E+00 0.504E+00 -.270E+02   -.194E+00 -.355E+00 0.264E+02   -.248E+00 -.286E+00 0.834E+00   0.357E-05 0.245E-04 0.827E-04
   0.182E+02 0.386E+01 0.158E+03   -.395E+02 -.178E+00 -.177E+03   -.268E+02 0.236E+01 -.309E+02   0.141E-03 -.181E-04 -.435E-04
   -.540E+01 -.142E+02 -.839E+02   0.759E+03 0.287E+04 0.811E+02   0.295E+01 0.762E+01 0.721E+01   0.361E-04 -.257E-04 -.916E-05
   0.190E+00 -.477E+00 -.266E+02   -.140E+00 0.222E+00 0.262E+02   -.349E-01 0.252E+00 0.797E+00   0.345E-04 -.174E-04 -.950E-05
   -.206E+02 0.148E+02 0.151E+03   0.426E+02 -.393E+02 -.180E+03   0.228E+02 -.252E+02 -.320E+02   -.109E-03 0.209E-03 -.168E-04
[...]
   -.224E+00 -.171E+00 -.357E+01   0.333E+00 0.310E+00 0.362E+01   0.330E-01 -.587E-01 0.406E+00   -.270E-04 0.178E-05 -.136E-03
   -.108E+02 0.109E+02 -.652E+01   0.164E+02 -.102E+02 0.254E+01   0.169E+01 -.222E+01 -.432E+01   -.921E-04 -.382E-04 -.177E-04
   -.605E+00 -.150E+02 -.240E+00   -.126E+01 0.173E+02 0.755E+01   0.201E+01 0.427E+01 0.758E+01   0.126E-03 0.562E-04 0.674E-04
   -.830E+00 -.946E-01 0.363E+01   0.598E+00 -.111E+00 -.334E+01   0.198E+00 0.167E+00 -.675E+00   -.128E-04 0.102E-04 0.154E-05
   -.228E+02 0.206E+02 -.687E+02   0.318E+02 -.348E+02 0.602E+02   0.996E+01 -.887E+01 -.732E+01   0.932E-04 0.667E-04 0.161E-04
   -.605E+00 -.150E+02 -.240E+00   -.126E+01 0.173E+02 0.755E+01   0.201E+01 0.427E+01 0.758E+01   -.614E-05 -.148E-04 0.595E-05
   -.830E+00 -.944E-01 0.363E+01   0.598E+00 -.112E+00 -.334E+01   0.198E+00 0.167E+00 -.675E+00   0.147E-04 -.121E-04 -.125E-03
   -.228E+02 0.206E+02 -.687E+02   0.318E+02 -.348E+02 0.602E+02   0.996E+01 -.887E+01 -.732E+01   0.120E-03 0.126E-04 0.300E-04
   -.605E+00 -.150E+02 -.240E+00   -.126E+01 0.173E+02 0.755E+01   0.201E+01 0.427E+01 0.758E+01   -.326E-04 -.209E-04 -.178E-04
   -.830E+00 -.946E-01 0.363E+01   0.598E+00 -.111E+00 -.334E+01   0.198E+00 0.167E+00 -.675E+00   0.802E-04 0.264E-04 -.732E-04
   -.228E+02 0.206E+02 -.687E+02   0.318E+02 -.348E+02 0.602E+02   0.996E+01 -.887E+01 -.732E+01   -.302E-04 0.583E-04 0.138E-04
   -.605E+00 -.150E+02 -.240E+00   -.126E+01 0.173E+02 0.755E+01   0.201E+01 0.427E+01 0.758E+01   0.237E-03 0.150E-03 0.830E-04
   -.830E+00 -.945E-01 0.363E+01   0.598E+00 -.112E+00 -.334E+01   0.198E+00 0.167E+00 -.675E+00   -.142E-04 0.270E-04 0.615E-05
   -.228E+02 0.206E+02 -.687E+02   0.318E+02 -.348E+02 0.602E+02   0.996E+01 -.887E+01 -.732E+01   0.388E-04 -.576E-04 0.298E-04
   -.227E+02 -.104E+03 -.924E+00   0.468E-11 -.293E-11 -.696E-12   0.228E+02 0.105E+03 0.107E+01   0.140E-04 0.146E-03 0.252E-03

 POSITION                                       TOTAL-FORCE (eV/Angst)
     -0.09862      0.17082      0.00000       756.903142   2859.804836      4.392489
     -2.74783      4.75938      3.74654         0.014262     -0.006163      0.394181
     -5.39703      9.34794      7.49309        44.772011    -49.578983    -60.913716
     -0.09862      9.34794      0.00000        21.770784     89.474898    281.955111
      5.19979      0.17082      3.74654         0.029811      0.046415      0.334581
      2.55058      4.75938      7.49308         5.881950     22.389396    -24.043924
      7.84899      4.75938      0.00000        -2.427049    -12.476168      2.604011
      5.19979      9.34794      3.74654        -0.069761     -0.140200      0.295870
     10.49820      0.17082      7.49308       -48.149520      6.034635    -50.484532
     -2.74783      4.75938      0.93664       -15.285271     20.405776     31.591940
     -5.39703      9.34794      4.68318         0.115035     -0.097225     -0.292815
     -0.09862      0.17082      8.42972       755.641389   2861.491225     -4.019929
      5.19979      0.17082      0.93664        37.256054     10.279505     32.073677
      2.55058      4.75938      4.68318        -0.033464     -0.020943     -0.373597
     -0.09862      9.34794      8.42972        -3.681818     -9.681023     -3.002468
      5.19979      9.34794      0.93664       -38.455878    -62.314081     74.073303
     10.49820      0.17082      4.68318        -0.062387      0.032996     -0.321788
      7.84899      4.75938      8.42972        24.355550     84.793844   -281.815454
     -0.09862      4.75938      0.00000        -2.427049    -12.476168      2.604011
     -2.74783      9.34794      3.74654        -0.069761     -0.140200      0.295870
      2.55058      0.17082      7.49309       -48.149520      6.034635    -50.484532
      7.84899      0.17082      0.00000       756.903142   2859.804836      4.392489
      5.19979      4.75938      3.74654         0.014262     -0.006163      0.394181
      2.55058      9.34794      7.49309        44.772011    -49.578983    -60.913716
      7.84899      9.34794      0.00000        21.770784     89.474898    281.955111
     13.14740      0.17082      3.74654         0.029811      0.046415      0.334581
     10.49820      4.75938      7.49309         5.881950     22.389396    -24.043924
     -2.74783      9.34794      0.93664       -38.455878    -62.314081     74.073303
      2.55058      0.17082      4.68318        -0.062387      0.032996     -0.321788
     -0.09863      4.75938      8.42972        24.355550     84.793844   -281.815454
      5.19979      4.75938      0.93664       -15.285271     20.405776     31.591940
      2.55058      9.34794      4.68318         0.115035     -0.097225     -0.292815
      7.84899      0.17082      8.42972       755.641389   2861.491225     -4.019929
     13.14740      0.17082      0.93663        37.256054     10.279505     32.073677
     10.49820      4.75938      4.68318        -0.033464     -0.020943     -0.373597
      7.84899      9.34794      8.42972        -3.681818     -9.681023     -3.002468
     -4.07243      7.05366      0.00000       756.903142   2859.804836      4.392489
     -6.72164     11.64222      3.74654         0.014262     -0.006163      0.394181
     -1.42323      2.46510      7.49309        44.772011    -49.578983    -60.913716
      3.87518      2.46510      0.00000        21.770784     89.474898    281.955111
      1.22598      7.05366      3.74654         0.029811      0.046415      0.334581
     -1.42323     11.64222      7.49309         5.881950     22.389396    -24.043924
      3.87518     11.64222      0.00000        -2.427049    -12.476168      2.604011
      9.17359      2.46510      3.74654        -0.069761     -0.140200      0.295870
      6.52439      7.05366      7.49309       -48.149520      6.034635    -50.484532
     -6.72164     11.64222      0.93664       -15.285271     20.405776     31.591940
     -1.42323      2.46510      4.68318         0.115035     -0.097225     -0.292815
     -4.07243      7.05366      8.42972       755.641389   2861.491225     -4.019929
      1.22598      7.05366      0.93664        37.256054     10.279505     32.073677
     -1.42323     11.64222      4.68318        -0.033464     -0.020943     -0.373597
      3.87518      2.46510      8.42972        -3.681818     -9.681023     -3.002468
      9.17359      2.46510      0.93664       -38.455878    -62.314081     74.073303
      6.52439      7.05366      4.68318        -0.062387      0.032996     -0.321788
      3.87518     11.64222      8.42972        24.355550     84.793844   -281.815454
     -4.07243     11.64222      0.00000        -2.427049    -12.476168      2.604011
      1.22598      2.46510      3.74654        -0.069761     -0.140200      0.295870
     -1.42323      7.05366      7.49308       -48.149520      6.034635    -50.484532
      3.87518      7.05366      0.00000       756.903142   2859.804836      4.392489
      1.22598     11.64222      3.74654         0.014262     -0.006163      0.394181
      6.52439      2.46510      7.49308        44.772011    -49.578983    -60.913716
[...]
      5.79104      3.34346      8.42972       -34.750576     54.862282     54.081178
      1.81723      1.04918     11.69625         0.141329      0.077982      0.452975
      5.79103     12.52057     14.96279         7.196252     -1.520391     -8.299175
     -2.15658      7.93201      9.24635         0.147768      6.586707     14.894688
      9.76484      5.63773     12.51289        -0.034977     -0.041952     -0.384666
      5.79104      3.34346      0.00000        18.970434    -23.131977    -15.898405
      1.81723      1.04918      9.24635         0.147768      6.586707     14.894688
      5.79104     12.52057     12.51289        -0.034977     -0.041952     -0.384666
      1.81723     10.22629      0.00000        18.970434    -23.131977    -15.898405
      5.79104      7.93201      9.24635         0.147768      6.586707     14.894688
      1.81723      5.63773     12.51289        -0.034977     -0.041952     -0.384666
     13.73865      3.34346      0.00000        18.970434    -23.131977    -15.898405
      9.76484      1.04918      9.24635         0.147768      6.586707     14.894688
     -2.15658     12.52057     12.51289        -0.034977     -0.041952     -0.384666
      9.76484     10.22629      0.00000        18.970434    -23.131977    -15.898405
    total drift:                                0.167323      0.511700      0.148995

  FREE ENERGIE OF THE ION-ELECTRON SYSTEM (eV)
  free  energy   TOTEN  =      6567.53146356 eV

  energy  without entropy=     6567.53412236  energy(sigma->0) =     6567.53279296