 vasp.6.4.3 19Mar24 (build Oct 22 2024 11:23:12) complex

 executed on             LinuxIFC date 2025.06.04  00:46:38

 INCAR:
   SYSTEM = Si and Ge interface calculation
   ISTART = 0
   ICHARG = 2
   LWAVE = .FALSE.
   LREAL = AUTO
   ENCUT = 700
   ENAUG = 900
   ADDGRID = .TRUE.
   LMAXMIX = 6
   LASPH = .TRUE.
   LMIXTAU = .TRUE.
   NCORE = 16
   NELM = 100
   NBANDS = 116
   EDIFF = 1d-7
   AMIX = 0.6
   ISMEAR = 0
   SIGMA = 0.01
   NELECT = 192
   ISPIN = 2
   NUPDOWN = 1
   LVTOT = .FALSE.
   LVHAR = .TRUE.

 POTCAR:    PAW_PBE Sn 08Apr2002
 POTCAR:    PAW_PBE Ge 05Jan2001
|           W    W    AA    RRRRR   N    N  II  N    N   GGGG   !!!           |
|           W    W   A  A   R    R  NN   N  II  NN   N  G    G  !!!           |
|           W    W  A    A  R    R  N N  N  II  N N  N  G       !!!           |
|           W WW W  AAAAAA  RRRRR   N  N N  II  N  N N  G  GGG   !            |
|           WW  WW  A    A  R   R   N   NN  II  N   NN  G    G                |
|           W    W  A    A  R    R  N    N  II  N    N   GGGG   !!!           |
|     You use a magnetic or noncollinear calculation, but did not specify     |
|     the initial magnetic moment with the MAGMOM tag. Note that a            |
|     default of 0.021 will be used for all atoms. This ferromagnetic         |
|     setup may break the symmetry of the crystal, in particular it may       |
|     rule out finding an antiferromagnetic solution. Thence, we              |
|     recommend setting the initial magnetic moment manually or verifying     |
|     carefully that this magnetic setup is desired.                          |

 POTCAR:    PAW_PBE Sn 08Apr2002
   VRHFIN =Sn: s2p2

   TITEL  = PAW_PBE Sn 08Apr2002
   POMASS =  118.710; ZVAL   =    4.000    mass and valenz
   ENMAX  =  103.236; ENMIN  =   77.427 eV

 POTCAR:    PAW_PBE Ge 05Jan2001
   VRHFIN =Ge: s2p2

   TITEL  = PAW_PBE Ge 05Jan2001
   POMASS =   72.610; ZVAL   =    4.000    mass and valenz
   ENMAX  =  173.807; ENMIN  =  130.355 eV

 Optimization of the real space projectors (new method)

 maximal supplied QI-value         = 12.47
 optimisation between [QCUT,QGAM] = [ 12.47, 27.06] = [ 43.56,205.12] Ry
 Optimized for a Real-space Cutoff    1.58 Angstroem

   l    n(q)    QCUT    max X(q) W(low)/X(q) W(high)/X(q)  e(spline)
   0     13    12.472    14.688    0.45E-04    0.45E-04    0.25E-05
   0     13    12.472     7.308    0.94E-04    0.11E-03    0.61E-05
   1     12    12.472    45.102    0.34E-03    0.14E-03    0.21E-05
   1     12    12.472    30.691    0.31E-03    0.13E-03    0.20E-05
   2     12    12.472     7.156    0.86E-04    0.11E-03    0.17E-05
 WARNING: PSMAXN for non-local potential too small
          PSMAXN should be >   13.5545592237991       NTYP=           1
 Optimization of the real space projectors (new method)

 maximal supplied QI-value         = 16.25
 optimisation between [QCUT,QGAM] = [ 13.49, 26.98] = [ 50.95,203.80] Ry
 Optimized for a Real-space Cutoff    1.25 Angstroem

   l    n(q)    QCUT    max X(q) W(low)/X(q) W(high)/X(q)  e(spline)
   0     10    13.489    65.336    0.91E-04    0.11E-03    0.34E-06
   0     10    13.489    52.220    0.89E-04    0.11E-03    0.34E-06
   1     10    13.489    36.409    0.22E-03    0.27E-03    0.14E-06
   1     10    13.489    21.334    0.21E-03    0.27E-03    0.14E-06
   2      9    13.489     4.673    0.11E-03    0.12E-03    0.19E-06
  PAW_PBE Sn 08Apr2002                  :
  PAW_PBE Ge 05Jan2001                  :

 POSCAR: Sn+Ge
  positions in direct lattice

 exchange-correlation table for PE
   RHO(1)=    0.500       N(1)  =     2000
   RHO(2)=  100.500       N(2)  =     4000

 ion  position               nearest neighbor table
   1  0.980  0.031  0.000-   8 2.81  19 2.81
   2  0.780  0.331  0.158-   9 2.81  20 2.81  22 2.81  30 2.95
   3  0.580  0.631  0.316-  21 2.81  23 2.81  10 2.81
   4  0.480  0.031  0.000-  35 2.27  22 2.81  11 2.81  39 3.28
   5  0.280  0.331  0.158-  12 2.81  19 2.81  23 2.81
   6  0.080  0.631  0.316-  24 2.81  20 2.81   7 2.81  44 3.20
   7  0.255  0.681  0.079-  17 2.81  13 2.81   6 2.81  36 3.01
   8  0.055  0.981  0.237-   1 2.81  14 2.81  18 2.81
   9  0.855  0.281  0.395-  32 2.42   2 2.81  15 2.81
  10  0.755  0.681  0.079-  16 2.81  14 2.81   3 2.81  29 2.96
  11  0.555  0.981  0.237-  17 2.81  15 2.81   4 2.81
  12  0.355  0.281  0.395-  43 2.68  18 2.81   5 2.81  25 3.04
  13  0.230  0.531  0.000-  36 1.65  23 2.81   7 2.81
  14  0.030  0.831  0.158-  24 2.81  10 2.81   8 2.81
  15  0.830  0.131  0.316-   9 2.81  11 2.81  19 2.81
  16  0.730  0.531  0.000-  20 2.81  10 2.81  47 3.13
  17  0.530  0.831  0.158-  21 2.81  11 2.81   7 2.81
  18  0.330  0.131  0.316-  43 2.27  12 2.81   8 2.81  22 2.81
  19  0.005  0.181  0.079-   1 2.81   5 2.81  15 2.81  28 3.26  48 3.29
  20  0.805  0.481  0.237-  16 2.81   6 2.81   2 2.81
  21  0.605  0.781  0.395-  33 2.67  37 2.74  17 2.81   3 2.81
  22  0.505  0.181  0.079-   4 2.81   2 2.81  18 2.81
  23  0.305  0.481  0.237-  13 2.81   5 2.81   3 2.81
  24  0.105  0.781  0.395-  14 2.81   6 2.81  44 2.89  31 2.98
  25  0.337  0.409  0.557-  34 2.49  45 2.51  12 3.04
  26  0.221  0.992  0.613-  35 2.49  46 2.51  43 2.56
  27  0.104  0.575  0.669-  36 2.49  47 2.51  44 2.56
  28  0.987  0.159  0.725-  48 2.51  45 2.56  19 3.26
  29  0.871  0.742  0.782-  31 2.48  46 2.56  10 2.96
  30  0.754  0.325  0.838-  32 2.48  47 2.56   2 2.95
  31  0.837  0.659  0.557-  29 2.48  38 2.56  24 2.98
  32  0.721  0.242  0.613-   9 2.42  30 2.48  39 2.56
  33  0.604  0.825  0.669-  37 2.51  40 2.56  21 2.67
  34  0.487  0.409  0.725-  25 2.49  38 2.51  41 2.56
  35  0.371  0.992  0.782-   4 2.27  26 2.49  39 2.51  42 2.56
  36  0.254  0.575  0.838-  13 1.65  27 2.49  40 2.51   7 3.01
  37  0.837  0.909  0.557-  46 2.49  33 2.51  21 2.74
  38  0.721  0.492  0.613-  47 2.49  34 2.51  31 2.56
  39  0.604  0.075  0.669-  48 2.49  35 2.51  32 2.56   4 3.28
  40  0.487  0.659  0.725-  36 2.51  33 2.56
  41  0.371  0.242  0.782-  43 2.48  34 2.56
  42  0.254  0.825  0.838-  44 2.48  35 2.56
  43  0.337  0.159  0.557-  18 2.27  41 2.48  26 2.56  12 2.68
  44  0.221  0.742  0.613-  42 2.48  27 2.56  24 2.89   6 3.20
  45  0.104  0.325  0.669-  25 2.51  28 2.56
  46  0.987  0.909  0.725-  37 2.49  26 2.51  29 2.56
  47  0.871  0.492  0.782-  38 2.49  27 2.51  30 2.56  16 3.13
  48  0.754  0.075  0.838-  39 2.49  28 2.51  19 3.29

  LATTYP: Found a simple orthorhombic cell.
 ALAT       =     9.1904115680
 B/A-ratio  =     1.4121674676
 C/A-ratio  =     1.5788512734

  Lattice vectors:

 A1 = (   0.0000000000,   0.0000000000,   9.1904115680)
 A2 = (  12.9784002300,   0.0000000000,   0.0000000000)
 A3 = (   0.0000000000,  14.5102930070,   0.0000000000)

Analysis of symmetry for initial positions (statically):
 Subroutine PRICEL returns:
 Original cell was already a primitive cell.

 Routine SETGRP: Setting up the symmetry group for a
 simple orthorhombic supercell.

 Subroutine GETGRP returns: Found  1 space group operations
 (whereof  1 operations were pure point group operations)
 out of a pool of  8 trial point group operations.

The static configuration has the point symmetry C_1 .

Analysis of symmetry for dynamics (positions and initial velocities):
 Subroutine PRICEL returns:
 Original cell was already a primitive cell.

[...]

The dynamic configuration has the point symmetry C_1 .

Analysis of structural, dynamic, and magnetic symmetry:
 Subroutine PRICEL returns:
 Original cell was already a primitive cell.

 Routine SETGRP: Setting up the symmetry group for a
 simple orthorhombic supercell.

 Subroutine GETGRP returns: Found  1 space group operations
 (whereof  1 operations were pure point group operations)
 out of a pool of  8 trial point group operations.

The overall configuration has the point symmetry C_1 .

 Subroutine INISYM returns: Found  1 space group operations
 (whereof  1 operations are pure point group operations),
 and found     1 'primitive' translations

                                     Primitive cell

  volume of cell :    1730.7419

  direct lattice vectors                    reciprocal lattice vectors
    12.978400230  0.000000000  0.000000000     0.077051099  0.068916596  0.000000000
   -12.978400230 14.510293007  0.000000000     0.000000000  0.068916596  0.000000000
     0.000000000  0.000000000  9.190411568     0.000000000  0.000000000  0.108809055

  length of vectors
    12.978400230 19.467600666  9.190411568     0.103374896  0.068916596  0.108809055

  position of ions in fractional coordinates (direct lattice)
     0.979564309  0.030653533  0.000000009
     0.779564261  0.330653578  0.157885149
     0.579564154  0.630653620  0.315770298
     0.479564250  0.030653533  0.000000009
     0.279564202  0.330653578  0.157885149
     0.079564132  0.630653620  0.315770298
     0.254564315  0.680653512  0.078942418
     0.054564159  0.980653465  0.236827582
     0.854564130  0.280653596  0.394712687
     0.754564404  0.680653512  0.078942418
     0.554564238  0.980653465  0.236827582
     0.354564160  0.280653596  0.394712687
     0.229564279  0.530653477  0.000000000
     0.029564191  0.830653489  0.157885149
     0.829564035  0.130653620  0.315770298
     0.729564190  0.530653477  0.000000000
     0.529564142  0.830653489  0.157885149
     0.329564035  0.130653620  0.315770298
     0.004564330  0.180653512  0.078942426
     0.804564178  0.480653584  0.236827582
     0.604564250  0.780653656  0.394712687
     0.504564285  0.180653512  0.078942426
     0.304564178  0.480653584  0.236827582
     0.104564168  0.780653656  0.394712687
     0.337348342  0.408752084  0.556860566
     0.220681667  0.992085338  0.613058805
     0.104014874  0.575418591  0.669257224
     0.987348020  0.158751845  0.725455582
     0.870681345  0.742085218  0.781653762
     0.754014492  0.325418234  0.837852120
     0.837348342  0.658752084  0.556860566
     0.720681548  0.242085218  0.613058805
     0.604014814  0.825418591  0.669257224
     0.487348020  0.408751845  0.725455403
     0.370681286  0.992085099  0.781653702
     0.254014611  0.575418234  0.837852001
     0.837348342  0.908752084  0.556860626
     0.720681548  0.492085338  0.613058925
     0.604014754  0.075418591  0.669257224
     0.487348050  0.658751786  0.725455523
     0.370681345  0.242085099  0.781653762
     0.254014492  0.825418115  0.837852120
     0.337348223  0.158752084  0.556860626
     0.220681548  0.742085278  0.613058925
     0.104014874  0.325418472  0.669257224
     0.987348020  0.908751786  0.725455523
     0.870681286  0.492085099  0.781653821
     0.754014492  0.075418115  0.837852120

  ion indices of the primitive-cell ions
   primitive index   ion index
                 1           1
                 2           2
                 3           3
                 4           4
                 5           5
                 6           6
                 7           7
                 8           8
                 9           9
                10          10
                11          11
                12          12
                13          13
                14          14
                15          15
[...]
     42      -3.4412      1.00000
     43      -3.2455      1.00000
     44      -2.9756      1.00000
     45      -2.7133      1.00000
     46      -2.5808      1.00000
     47      -2.3578      1.00000
     48      -2.1448      1.00000
     49      -1.8111      1.00000
     50      -1.4849      1.00000
     51      -1.3986      1.00000
     52      -1.3196      1.00000
     53      -1.2556      1.00000
     54      -1.0622      1.00000
     55      -1.0415      1.00000
     56      -0.9417      1.00000
     57      -0.9027      1.00000
     58      -0.8335      1.00000
     59      -0.7469      1.00000
     60      -0.6832      1.00000
[...]
    102       2.0680      0.00000
    103       2.1391      0.00000
    104       2.2006      0.00000
    105       2.3056      0.00000
    106       2.3507      0.00000
    107       2.4586      0.00000
    108       2.4879      0.00000
    109       2.5439      0.00000
    110       2.6635      0.00000
    111       2.7186      0.00000
    112       2.7721      0.00000
    113       2.9054      0.00000
    114       2.9899      0.00000
    115       3.0475      0.00000
    116       3.0952      0.00000
 Fermi energy:         1.6962876583

 spin component 2

[...]

 k-point    10 :      -0.3333    0.5000    0.3333
  band No.  band energies     occupation
      1     -10.1366      1.00000
      2      -9.4278      1.00000
      3      -9.1489      1.00000
      4      -8.7034      1.00000
      5      -8.5679      1.00000
      6      -8.3217      1.00000
      7      -8.1149      1.00000
      8      -7.9495      1.00000
      9      -7.8146      1.00000
     10      -7.7440      1.00000
     11      -7.4244      1.00000
     12      -7.3673      1.00000
     13      -7.1891      1.00000
     14      -7.0973      1.00000
     15      -6.9679      1.00000
     16      -6.8323      1.00000
     17      -6.7615      1.00000
     18      -6.6565      1.00000
     19      -6.5420      1.00000
     20      -6.3888      1.00000
     21      -6.3608      1.00000
     22      -6.2668      1.00000
     23      -6.0717      1.00000
     24      -5.9859      1.00000
     25      -5.8277      1.00000
     26      -5.6853      1.00000
     27      -5.6079      1.00000
     28      -5.3194      1.00000
     29      -5.0292      1.00000
     30      -4.9486      1.00000
     31      -4.7802      1.00000
     32      -4.7236      1.00000
     33      -4.5864      1.00000
     34      -4.4433      1.00000
     35      -4.3523      1.00000
     36      -4.2304      1.00000
     37      -4.0990      1.00000
     38      -4.0013      1.00000
     39      -3.7982      1.00000
     40      -3.6355      1.00000
     41      -3.5299      1.00000
     42      -3.4251      1.00000
     43      -3.2296      1.00000
     44      -2.9613      1.00000
     45      -2.6981      1.00000
     46      -2.5678      1.00000
     47      -2.3424      1.00000
     48      -2.1320      1.00000
     49      -1.7985      1.00000
     50      -1.4727      1.00000
     51      -1.3824      1.00000
     52      -1.3007      1.00000
     53      -1.2421      1.00000
     54      -1.0458      1.00000
     55      -1.0284      1.00000
     56      -0.9281      1.00000
     57      -0.8868      1.00000
     58      -0.8176      1.00000
     59      -0.7333      1.00000
     60      -0.6685      1.00000
[...]
    102       2.0864      0.00000
    103       2.1618      0.00000
    104       2.2265      0.00000
    105       2.3291      0.00000
    106       2.3728      0.00000
    107       2.4778      0.00000
    108       2.5056      0.00000
    109       2.5632      0.00000
    110       2.6835      0.00000
    111       2.7372      0.00000
    112       2.7914      0.00000
    113       2.9257      0.00000
    114       3.0067      0.00000
    115       3.0651      0.00000
    116       3.1220      0.00000

 soft charge-density along one line, spin component           1
         0         1         2         3         4         5         6         7         8         9
 total charge-density along one line

 soft charge-density along one line, spin component           2
         0         1         2         3         4         5         6         7         8         9
 total charge-density along one line

------------------------ aborting loop because EDIFF is reached ----------------------------------------

  FORCE on cell =-STRESS in cart. coord.  units (eV):
  Direction    XX          YY          ZZ          XY          YZ          ZX
  Alpha Z   210.48228   210.48228   210.48228
  Ewald   -1576.44919 -1291.59234 -1334.94447   -73.72977   -58.68853   141.22358
  Hartree   185.21763   302.36081   195.53987    -6.06396   -22.94618    62.41288
  E(xc)    -734.62864  -737.83313  -736.83284     1.94550    -0.02975    -1.44116
  Local    -603.31566 -1013.39004  -784.81153    78.07309    62.39064  -195.57780
  n-local  1455.53674  1484.06009  1483.51558   -17.36148     0.41033    13.83139
  augment  -254.12447  -256.82337  -242.49421     1.86023    -6.18306     0.01703
  Kinetic  1322.39015  1325.28878  1294.83965     6.09376     0.51243    -5.52898
  Fock        0.00000     0.00000     0.00000     0.00000     0.00000     0.00000
  Total       5.10882    22.55309    85.29433    -9.18264   -24.53412    14.93694
  in kB       4.72932    20.87778    78.95841    -8.50052   -22.71165    13.82738

 VOLUME and BASIS-vectors are now :
  energy-cutoff  :      700.00
  volume of cell :     1730.74
      direct lattice vectors                 reciprocal lattice vectors
    12.978400230  0.000000000  0.000000000     0.077051099  0.068916596  0.000000000
   -12.978400230 14.510293007  0.000000000     0.000000000  0.068916596  0.000000000
     0.000000000  0.000000000  9.190411568     0.000000000  0.000000000  0.108809055

  length of vectors
    12.978400230 19.467600666  9.190411568     0.103374896  0.068916596  0.108809055

 FORCES acting on ions
    electron-ion (+dipol)            ewald-force                    non-local-force                 convergence-correction
   0.229E+01 0.116E+02 0.731E+00   -.254E+01 -.127E+02 -.120E+01   0.360E+00 0.500E+00 -.530E+00   -.149E-03 0.671E-04 0.244E-04
   -.186E+02 -.595E+01 -.613E+01   0.184E+02 0.621E+01 0.603E+01   0.457E+00 0.536E-01 -.450E+00   0.145E-04 0.481E-04 -.664E-04
   0.409E+00 0.400E+01 -.303E+00   0.344E+00 -.437E+01 0.925E+00   -.322E+00 0.173E+00 0.244E+00   -.346E-04 -.146E-03 -.635E-04
   -.890E+01 0.154E+01 -.367E+02   0.892E+01 -.158E+01 0.373E+02   0.192E+01 0.124E+01 0.300E+01   0.144E-03 0.867E-04 0.299E-04
   -.290E+01 -.503E+01 0.161E+02   0.389E+01 0.565E+01 -.169E+02   -.701E+00 -.305E+00 0.159E+00   -.157E-04 0.134E-03 -.120E-04
   -.180E+02 0.783E+01 0.578E+01   0.180E+02 -.797E+01 -.585E+01   0.427E+00 -.275E+00 0.573E+00   0.652E-04 -.784E-04 -.348E-04
   0.346E+01 -.979E+01 -.101E+02   -.535E+01 0.111E+02 0.106E+02   0.880E+00 -.227E+00 -.678E+00   -.745E-05 -.636E-04 0.241E-04
   0.173E+02 0.439E+01 0.208E+01   -.181E+02 -.494E+01 -.195E+01   0.464E+00 0.165E+00 0.357E+00   0.372E-04 -.177E-04 -.852E-04
   -.185E+02 -.215E+02 0.161E+02   0.190E+02 0.220E+02 -.160E+02   0.901E+00 0.391E+00 -.119E+01   -.302E-04 0.568E-04 -.407E-04
   0.213E+02 0.104E+01 -.988E-01   -.218E+02 -.735E+00 0.269E+00   0.448E+00 0.699E-02 -.115E+01   0.120E-04 -.173E-03 -.173E-05
   0.216E+01 0.825E+01 -.165E+02   -.273E+01 -.875E+01 0.181E+02   0.228E+00 0.774E-01 -.121E+01   -.278E-05 0.240E-04 -.486E-04
   0.102E+02 -.110E+02 0.189E+02   -.101E+02 0.120E+02 -.192E+02   -.892E+00 0.475E+00 0.796E+00   -.122E-04 0.223E-03 -.670E-04
   -.164E+02 0.381E+02 -.468E+02   0.203E+02 -.467E+02 0.648E+02   0.523E+01 -.130E+02 0.298E+02   -.527E-04 0.188E-04 0.924E-04
   -.541E+01 -.642E+01 0.698E+01   0.574E+01 0.705E+01 -.796E+01   0.122E+00 -.265E+00 0.304E+00   0.103E-03 -.164E-03 -.225E-04
   -.153E+02 0.616E+01 -.614E+01   0.164E+02 -.650E+01 0.732E+01   -.709E+00 0.180E+00 -.536E+00   -.143E-03 0.411E-04 -.398E-04
   0.140E+02 0.596E+01 -.107E+02   -.143E+02 -.658E+01 0.109E+02   0.499E+00 -.302E-01 -.120E+01   0.451E-04 -.514E-04 0.152E-04
   -.151E+02 -.635E+01 0.803E+01   0.156E+02 0.731E+01 -.909E+01   -.472E-01 -.493E+00 0.630E+00   -.121E-03 -.730E-04 -.678E-04
   -.867E+01 0.556E+01 0.323E+02   0.931E+01 -.616E+01 -.327E+02   0.398E+00 -.574E+00 -.419E+01   0.140E-03 0.138E-03 -.184E-03
   0.392E+01 -.925E+01 -.496E+01   -.416E+01 0.938E+01 0.534E+01   -.149E+00 -.444E-01 -.118E+01   -.168E-03 0.698E-04 -.198E-04
   0.662E+01 0.758E+01 -.784E+01   -.741E+01 -.776E+01 0.833E+01   0.323E+00 -.219E+00 0.268E+00   0.485E-04 0.220E-05 -.347E-04
   0.853E+01 0.271E+01 0.216E+02   -.877E+01 -.267E+01 -.217E+02   0.366E+00 -.346E+00 0.271E-02   -.161E-03 -.212E-03 -.120E-03
   0.138E+02 -.143E+01 -.303E+01   -.138E+02 0.144E+01 0.245E+01   -.321E+00 0.589E+00 -.150E+00   0.139E-03 0.157E-03 -.708E-04
   0.149E+02 0.315E+01 -.480E+01   -.148E+02 -.376E+01 0.594E+01   -.339E+00 0.317E+00 -.648E+00   -.624E-04 0.438E-04 -.228E-04
   -.412E+01 -.206E+02 0.130E+02   0.413E+01 0.213E+02 -.130E+02   -.208E+00 -.644E+00 0.112E+01   0.128E-03 -.145E-03 -.330E-04
   0.182E+02 -.181E+02 0.122E+02   -.188E+02 0.185E+02 -.128E+02   0.455E+00 -.300E+00 0.368E-01   -.475E-04 0.854E-04 -.412E-05
   -.240E+01 0.986E+01 0.160E+02   0.203E+01 -.103E+02 -.173E+02   0.967E-01 0.844E-01 0.122E+01   0.273E-03 -.229E-04 0.376E-04
   -.177E+02 0.141E+02 0.268E+02   0.175E+02 -.148E+02 -.282E+02   -.221E+00 0.827E+00 0.506E+00   -.656E-05 -.240E-04 -.207E-04
   -.199E+02 0.880E+01 0.143E+02   0.202E+02 -.880E+01 -.144E+02   -.199E+00 0.446E+00 0.367E+00   -.230E-03 0.925E-04 0.429E-04
   0.107E+02 0.503E+01 -.186E+02   -.105E+02 -.500E+01 0.189E+02   -.599E+00 0.255E+00 0.291E+00   0.596E-04 -.279E-03 0.786E-04
   -.116E+02 0.406E+01 -.137E+02   0.113E+02 -.399E+01 0.142E+02   -.331E-01 0.128E-01 -.206E-01   0.157E-04 0.199E-04 0.766E-04
   0.163E+02 -.183E+01 0.214E+02   -.163E+02 0.211E+01 -.221E+02   0.127E+00 -.242E+00 0.600E-01   0.747E-04 -.185E-03 -.266E-04
   0.312E+01 -.105E+02 0.118E+02   -.403E+01 0.986E+01 -.112E+02   -.172E+00 -.293E+00 0.144E+01   0.442E-04 0.793E-04 0.704E-04
   0.267E+02 -.180E+02 -.210E+02   -.272E+02 0.183E+02 0.220E+02   0.284E-01 -.468E+00 -.107E+00   -.230E-03 -.180E-03 0.140E-03
   0.195E+02 -.104E+02 -.275E+02   -.198E+02 0.104E+02 0.278E+02   0.776E+00 0.201E+00 0.157E+00   0.651E-04 0.799E-04 0.594E-04
   0.123E+02 0.405E+01 0.401E+01   -.133E+02 -.504E+01 -.547E+01   -.780E+00 -.604E+00 -.256E+01   0.176E-03 0.291E-04 0.406E-04
   -.113E+02 0.487E+01 0.210E+02   0.661E+01 0.706E+01 -.488E+02   -.387E+01 0.864E+01 -.201E+02   -.508E-04 0.268E-04 0.738E-05
   0.717E+01 -.254E+02 0.177E+02   -.717E+01 0.264E+02 -.179E+02   0.144E+00 -.488E+00 -.107E+00   -.130E-03 -.465E-04 -.358E-04
   0.958E+00 0.947E+01 0.268E+02   -.964E+00 -.964E+01 -.269E+02   0.455E-01 0.360E+00 -.395E+00   0.622E-04 0.604E-05 -.128E-04
   -.169E+02 0.139E+02 0.313E+02   0.179E+02 -.143E+02 -.319E+02   -.866E+00 0.643E+00 0.214E+00   0.116E-03 0.587E-04 0.630E-04
   -.238E+02 0.107E+02 -.155E+01   0.256E+02 -.106E+02 0.532E+00   -.126E+01 0.498E+00 0.243E+00   -.568E-04 -.137E-03 0.543E-04
   0.985E+01 0.943E+01 -.366E+02   -.102E+02 -.103E+02 0.384E+02   0.489E+00 0.670E+00 -.121E+01   0.900E-04 0.200E-03 0.141E-03
   -.507E+01 0.121E+02 -.264E+02   0.490E+01 -.132E+02 0.266E+02   0.731E-01 0.745E+00 0.714E-01   0.111E-03 -.976E-04 0.348E-04
   0.709E+00 -.340E+01 -.898E+01   -.462E+00 0.373E+01 0.117E+02   -.152E+00 0.197E+00 0.245E+01   0.107E-03 0.226E-03 0.909E-04
   -.216E+02 -.164E+02 0.175E+02   0.221E+02 0.172E+02 -.167E+02   -.598E+00 -.670E+00 -.800E+00   0.620E-04 -.117E-03 -.733E-05
   0.194E+02 -.142E+02 -.514E+01   -.204E+02 0.141E+02 0.583E+01   0.718E+00 -.445E+00 -.782E+00   -.113E-03 0.513E-04 0.118E-04
   0.154E+02 -.848E+01 -.227E+02   -.149E+02 0.852E+01 0.229E+02   -.426E+00 -.470E-01 0.337E+00   0.782E-04 -.989E-04 0.101E-03
   -.659E+01 -.358E+01 -.153E+02   0.671E+01 0.366E+01 0.156E+02   -.433E+00 -.804E-01 0.227E+00   0.401E-04 -.282E-04 0.338E-04
   -.123E+02 0.151E+02 -.165E+02   0.130E+02 -.160E+02 0.168E+02   -.533E+00 0.683E+00 -.331E-01   -.133E-03 0.381E-04 0.507E-04
   -.217E+01 0.173E+01 -.565E+01   -.533E-13 0.213E-13 0.711E-13   0.214E+01 -.167E+01 0.565E+01   0.295E-03 -.238E-03 0.179E-03

 POSITION                                       TOTAL-FORCE (eV/Angst)
     12.31534      0.44479      0.00000         0.104634     -0.581479     -0.999783
      5.82614      4.79788      1.45103         0.302280      0.310782     -0.544021
     -0.66306      9.15097      2.90206         0.432453     -0.197766      0.865564
      5.82614      0.44479      0.00000         1.931172      1.198120      3.561778
     -0.66306      4.79788      1.45103         0.282428      0.313545     -0.668538
     -7.15226      9.15097      2.90206         0.399060     -0.418508      0.501365
     -5.52996      9.87648      0.72551        -1.009309      1.060516     -0.222655
    -12.01916     14.22957      2.17654        -0.380997     -0.386583      0.482133
      7.44844      4.07237      3.62757         1.419870      0.925354     -1.114466
      0.95925      9.87648      0.72551        -0.025405      0.313530     -0.983880
     -5.52996     14.22957      2.17654        -0.339521     -0.430435      0.391840
      0.95924      4.07237      3.62757        -0.798442      1.453146      0.505434
     -3.90766      7.69994      0.00000         9.110858    -21.590574     47.782070
    -10.39686     12.05303      1.45103         0.455156      0.371563     -0.676835
      9.07074      1.89582      2.90206         0.415003     -0.157094      0.636047
      2.58154      7.69994      0.00000         0.133611     -0.649263     -1.048212
     -3.90766     12.05303      1.45103         0.387866      0.472681     -0.427104
      2.58154      1.89582      2.90206         1.041967     -1.178458     -4.536956
     -2.28536      2.62134      0.72551        -0.392670      0.088382     -0.807889
      4.20384      6.97442      2.17654        -0.459297     -0.398760      0.756673
     -2.28536     11.32751      3.62757         0.123004     -0.313500     -0.035383
      4.20384      2.62134      0.72551        -0.366843      0.597642     -0.738055
     -2.28536      6.97442      2.17654        -0.311227     -0.297796      0.488263
     -8.77456     11.32751      3.62757        -0.191213      0.011453      1.093323
     -0.92671      5.93111      5.11778        -0.148574      0.057209     -0.605668
    -10.01159     14.39545      5.63426        -0.278543     -0.401293     -0.079433
     -6.11807      8.34949      6.15075        -0.447755      0.144081     -0.873302
     10.75385      2.30354      6.66724         0.148176      0.444008      0.235101
      1.66897     10.76787      7.18372        -0.372170      0.287497      0.600263
      5.56249      4.72191      7.70021        -0.300457      0.078896      0.401908
      2.31789      9.55869      5.11778         0.044491      0.038379     -0.677741
      6.21141      3.51273      5.63426        -1.079203     -0.887255      1.981294
     -2.87347     11.97707      6.15075        -0.440355     -0.220766      0.872607
      1.02005      5.93111      6.66723         0.465100      0.145280      0.423121
     -8.06483     14.39545      7.18372        -1.831300     -1.597286     -4.015402
     -4.17130      8.34949      7.70020        -8.567152     20.566356    -47.903904
     -0.92671     13.18626      5.11778         0.142172      0.454331     -0.267571
      2.96681      7.14030      5.63426         0.039899      0.189955     -0.439894
      6.86033      1.09435      6.15075         0.098542      0.246605     -0.314002
     -2.22455      9.55868      6.66723         0.573688      0.587515     -0.772519
      1.66897      3.51273      7.18372         0.135622     -0.197133      0.560370
     -7.41590     11.97706      7.70021        -0.090387     -0.328457      0.248396
      2.31789      2.30354      5.11778         0.096644      0.525281      5.174538
     -6.76699     10.76787      5.63426        -0.084733      0.139608      0.009939
     -2.87346      4.72192      6.15075        -0.294779     -0.538863     -0.084306
      1.02005     13.18625      6.66723         0.067353     -0.011182      0.512647
      4.91357      7.14030      7.18372        -0.306658      0.004921      0.443386
      8.80710      1.09434      7.70021         0.165940     -0.244185      0.309456
    total drift:                               -0.032559      0.058581     -0.007576

  FREE ENERGIE OF THE ION-ELECTRON SYSTEM (eV)
  free  energy   TOTEN  =      -156.53698418 eV

  energy  without entropy=     -156.53522386  energy(sigma->0) =     -156.53610402