 vasp.6.4.3 19Mar24 (build Oct 22 2024 11:23:12) complex

 executed on             LinuxIFC date 2025.06.14  13:26:28

 INCAR:
   SYSTEM = Si and Ge interface calculation
   ISTART = 0
   ICHARG = 2
   LWAVE = .FALSE.
   LREAL = AUTO
   ENCUT = 700
   ENAUG = 900
   ADDGRID = .TRUE.
   LMAXMIX = 6
   LASPH = .TRUE.
   LMIXTAU = .TRUE.
   NCORE = 16
   NELM = 100
   NBANDS = 20
   EDIFF = 1d-7
   AMIX = 0.6
   ISMEAR = 0
   SIGMA = 0.01
   NELECT = 32
   ISPIN = 2
   NUPDOWN = 1
   LVTOT = .FALSE.
   LVHAR = .TRUE.

 POTCAR:    PAW_PBE C 08Apr2002
 POTCAR:    PAW_PBE Si 05Jan2001
 POTCAR:    PAW_PBE C 08Apr2002
 POTCAR:    PAW_PBE Si 05Jan2001
 POTCAR:    PAW_PBE C 08Apr2002
 POTCAR:    PAW_PBE Si 05Jan2001
 POTCAR:    PAW_PBE C 08Apr2002
 POTCAR:    PAW_PBE Si 05Jan2001
|           W    W    AA    RRRRR   N    N  II  N    N   GGGG   !!!           |
|           W    W   A  A   R    R  NN   N  II  NN   N  G    G  !!!           |
|           W    W  A    A  R    R  N N  N  II  N N  N  G       !!!           |
|           W WW W  AAAAAA  RRRRR   N  N N  II  N  N N  G  GGG   !            |
|           WW  WW  A    A  R   R   N   NN  II  N   NN  G    G                |
|           W    W  A    A  R    R  N    N  II  N    N   GGGG   !!!           |
|     You use a magnetic or noncollinear calculation, but did not specify     |
|     the initial magnetic moment with the MAGMOM tag. Note that a            |
|     default of 0.125 will be used for all atoms. This ferromagnetic         |
|     setup may break the symmetry of the crystal, in particular it may       |
|     rule out finding an antiferromagnetic solution. Thence, we              |
|     recommend setting the initial magnetic moment manually or verifying     |
|     carefully that this magnetic setup is desired.                          |

 POTCAR:    PAW_PBE C 08Apr2002
   VRHFIN =C: s2p2

   TITEL  = PAW_PBE C 08Apr2002
   POMASS =   12.011; ZVAL   =    4.000    mass and valenz
   ENMAX  =  400.000; ENMIN  =  300.000 eV

 POTCAR:    PAW_PBE Si 05Jan2001
   VRHFIN =Si: s2p2

   TITEL  = PAW_PBE Si 05Jan2001
   POMASS =   28.085; ZVAL   =    4.000    mass and valenz
   ENMAX  =  245.345; ENMIN  =  184.009 eV

[...]

 POTCAR:    PAW_PBE C 08Apr2002
   VRHFIN =C: s2p2

   TITEL  = PAW_PBE C 08Apr2002
   POMASS =   12.011; ZVAL   =    4.000    mass and valenz
   ENMAX  =  400.000; ENMIN  =  300.000 eV

 POTCAR:    PAW_PBE Si 05Jan2001
   VRHFIN =Si: s2p2

   TITEL  = PAW_PBE Si 05Jan2001
   POMASS =   28.085; ZVAL   =    4.000    mass and valenz
   ENMAX  =  245.345; ENMIN  =  184.009 eV

 Optimization of the real space projectors (new method)

 maximal supplied QI-value         = 25.13
 optimisation between [QCUT,QGAM] = [ 13.32, 26.89] = [ 49.69,202.52] Ry
 Optimized for a Real-space Cutoff    1.01 Angstroem

   l    n(q)    QCUT    max X(q) W(low)/X(q) W(high)/X(q)  e(spline)
   0      8    13.321   115.676    0.29E-03    0.42E-03    0.11E-06
   0      8    13.321    87.132    0.29E-03    0.42E-03    0.11E-06
   1      8    13.321     4.429    0.39E-03    0.33E-03    0.98E-07
   1      8    13.321     2.733    0.30E-03    0.26E-03    0.97E-07
 Optimization of the real space projectors (new method)

[...]

   l    n(q)    QCUT    max X(q) W(low)/X(q) W(high)/X(q)  e(spline)
   0      8    13.321   115.676    0.29E-03    0.42E-03    0.11E-06
   0      8    13.321    87.132    0.29E-03    0.42E-03    0.11E-06
   1      8    13.321     4.429    0.39E-03    0.33E-03    0.98E-07
   1      8    13.321     2.733    0.30E-03    0.26E-03    0.97E-07
 Optimization of the real space projectors (new method)

 maximal supplied QI-value         = 19.84
 optimisation between [QCUT,QGAM] = [ 13.49, 26.99] = [ 50.98,203.92] Ry
 Optimized for a Real-space Cutoff    1.07 Angstroem

   l    n(q)    QCUT    max X(q) W(low)/X(q) W(high)/X(q)  e(spline)
   0      9    13.493   159.560    0.22E-03    0.15E-03    0.72E-07
   0      9    13.493   115.863    0.21E-03    0.15E-03    0.71E-07
   1      8    13.493    88.339    0.15E-03    0.11E-03    0.13E-06
   1      8    13.493    48.592    0.15E-03    0.10E-03    0.13E-06
  PAW_PBE C 08Apr2002                   :
  PAW_PBE Si 05Jan2001                  :
  PAW_PBE C 08Apr2002                   :
  PAW_PBE Si 05Jan2001                  :
  PAW_PBE C 08Apr2002                   :
  PAW_PBE Si 05Jan2001                  :
  PAW_PBE C 08Apr2002                   :
  PAW_PBE Si 05Jan2001                  :

 POSCAR: C  Si C  Si C  Si C  Si
  positions in direct lattice

 exchange-correlation table for PE
   RHO(1)=    0.500       N(1)  =     2000
   RHO(2)=  100.500       N(2)  =     4000

 ion  position               nearest neighbor table
   1  0.000  0.000  0.000-   2 1.95   4 1.95   6 1.95   8 1.95
   2  0.250  0.250  0.250-   1 1.95   3 1.95   5 1.95   7 1.95
   3  0.000  0.500  0.500-   2 1.95   4 1.95   6 1.95   8 1.95
   4  0.250  0.750  0.750-   1 1.95   3 1.95   5 1.95   7 1.95
   5  0.500  0.000  0.500-   2 1.95   4 1.95   6 1.95   8 1.95
   6  0.750  0.250  0.750-   1 1.95   3 1.95   5 1.95   7 1.95
   7  0.500  0.500  0.000-   2 1.95   4 1.95   6 1.95   8 1.95
   8  0.750  0.750  0.250-   1 1.95   3 1.95   5 1.95   7 1.95

  LATTYP: Found a simple cubic cell.
 ALAT       =     4.5000000000

  Lattice vectors:

 A1 = (   4.5000000000,   0.0000000000,   0.0000000000)
 A2 = (   0.0000000000,   4.5000000000,   0.0000000000)
 A3 = (   0.0000000000,   0.0000000000,   4.5000000000)

Analysis of symmetry for initial positions (statically):
 Subroutine PRICEL returns:
 Original cell was already a primitive cell.

 Routine SETGRP: Setting up the symmetry group for a
 simple cubic supercell.

 Subroutine GETGRP returns: Found  1 space group operations
 (whereof  1 operations were pure point group operations)
 out of a pool of 48 trial point group operations.

The static configuration has the point symmetry C_1 .

Analysis of symmetry for dynamics (positions and initial velocities):
 Subroutine PRICEL returns:
 Original cell was already a primitive cell.

[...]

The dynamic configuration has the point symmetry C_1 .

Analysis of structural, dynamic, and magnetic symmetry:
 Subroutine PRICEL returns:
 Original cell was already a primitive cell.

 Routine SETGRP: Setting up the symmetry group for a
 simple cubic supercell.

 Subroutine GETGRP returns: Found  1 space group operations
 (whereof  1 operations were pure point group operations)
 out of a pool of 48 trial point group operations.

The overall configuration has the point symmetry C_1 .

 Subroutine INISYM returns: Found  1 space group operations
 (whereof  1 operations are pure point group operations),
 and found     1 'primitive' translations

                                     Primitive cell

  volume of cell :      91.1250

  direct lattice vectors                    reciprocal lattice vectors
     4.500000000  0.000000000  0.000000000     0.222222222  0.000000000  0.000000000
     0.000000000  4.500000000  0.000000000     0.000000000  0.222222222  0.000000000
     0.000000000  0.000000000  4.500000000     0.000000000  0.000000000  0.222222222

  length of vectors
     4.500000000  4.500000000  4.500000000     0.222222222  0.222222222  0.222222222

  position of ions in fractional coordinates (direct lattice)
     0.000000000  0.000000000  0.000000000
     0.250000000  0.250000000  0.250000000
     0.000000000  0.500000000  0.500000000
     0.250000000  0.750000000  0.750000000
     0.500000000  0.000000000  0.500000000
     0.750000000  0.250000000  0.750000000
     0.500000000  0.500000000  0.000000000
     0.750000000  0.750000000  0.250000000

  ion indices of the primitive-cell ions
   primitive index   ion index
                 1           1
                 2           2
                 3           3
                 4           4
                 5           5
                 6           6
                 7           7
                 8           8

 KPOINTS: Automatic KPOINTS generated

Automatic generation of k-mesh.
 Grid dimensions read from file:
 generate k-points for:    7    7    7

 Generating k-lattice:

  Cartesian coordinates                     Fractional coordinates (reciprocal lattice)
     0.031746032  0.000000000  0.000000000     0.142857143  0.000000000  0.000000000
     0.000000000  0.031746032  0.000000000     0.000000000  0.142857143  0.000000000
     0.000000000  0.000000000  0.031746032     0.000000000  0.000000000  0.142857143

  Length of vectors
     0.031746032  0.031746032  0.031746032

  Shift w.r.t. Gamma in fractional coordinates (k-lattice)
     0.000000000  0.000000000  0.000000000

 Subroutine IBZKPT returns following result:

 Found    172 irreducible k-points:

 Following reciprocal coordinates:
            Coordinates               Weight
  0.000000  0.000000  0.000000      1.000000
  0.142857  0.000000  0.000000      2.000000
  0.000000  0.142857  0.000000      2.000000
  0.000000  0.000000  0.142857      2.000000
  0.285714  0.000000  0.000000      2.000000
  0.000000  0.285714  0.000000      2.000000
  0.000000  0.000000  0.285714      2.000000
  0.428571  0.000000  0.000000      2.000000
  0.000000  0.428571  0.000000      2.000000
  0.000000  0.000000  0.428571      2.000000
  0.142857  0.142857  0.000000      2.000000
  0.000000  0.142857  0.142857      2.000000
  0.142857  0.000000  0.142857      2.000000
 -0.142857  0.142857  0.000000      2.000000
 -0.142857  0.000000  0.142857      2.000000
  0.000000 -0.142857  0.142857      2.000000
  0.285714  0.142857  0.000000      2.000000
  0.000000  0.285714  0.142857      2.000000
  0.142857  0.000000  0.285714      2.000000
 -0.142857  0.285714  0.000000      2.000000
 -0.285714  0.000000  0.142857      2.000000
  0.000000  0.142857  0.285714      2.000000
  0.000000 -0.285714  0.142857      2.000000
 -0.142857  0.000000  0.285714      2.000000
  0.285714  0.000000  0.142857      2.000000
  0.000000 -0.142857  0.285714      2.000000
  0.285714 -0.142857  0.000000      2.000000
  0.142857  0.285714  0.000000      2.000000
  0.428571  0.142857  0.000000      2.000000
  0.000000  0.428571  0.142857      2.000000
  0.142857  0.000000  0.428571      2.000000
 -0.142857  0.428571  0.000000      2.000000
 -0.428571  0.000000  0.142857      2.000000
  0.000000  0.142857  0.428571      2.000000
  0.000000 -0.428571  0.142857      2.000000
 -0.142857  0.000000  0.428571      2.000000
  0.428571  0.000000  0.142857      2.000000
  0.000000 -0.142857  0.428571      2.000000
  0.428571 -0.142857  0.000000      2.000000
  0.142857  0.428571  0.000000      2.000000
  0.285714  0.285714  0.000000      2.000000
  0.000000  0.285714  0.285714      2.000000
  0.285714  0.000000  0.285714      2.000000
 -0.285714  0.285714  0.000000      2.000000
 -0.285714  0.000000  0.285714      2.000000
  0.000000 -0.285714  0.285714      2.000000
  0.428571  0.285714  0.000000      2.000000
  0.000000  0.428571  0.285714      2.000000
  0.285714  0.000000  0.428571      2.000000
 -0.285714  0.428571  0.000000      2.000000
 -0.428571  0.000000  0.285714      2.000000
  0.000000  0.285714  0.428571      2.000000
  0.000000 -0.428571  0.285714      2.000000
[...]
   0.75000000  0.25000000  0.75000000
   0.50000000  0.50000000  0.00000000
   0.75000000  0.75000000  0.25000000

 position of ions in cartesian coordinates  (Angst):
   0.00000000  0.00000000  0.00000000
   1.12500000  1.12500000  1.12500000
   0.00000000  2.25000000  2.25000000
   1.12500000  3.37500000  3.37500000
   2.25000000  0.00000000  2.25000000
   3.37500000  1.12500000  3.37500000
   2.25000000  2.25000000  0.00000000
   3.37500000  3.37500000  1.12500000

 k-point     1 :   0.0000 0.0000 0.0000  plane waves:    3887
 k-point     2 :   0.1429 0.0000 0.0000  plane waves:    3827
 k-point     3 :   0.0000 0.1429 0.0000  plane waves:    3827
 k-point     4 :   0.0000 0.0000 0.1429  plane waves:    3827
 k-point     5 :   0.2857 0.0000 0.0000  plane waves:    3855
 k-point     6 :   0.0000 0.2857 0.0000  plane waves:    3855
 k-point     7 :   0.0000 0.0000 0.2857  plane waves:    3855
 k-point     8 :   0.4286 0.0000 0.0000  plane waves:    3836
 k-point     9 :   0.0000 0.4286 0.0000  plane waves:    3836
 k-point    10 :   0.0000 0.0000 0.4286  plane waves:    3836
 k-point    11 :   0.1429 0.1429 0.0000  plane waves:    3834
 k-point    12 :   0.0000 0.1429 0.1429  plane waves:    3834
 k-point    13 :   0.1429 0.0000 0.1429  plane waves:    3834
 k-point    14 :  -0.1429 0.1429 0.0000  plane waves:    3834
 k-point    15 :  -0.1429 0.0000 0.1429  plane waves:    3834
 k-point    16 :   0.0000-0.1429 0.1429  plane waves:    3834
 k-point    17 :   0.2857 0.1429 0.0000  plane waves:    3823
 k-point    18 :   0.0000 0.2857 0.1429  plane waves:    3823
 k-point    19 :   0.1429 0.0000 0.2857  plane waves:    3823
 k-point    20 :  -0.1429 0.2857 0.0000  plane waves:    3823
 k-point    21 :  -0.2857 0.0000 0.1429  plane waves:    3823
 k-point    22 :   0.0000 0.1429 0.2857  plane waves:    3823
 k-point    23 :   0.0000-0.2857 0.1429  plane waves:    3823
 k-point    24 :  -0.1429 0.0000 0.2857  plane waves:    3823
 k-point    25 :   0.2857 0.0000 0.1429  plane waves:    3823
 k-point    26 :   0.0000-0.1429 0.2857  plane waves:    3823
 k-point    27 :   0.2857-0.1429 0.0000  plane waves:    3823
 k-point    28 :   0.1429 0.2857 0.0000  plane waves:    3823
 k-point    29 :   0.4286 0.1429 0.0000  plane waves:    3849
 k-point    30 :   0.0000 0.4286 0.1429  plane waves:    3849
 k-point    31 :   0.1429 0.0000 0.4286  plane waves:    3849
 k-point    32 :  -0.1429 0.4286 0.0000  plane waves:    3849
 k-point    33 :  -0.4286 0.0000 0.1429  plane waves:    3849
 k-point    34 :   0.0000 0.1429 0.4286  plane waves:    3849
 k-point    35 :   0.0000-0.4286 0.1429  plane waves:    3849
 k-point    36 :  -0.1429 0.0000 0.4286  plane waves:    3849
 k-point    37 :   0.4286 0.0000 0.1429  plane waves:    3849
 k-point    38 :   0.0000-0.1429 0.4286  plane waves:    3849
 k-point    39 :   0.4286-0.1429 0.0000  plane waves:    3849
 k-point    40 :   0.1429 0.4286 0.0000  plane waves:    3849
 k-point    41 :   0.2857 0.2857 0.0000  plane waves:    3828
 k-point    42 :   0.0000 0.2857 0.2857  plane waves:    3828
 k-point    43 :   0.2857 0.0000 0.2857  plane waves:    3828
 k-point    44 :  -0.2857 0.2857 0.0000  plane waves:    3828
 k-point    45 :  -0.2857 0.0000 0.2857  plane waves:    3828
 k-point    46 :   0.0000-0.2857 0.2857  plane waves:    3828
 k-point    47 :   0.4286 0.2857 0.0000  plane waves:    3823
 k-point    48 :   0.0000 0.4286 0.2857  plane waves:    3823
 k-point    49 :   0.2857 0.0000 0.4286  plane waves:    3823
 k-point    50 :  -0.2857 0.4286 0.0000  plane waves:    3823
 k-point    51 :  -0.4286 0.0000 0.2857  plane waves:    3823
 k-point    52 :   0.0000 0.2857 0.4286  plane waves:    3823
 k-point    53 :   0.0000-0.4286 0.2857  plane waves:    3823
 k-point    54 :  -0.2857 0.0000 0.4286  plane waves:    3823
 k-point    55 :   0.4286 0.0000 0.2857  plane waves:    3823
 k-point    56 :   0.0000-0.2857 0.4286  plane waves:    3823
 k-point    57 :   0.4286-0.2857 0.0000  plane waves:    3823
 k-point    58 :   0.2857 0.4286 0.0000  plane waves:    3823
 k-point    59 :   0.4286 0.4286 0.0000  plane waves:    3844
 k-point    60 :   0.0000 0.4286 0.4286  plane waves:    3844
[...]
 k-point   158 :   0.2857 0.4286 0.4286  plane waves:    3821
 k-point   159 :   0.4286 0.2857 0.4286  plane waves:    3821
 k-point   160 :  -0.4286 0.4286 0.2857  plane waves:    3821
 k-point   161 :  -0.4286 0.2857 0.4286  plane waves:    3821
 k-point   162 :  -0.2857 0.4286 0.4286  plane waves:    3821
 k-point   163 :  -0.4286-0.4286 0.2857  plane waves:    3821
 k-point   164 :  -0.2857-0.4286 0.4286  plane waves:    3821
 k-point   165 :  -0.4286-0.2857 0.4286  plane waves:    3821
 k-point   166 :   0.4286-0.4286 0.2857  plane waves:    3821
 k-point   167 :   0.4286-0.2857 0.4286  plane waves:    3821
 k-point   168 :   0.2857-0.4286 0.4286  plane waves:    3821
 k-point   169 :   0.4286 0.4286 0.4286  plane waves:    3828
 k-point   170 :  -0.4286 0.4286 0.4286  plane waves:    3828
 k-point   171 :  -0.4286-0.4286 0.4286  plane waves:    3828
 k-point   172 :   0.4286-0.4286 0.4286  plane waves:    3828

 maximum and minimum number of plane-waves per node :       264      219

 maximum number of plane-waves:      3887
 maximum index in each direction:
   IXMAX=   10   IYMAX=   10   IZMAX=   10
   IXMIN=  -10   IYMIN=  -10   IZMIN=  -10

 real space projection operators:
  max/ min on nodes  :         51.25         17.12

 parallel 3D FFT for wavefunctions:
    minimum data exchange during FFTs selected (reduces bandwidth)
 parallel 3D FFT for charge:
    minimum data exchange during FFTs selected (reduces bandwidth)

 Broyden mixing: mesh for mixing (old mesh)
   NGX = 19   NGY = 19   NGZ = 19
  (NGX  = 60   NGY  = 60   NGZ  = 60)
  gives a total of   6859 points

 initial charge density was supplied:
 charge density of overlapping atoms calculated
 number of electron      32.0000000 magnetization       1.0000000
 keeping initial charge density in first step

 Maximum index for non-local projection operator          137
 Maximum index for augmentation-charges         1093 (set IRDMAX)

 First call to EWALD:  gamma=   0.394
 Maximum number of real-space cells 3x 3x 3
 Maximum number of reciprocal cells 3x 3x 3

--------------------------------------- Ionic step        1  -------------------------------------------

--------------------------------------- Iteration      1(   1)  ---------------------------------------

 eigenvalue-minimisations  : 13760
 total energy-change (2. order) : 0.1160784E+03  (-0.1713264E+04)
 number of electron      32.0000000 magnetization       1.0000000
 augmentation part       32.0000000 magnetization       1.0000000

 Free energy of the ion-electron system (eV)
  alpha Z        PSCENC =        40.66847844
  Ewald energy   TEWEN  =     -1103.19998661
  -Hartree energ DENC   =       -90.20575101
  -exchange      EXHF   =         0.00000000
  -V(xc)+E(xc)   XCENC  =        16.52177217
  PAW double counting   =       786.56987238     -718.47344176
  entropy T*S    EENTRO =        -0.00005285
  eigenvalues    EBANDS =       183.31996175
  atomic energy  EATOM  =      1000.87752534
  Solvation  Ediel_sol  =         0.00000000
  free energy    TOTEN  =       116.07837784 eV

  energy without entropy =      116.07843070  energy(sigma->0) =      116.07840427

[...]

 eigenvalue-minimisations  : 19552
 total energy-change (2. order) :-0.1705249E+03  (-0.1642929E+03)
 number of electron      32.0000000 magnetization       1.0000000
 augmentation part       32.0000000 magnetization       1.0000000

[...]

 Broyden mixing:
  rms(total) = 0.15047E+01    rms(broyden)= 0.15047E+01
  rms(prec ) = 0.31457E+01
  weight for this iteration     100.00

[...]

 eigenvalues of (default mixing * dielectric matrix)
  average eigenvalue GAMMA=   0.8347
  0.8347

[...]

 eigenvalue-minimisations  : 16944
 total energy-change (2. order) : 0.3114378E-04  (-0.8312525E-04)
 number of electron      32.0000000 magnetization       1.0000000
 augmentation part       -0.5282478 magnetization       0.0148873

[...]

 Broyden mixing:
  rms(total) = 0.46539E-04    rms(broyden)= 0.46539E-04
  rms(prec ) = 0.54010E-04
  weight for this iteration     100.00

 eigenvalues of (default mixing * dielectric matrix)
  average eigenvalue GAMMA=   0.9800
  2.0675  1.8296  1.6605  0.9455  0.8892  0.8892  0.6006  0.5173  0.4745  0.4745
  0.4312

[...]

--------------------------------------- Iteration      1(  17)  ---------------------------------------

 eigenvalue-minimisations  :  7832
 total energy-change (2. order) :-0.1515809E-07  (-0.6846307E-09)
 number of electron      32.0000000 magnetization       1.0000000
 augmentation part       -0.5284892 magnetization       0.0146614

 Free energy of the ion-electron system (eV)
  alpha Z        PSCENC =        40.66847844
  Ewald energy   TEWEN  =     -1103.19998661
  -Hartree energ DENC   =      -128.12541195
  -exchange      EXHF   =         0.00000000
  -V(xc)+E(xc)   XCENC  =        20.09848955
  PAW double counting   =      3322.83173313    -3255.19937990
  entropy T*S    EENTRO =        -0.00029318
  eigenvalues    EBANDS =        43.60012206
  atomic energy  EATOM  =      1000.87752534
  Solvation  Ediel_sol  =         0.00000000
  free energy    TOTEN  =       -58.44872311 eV

  energy without entropy =      -58.44842993  energy(sigma->0) =      -58.44857652

 average (electrostatic) potential at core
  the test charge radii are     0.6991  0.9892  0.6991  0.9892  0.6991  0.9892  0.6991  0.9892
  (the norm of the test charge is              1.0000)
       1 -46.3963       2 -81.7170       3 -46.3963       4 -81.7170       5 -46.3963
       6 -81.7170       7 -46.3963       8 -81.7170

 E-fermi :   6.2914     XC(G=0): -10.9761     alpha+bet :-14.9276

 val. band max:       10.1759217035   @ k =   0.0000   0.2857   0.2857
 cond. band min:       6.3189692389   @ k =  -0.2857   0.2857   0.2857
 fundamental gap:     -3.8569524646
 Fermi energy:        10.1766615030

 spin component 1

 k-point     1 :       0.0000    0.0000    0.0000
  band No.  band energies     occupation
      1      -7.7706      1.00000
      2      -3.2384      1.00000
      3      -3.2384      1.00000
      4      -3.2384      1.00000
      5      -0.5790      1.00000
      6      -0.5790      1.00000
      7      -0.5790      1.00000
      8       3.8891      1.00000
      9       3.8891      1.00000
     10       3.8891      1.00000
     11       3.8891      1.00000
     12       3.8891      1.00000
     13       3.8891      1.00000
     14       6.8414      1.00000
     15       6.8414      1.00000
     16       6.8414      1.00000
     17       8.2902      1.00000
     18       8.2902      1.00000
     19       8.2902      1.00000
     20      10.9776      0.00000

[...]

 k-point   172 :       0.4286   -0.4286    0.4286
  band No.  band energies     occupation
      1      -4.9228      1.00000
      2      -4.5453      1.00000
      3      -4.5453      1.00000
      4      -4.5453      1.00000
      5      -0.9854      1.00000
      6      -0.9854      1.00000
      7      -0.9854      1.00000
      8      -0.6132      1.00000
      9       5.4422      1.00000
     10       5.4422      1.00000
     11       5.4422      1.00000
     12       5.6970      1.00000
     13       5.6970      1.00000
     14       5.6970      1.00000
     15       5.8733      1.00000
     16       5.8733      1.00000
     17      11.5399      0.00000
     18      11.7730      0.00000
     19      11.7730      0.00000
     20      11.7730      0.00000
 Fermi energy:         6.2914045375

 spin component 2

[...]

 k-point   172 :       0.4286   -0.4286    0.4286
  band No.  band energies     occupation
      1      -4.7598      1.00000
      2      -4.3847      1.00000
      3      -4.3847      1.00000
      4      -4.3847      1.00000
      5      -0.7980      1.00000
      6      -0.7980      1.00000
      7      -0.7980      1.00000
      8      -0.4275      1.00000
      9       5.5989      1.00000
     10       5.5989      1.00000
     11       5.5989      1.00000
     12       5.8539      1.00000
     13       5.8539      1.00000
     14       5.8539      1.00000
     15       6.0303      1.00000
     16       6.0303      1.00000
     17      11.7216      0.00000
     18      11.9654      0.00000
     19      11.9654      0.00000
     20      11.9654      0.00000

 soft charge-density along one line, spin component           1
         0         1         2         3         4         5         6         7         8         9
 total charge-density along one line

 soft charge-density along one line, spin component           2
         0         1         2         3         4         5         6         7         8         9
 total charge-density along one line

------------------------ aborting loop because EDIFF is reached ----------------------------------------

  FORCE on cell =-STRESS in cart. coord.  units (eV):
  Direction    XX          YY          ZZ          XY          YZ          ZX
  Alpha Z    40.66848    40.66848    40.66848
  Ewald    -367.73396  -367.73396  -367.73396    -0.00000     0.00000    -0.00000
  Hartree    42.70858    42.70858    42.70858     0.00000    -0.00000    -0.00000
  E(xc)    -110.95494  -110.95494  -110.95494     0.00000     0.00000    -0.00000
  Local     -86.67468   -86.67468   -86.67468    -0.00000     0.00000     0.00000
  n-local   134.08297   134.08297   134.08297    -0.00000    -0.00000     0.00000
  augment   -22.60646   -22.60646   -22.60646    -0.00000     0.00000     0.00000
  Kinetic   362.20426   362.20426   362.20426     0.00000    -0.00000    -0.00000
  Fock        0.00000     0.00000     0.00000     0.00000     0.00000     0.00000
  Total      -8.30575    -8.30575    -8.30575     0.00000     0.00000    -0.00000
  in kB    -146.03326  -146.03326  -146.03326     0.00000     0.00003    -0.00001

 VOLUME and BASIS-vectors are now :
  energy-cutoff  :      700.00
  volume of cell :       91.12
      direct lattice vectors                 reciprocal lattice vectors
     4.500000000  0.000000000  0.000000000     0.222222222  0.000000000  0.000000000
     0.000000000  4.500000000  0.000000000     0.000000000  0.222222222  0.000000000
     0.000000000  0.000000000  4.500000000     0.000000000  0.000000000  0.222222222

  length of vectors
     4.500000000  4.500000000  4.500000000     0.222222222  0.222222222  0.222222222

 FORCES acting on ions
    electron-ion (+dipol)            ewald-force                    non-local-force                 convergence-correction
   -.252E-06 -.650E-06 0.148E-06   0.107E-13 0.000E+00 0.355E-14   -.640E-06 -.422E-07 -.102E-06   0.872E-06 0.594E-06 -.671E-08
   0.145E-04 -.194E-04 0.405E-05   -.456E-14 -.723E-14 -.106E-13   0.277E-05 -.354E-05 0.138E-05   -.152E-04 0.207E-04 -.480E-05
   -.655E-07 0.260E-07 0.408E-07   0.107E-13 0.000E+00 0.000E+00   -.623E-06 0.121E-06 0.182E-07   0.556E-06 -.214E-06 -.934E-07
   0.148E-04 0.199E-04 -.451E-05   -.471E-14 -.710E-14 -.136E-13   0.255E-05 0.314E-05 -.946E-06   -.153E-04 -.207E-04 0.478E-05
   0.122E-06 -.275E-06 0.103E-06   -.355E-14 0.711E-14 0.142E-13   -.451E-06 -.123E-06 0.101E-06   0.220E-06 0.314E-06 -.228E-06
   -.137E-04 -.193E-04 -.438E-05   -.107E-13 0.844E-17 0.633E-15   -.289E-05 -.374E-05 -.111E-05   0.148E-04 0.207E-04 0.479E-05
   0.264E-07 0.403E-06 0.485E-07   -.355E-14 0.711E-14 0.107E-13   -.374E-06 0.167E-06 -.301E-07   0.225E-06 -.521E-06 0.536E-07
   -.139E-04 0.199E-04 0.352E-05   -.106E-13 0.900E-16 -.366E-14   -.269E-05 0.319E-05 0.168E-05   0.148E-04 -.207E-04 -.456E-05
   0.153E-05 0.617E-06 -.970E-06   -.164E-13 -.217E-16 0.117E-14   -.235E-05 -.834E-06 0.986E-06   0.102E-05 0.117E-06 -.689E-07

 POSITION                                       TOTAL-FORCE (eV/Angst)
      0.00000      0.00000      0.00000        -0.000000     -0.000000      0.000000
      1.12500      1.12500      1.12500         0.000002     -0.000002      0.000001
      0.00000      2.25000      2.25000        -0.000000     -0.000000     -0.000000
      1.12500      3.37500      3.37500         0.000002      0.000002     -0.000001
      2.25000      0.00000      2.25000        -0.000000     -0.000000     -0.000000
      3.37500      1.12500      3.37500        -0.000002     -0.000002     -0.000001
      2.25000      2.25000      0.00000        -0.000000      0.000000      0.000000
      3.37500      3.37500      1.12500        -0.000002      0.000002      0.000001
    total drift:                                0.000000     -0.000000     -0.000000

  FREE ENERGIE OF THE ION-ELECTRON SYSTEM (eV)
  free  energy   TOTEN  =       -58.44872311 eV

  energy  without entropy=      -58.44842993  energy(sigma->0) =      -58.44857652