 vasp.6.4.3 19Mar24 (build Oct 22 2024 11:23:12) complex

 executed on             LinuxIFC date 2025.06.09  08:14:58

 INCAR:
   SYSTEM = Si and Ge interface calculation
   ISTART = 0
   ICHARG = 2
   LWAVE = .FALSE.
   LREAL = AUTO
   ENCUT = 700
   ENAUG = 900
   ADDGRID = .TRUE.
   LMAXMIX = 6
   LASPH = .TRUE.
   LMIXTAU = .TRUE.
   NCORE = 16
   NELM = 100
   NBANDS = 461
   EDIFF = 1d-7
   AMIX = 0.6
   ISMEAR = 0
   SIGMA = 0.01
   NELECT = 768
   ISPIN = 2
   NUPDOWN = 1
   LVTOT = .FALSE.
   LVHAR = .TRUE.

 POTCAR:    PAW_PBE Ge 05Jan2001
 POTCAR:    PAW_PBE Si 05Jan2001
|           W    W    AA    RRRRR   N    N  II  N    N   GGGG   !!!           |
|           W    W   A  A   R    R  NN   N  II  NN   N  G    G  !!!           |
|           W    W  A    A  R    R  N N  N  II  N N  N  G       !!!           |
|           W WW W  AAAAAA  RRRRR   N  N N  II  N  N N  G  GGG   !            |
|           WW  WW  A    A  R   R   N   NN  II  N   NN  G    G                |
|           W    W  A    A  R    R  N    N  II  N    N   GGGG   !!!           |
|     You use a magnetic or noncollinear calculation, but did not specify     |
|     the initial magnetic moment with the MAGMOM tag. Note that a            |
|     default of 5.208e-3 will be used for all atoms. This ferromagnetic      |
|     setup may break the symmetry of the crystal, in particular it may       |
|     rule out finding an antiferromagnetic solution. Thence, we              |
|     recommend setting the initial magnetic moment manually or verifying     |
|     carefully that this magnetic setup is desired.                          |

 POTCAR:    PAW_PBE Ge 05Jan2001
   VRHFIN =Ge: s2p2

   TITEL  = PAW_PBE Ge 05Jan2001
   POMASS =   72.610; ZVAL   =    4.000    mass and valenz
   ENMAX  =  173.807; ENMIN  =  130.355 eV

 POTCAR:    PAW_PBE Si 05Jan2001
   VRHFIN =Si: s2p2

   TITEL  = PAW_PBE Si 05Jan2001
   POMASS =   28.085; ZVAL   =    4.000    mass and valenz
   ENMAX  =  245.345; ENMIN  =  184.009 eV

 Optimization of the real space projectors (new method)

 maximal supplied QI-value         = 16.25
 optimisation between [QCUT,QGAM] = [ 13.49, 26.98] = [ 50.95,203.80] Ry
 Optimized for a Real-space Cutoff    1.25 Angstroem

   l    n(q)    QCUT    max X(q) W(low)/X(q) W(high)/X(q)  e(spline)
   0     10    13.489    65.336    0.91E-04    0.11E-03    0.34E-06
   0     10    13.489    52.220    0.89E-04    0.11E-03    0.34E-06
   1     10    13.489    36.409    0.22E-03    0.27E-03    0.14E-06
   1     10    13.489    21.334    0.21E-03    0.27E-03    0.14E-06
   2      9    13.489     4.673    0.11E-03    0.12E-03    0.19E-06
 Optimization of the real space projectors (new method)

 maximal supplied QI-value         = 19.84
 optimisation between [QCUT,QGAM] = [ 13.49, 26.99] = [ 50.98,203.92] Ry
 Optimized for a Real-space Cutoff    1.07 Angstroem

   l    n(q)    QCUT    max X(q) W(low)/X(q) W(high)/X(q)  e(spline)
   0      9    13.493   159.560    0.22E-03    0.15E-03    0.72E-07
   0      9    13.493   115.863    0.21E-03    0.15E-03    0.71E-07
   1      8    13.493    88.339    0.15E-03    0.11E-03    0.13E-06
   1      8    13.493    48.592    0.15E-03    0.10E-03    0.13E-06
  PAW_PBE Ge 05Jan2001                  :
  PAW_PBE Si 05Jan2001                  :

 POSCAR: Ge+Si
  positions in direct lattice

 exchange-correlation table for PE
   RHO(1)=    0.500       N(1)  =     2000
   RHO(2)=  100.500       N(2)  =     4000

 ion  position               nearest neighbor table
   1  0.130  0.826  0.397- 151 0.79 181 1.81  72 2.45  35 2.45 115 3.00
   2  0.964  0.076  0.000-  78 2.08 108 2.35  64 2.45  21 2.45 165 2.60 164 2.75 141 2.75
   3  0.797  0.426  0.079- 117 1.96 102 2.32 189 2.40  65 2.45  68 2.45  22 2.45
   4  0.630  0.776  0.159-  66 2.45  69 2.45  32 2.45  23 2.45 114 2.46  97 2.76 171 2.92
   5  0.464  0.126  0.238-  79 2.44  61 2.45  33 2.45  70 2.45  24 2.45 136 3.01
   6  0.297  0.476  0.318- 142 1.71  34 2.45  19 2.45  71 2.45  85 2.85 175 2.89
   7  0.464  0.826  0.397- 184 2.08  97 2.35  60 2.45  23 2.45 154 2.60 137 2.75 127 2.75
   8  0.297  0.076  0.000- 177 1.22 144 2.18  70 2.45  27 2.45 111 2.91
   9  0.130  0.426  0.079- 120 2.06 183 2.36  71 2.45  56 2.45  28 2.45
  10  0.964  0.776  0.159- 105 1.97  72 2.45  57 2.45  20 2.45  29 2.45
  11  0.797  0.126  0.238-  67 2.45  21 2.45  58 2.45  30 2.45  82 2.52 126 2.70 148 2.77
  12  0.630  0.476  0.318-  88 2.44  22 2.45  25 2.45  59 2.45 157 2.57 121 2.62
  13  0.797  0.826  0.397- 160 1.22 130 2.18  66 2.45  29 2.45 100 2.91
  14  0.630  0.076  0.000- 180 0.79  93 1.81  58 2.45  33 2.45 147 3.00
  15  0.464  0.426  0.079- 186 1.46  59 2.45  62 2.45  34 2.45  99 2.63
  16  0.297  0.776  0.159-  60 2.45  63 2.45  26 2.45  35 2.45 168 2.74 129 2.96
  17  0.130  0.126  0.238- 133 2.20  55 2.45  27 2.45  64 2.45  36 2.45
  18  0.964  0.476  0.318- 139 1.12  28 2.45  31 2.45  65 2.45 124 2.57
  19  0.214  0.576  0.397-  85 0.42 118 2.32  53 2.45   6 2.45 172 2.45
  20  0.047  0.826  0.000- 105 1.68 135 1.71  10 2.45  45 2.45 168 2.59 104 2.98
  21  0.880  0.176  0.079- 126 1.75 141 2.30  46 2.45  11 2.45   2 2.45 174 2.51
  22  0.714  0.526  0.159-  50 2.45  12 2.45  47 2.45   3 2.45 132 2.67 157 2.96
  23  0.547  0.876  0.238-  51 2.45  48 2.45   7 2.45   4 2.45  97 2.47 136 2.89
  24  0.380  0.226  0.318-  79 1.10  52 2.45  43 2.45   5 2.45 166 3.02 109 3.03
  25  0.547  0.576  0.397-  88 1.68 121 1.71  41 2.45  12 2.45 157 2.59  98 2.98
  26  0.380  0.826  0.000- 111 2.14  81 2.30  16 2.45  51 2.45 171 2.48 138 2.73 128 2.83
  27  0.214  0.176  0.079- 177 1.78  52 2.45  17 2.45   8 2.45 144 2.70
  28  0.047  0.526  0.159- 183 2.02  38 2.45  18 2.45  53 2.45   9 2.45 139 2.86
  29  0.880  0.876  0.238- 160 2.29  54 2.45  39 2.45  13 2.45  10 2.45 165 2.97
  30  0.714  0.226  0.318-  40 2.45  49 2.45  11 2.45 145 2.48  82 2.53
  31  0.880  0.576  0.397- 100 2.14 187 2.30  47 2.45  18 2.45 139 2.48 124 2.73 101 2.83
  32  0.714  0.826  0.000- 114 0.42 150 2.32   4 2.45  39 2.45  84 2.45
  33  0.547  0.176  0.079- 123 1.73  40 2.45   5 2.45  14 2.45 180 2.66
  34  0.380  0.526  0.159- 186 2.33  44 2.45  41 2.45   6 2.45  15 2.45
  35  0.214  0.876  0.238-  94 2.32  42 2.45  45 2.45   1 2.45  16 2.45 168 2.76 151 3.03
  36  0.047  0.226  0.318-  76 1.75 163 2.42  46 2.45  37 2.45  17 2.45 148 2.74
  37  0.130  0.326  0.397-  76 0.79 106 1.81  36 2.45  71 2.45 163 3.00
  38  0.964  0.576  0.000- 153 2.08 183 2.35  28 2.45  57 2.45 117 2.60 116 2.75  75 2.75
  39  0.797  0.926  0.079- 165 1.96 150 2.32 114 2.40  29 2.45  58 2.45  32 2.45
  40  0.630  0.276  0.159-  30 2.45  33 2.45  68 2.45  59 2.45 189 2.46 145 2.76 123 2.92
  41  0.464  0.626  0.238- 154 2.44  25 2.45  69 2.45  34 2.45  60 2.45  88 3.01
  42  0.297  0.976  0.318-  94 1.71  35 2.45  70 2.45  55 2.45 133 2.85 127 2.89
  43  0.464  0.326  0.397- 109 2.08 145 2.35  24 2.45  59 2.45  79 2.60  89 2.75 175 2.75
  44  0.297  0.576  0.000- 129 1.22  96 2.18  34 2.45  63 2.45 186 2.91
  45  0.130  0.926  0.079- 168 2.06 108 2.36  35 2.45  64 2.45  20 2.45
  46  0.964  0.276  0.159- 174 1.97  36 2.45  21 2.45  56 2.45  65 2.45
  47  0.797  0.626  0.238-  31 2.45  57 2.45  22 2.45  66 2.45 157 2.52 192 2.70 100 2.77
  48  0.630  0.976  0.318- 136 2.44  23 2.45  58 2.45  61 2.45  82 2.57 169 2.62
  49  0.797  0.326  0.397-  91 1.22 178 2.18  30 2.45  65 2.45 148 2.91
  50  0.630  0.576  0.000- 132 0.79 162 1.81  22 2.45  69 2.45  99 3.00
  51  0.464  0.926  0.079- 111 1.46  23 2.45  70 2.45  26 2.45 147 2.63
  52  0.297  0.276  0.159-  24 2.45  27 2.45  62 2.45  71 2.45 120 2.74 177 2.96
  53  0.130  0.626  0.238-  85 2.20  19 2.45  63 2.45  28 2.45  72 2.45
  54  0.964  0.976  0.318-  73 1.12  29 2.45  64 2.45  67 2.45 190 2.57
  55  0.214  0.076  0.397- 133 0.42 166 2.32  17 2.45  42 2.45 103 2.45
  56  0.047  0.326  0.000- 174 1.68  87 1.71  46 2.45   9 2.45 120 2.59 173 2.98
  57  0.880  0.676  0.079- 192 1.75  75 2.30  47 2.45  10 2.45  38 2.45 105 2.51
  58  0.714  0.026  0.159-  14 2.45  39 2.45  48 2.45  11 2.45 180 2.67  82 2.96
  59  0.547  0.376  0.238-  15 2.45  43 2.45  40 2.45  12 2.45 145 2.47  88 2.89
  60  0.380  0.726  0.318- 154 1.10  16 2.45   7 2.45  41 2.45 118 3.02 184 3.03
[...]
 178  0.698  0.345  0.518-  49 2.18  91 2.35 145 2.35  92 2.40 158 2.40
 179  0.648  0.195  0.759-  92 2.35 146 2.35  93 2.40 159 2.40
 180  0.598  0.045  1.000-  14 0.79  93 2.35 147 2.35  33 2.66  58 2.67
 181  0.198  0.845  0.518-   1 1.81  94 2.35 151 2.35 134 2.40  95 2.40
 182  0.148  0.695  0.759-  95 2.35 152 2.35 135 2.40  96 2.40
 183  0.098  0.545  1.000-  28 2.02  96 2.35 153 2.35  38 2.35   9 2.36
 184  0.498  0.745  0.518-   7 2.08 154 2.35  97 2.35  98 2.40 137 2.40  60 3.03
 185  0.448  0.595  0.759- 155 2.35  98 2.35  99 2.40 138 2.40
 186  0.398  0.445  1.000-  15 1.46  62 2.14  34 2.33 156 2.35  99 2.35  44 2.91
 187  0.798  0.645  0.518-  31 2.30 157 2.35 100 2.35 101 2.40 161 2.40
 188  0.748  0.495  0.759- 158 2.35 101 2.35 102 2.40 162 2.40
 189  0.698  0.345  1.000-  68 0.42 159 2.35 102 2.35   3 2.40  40 2.46
 190  0.898  0.945  0.518- 160 2.35  73 2.35 149 2.40  74 2.40  54 2.57  67 2.73
 191  0.848  0.795  0.759-  74 2.35 161 2.35 150 2.40  75 2.40
 192  0.798  0.645  1.000-  57 1.75 162 2.35  75 2.35  47 2.70

  LATTYP: Found a simple orthorhombic cell.
 ALAT       =    11.2616443630
 B/A-ratio  =     1.5071866567
 C/A-ratio  =     1.5887142435

  Lattice vectors:

 A1 = (   0.0000000000,   0.0000000000,  11.2616443630)
 A2 = (  16.9734001160,   0.0000000000,   0.0000000000)
 A3 = (   0.0000000000,  17.8915348050,   0.0000000000)

Analysis of symmetry for initial positions (statically):
 Subroutine PRICEL returns following result:

[...]

   2 primitive cells build up your supercell.

 Routine SETGRP: Setting up the symmetry group for a
 simple orthorhombic supercell.

 Subroutine GETGRP returns: Found  1 space group operations
 (whereof  1 operations were pure point group operations)
 out of a pool of  8 trial point group operations.

The static configuration has the point symmetry C_1 .

Analysis of symmetry for dynamics (positions and initial velocities):
 Subroutine PRICEL returns following result:

[...]

The dynamic configuration has the point symmetry C_1 .

Analysis of structural, dynamic, and magnetic symmetry:
 Subroutine PRICEL returns following result:

  LATTYP: Found a simple orthorhombic cell.
 ALAT       =     8.9457681897
 B/A-ratio  =     1.2588795198
 C/A-ratio  =     1.8973664146

  Lattice vectors:

 A1 = (   0.0000000000,   8.9457681897,   0.0000000563)
 A2 = (   0.0000000000,   0.0000000000,  11.2616443630)
 A3 = (  16.9734001160,   0.0000000000,   0.0000000000)

   2 primitive cells build up your supercell.

 Routine SETGRP: Setting up the symmetry group for a
 simple orthorhombic supercell.

 Subroutine GETGRP returns: Found  1 space group operations
 (whereof  1 operations were pure point group operations)
 out of a pool of  8 trial point group operations.

The overall configuration has the point symmetry C_1 .

 Subroutine INISYM returns: Found  1 space group operations
 (whereof  1 operations are pure point group operations),
[...]
     0.000000000  0.000000000 11.261644363     0.000000000  0.000000000  0.088796979

  length of vectors
    16.973400116 17.891534805 11.261644363     0.058915715  0.055892354  0.088796979

 FORCES acting on ions
    electron-ion (+dipol)            ewald-force                    non-local-force                 convergence-correction
   0.237E+01 -.277E+02 0.115E+02   0.219E+03 0.259E+03 -.142E+02   0.121E+02 0.168E+02 -.699E+01   0.205E-03 -.359E-03 0.293E-04
   0.154E+02 -.151E+02 -.705E+01   -.156E+02 0.161E+02 0.790E+01   -.236E+01 0.286E+01 0.279E+01   0.250E-05 -.901E-04 -.249E-05
   0.436E+01 -.187E+02 -.296E+02   -.702E+01 0.183E+02 0.307E+02   -.461E+01 -.531E+00 0.455E+01   -.638E-03 -.278E-03 -.381E-03
   0.411E+00 0.117E+02 -.147E+02   0.294E+00 -.110E+02 0.133E+02   0.587E+00 -.399E+00 0.133E-01   0.115E-03 0.154E-03 -.714E-03
   -.514E+01 0.517E+01 0.164E+02   0.627E+01 -.637E+01 -.169E+02   -.689E-01 0.862E+00 -.441E+00   0.701E-04 -.885E-04 -.291E-03
   -.113E+02 -.321E+02 0.246E+02   0.112E+02 0.394E+02 -.272E+02   -.658E+00 0.137E+02 -.836E+01   -.121E-03 0.233E-03 0.668E-04
   0.146E+02 -.306E+02 0.776E+01   -.156E+02 0.324E+02 -.790E+01   -.189E+01 0.381E+01 -.319E+01   -.331E-03 -.194E-03 -.151E-03
   -.133E+02 0.653E+02 0.384E+01   0.140E+02 -.145E+03 -.375E+01   0.291E+00 -.393E+02 0.144E+01   0.203E-03 -.156E-03 -.322E-04
   -.195E+01 -.148E+02 -.134E+02   0.208E+01 0.149E+02 0.134E+02   -.242E+01 0.291E+01 0.230E+01   0.236E-03 0.272E-03 0.110E-03
   0.119E+02 -.139E+02 -.325E+02   -.125E+02 0.138E+02 0.350E+02   -.190E+01 0.208E+01 0.590E+01   0.112E-03 -.854E-04 0.139E-03
   -.404E+01 0.256E+01 0.128E+02   0.404E+01 -.290E+01 -.128E+02   0.144E+00 -.206E+00 -.362E+00   -.197E-03 -.556E-04 -.232E-03
   -.232E+02 0.225E+02 0.122E+02   0.248E+02 -.237E+02 -.115E+02   0.600E+00 -.728E+00 -.157E+01   -.117E-03 0.122E-03 -.346E-03
   -.145E+02 0.493E+02 -.435E+01   0.140E+02 -.128E+03 0.375E+01   -.748E-02 -.382E+02 -.671E+00   -.751E-05 -.303E-03 -.958E-04
   0.271E+01 -.141E+02 -.127E+02   0.219E+03 0.243E+03 0.142E+02   0.109E+02 0.169E+02 0.785E+01   -.376E-03 -.353E-03 -.101E-03
   -.528E+02 0.142E+02 -.351E+02   0.769E+02 -.206E+02 0.532E+02   0.200E+02 -.623E+01 0.170E+02   0.952E-04 0.252E-03 -.164E-03
   -.323E+01 0.158E+01 -.104E+02   0.373E+01 -.171E+01 0.114E+02   -.385E+00 0.378E+00 -.834E+00   0.503E-04 -.156E-03 0.119E-03
   0.149E+02 -.134E+02 0.245E+02   -.136E+02 0.120E+02 -.218E+02   -.146E+01 0.102E+01 -.307E+01   -.138E-03 0.112E-03 -.390E-03
   0.935E+01 0.185E+02 0.449E+02   -.663E+02 -.531E+02 -.134E+03   -.202E+02 -.115E+02 -.312E+02   0.241E-03 0.217E-03 -.569E-04
   -.216E+02 0.259E+02 -.333E+01   0.801E+03 -.100E+04 0.438E+01   -.731E+00 -.110E+01 -.120E+01   0.827E-04 0.140E-03 -.210E-04
   0.976E+01 -.461E+02 -.188E+02   -.980E+01 0.587E+02 0.260E+02   0.124E+00 0.173E+02 0.104E+02   0.147E-03 -.708E-04 0.640E-04
   -.106E+02 -.124E+02 -.364E+02   0.145E+02 0.138E+02 0.404E+02   0.917E+01 0.430E+01 0.777E+01   -.211E-03 0.116E-03 -.278E-04
   -.790E+01 0.920E+01 -.936E+01   0.798E+01 -.960E+01 0.971E+01   0.283E-01 0.367E+00 -.710E-01   -.397E-03 -.203E-04 -.487E-03
   0.417E+01 -.659E+01 0.170E+02   -.369E+01 0.693E+01 -.173E+02   -.628E+00 0.174E+00 -.481E+00   -.597E-04 -.102E-03 -.436E-03
   0.280E+02 -.236E+02 0.407E+02   -.635E+02 0.846E+02 -.137E+03   -.943E+01 0.187E+02 -.312E+02   -.283E-04 0.106E-03 -.104E-03
   0.919E+01 -.623E+02 0.184E+02   -.981E+01 0.750E+02 -.260E+02   -.112E+00 0.184E+02 -.109E+02   -.249E-03 0.149E-03 -.145E-03
   -.241E+01 0.265E+02 0.381E+00   0.237E+01 -.284E+02 -.758E+00   0.270E+00 -.356E+01 0.125E+01   0.813E-04 -.109E-03 0.878E-04
   0.466E+02 -.268E+02 -.236E+02   -.520E+02 0.300E+02 0.252E+02   -.942E+01 0.416E+01 0.715E+01   0.130E-03 0.389E-04 -.615E-04
   0.985E+01 0.382E+01 -.289E+02   -.106E+02 -.322E+01 0.299E+02   -.144E+01 -.860E+00 0.491E+01   0.313E-03 0.189E-03 0.110E-03
   -.131E+02 0.994E+01 0.160E+02   0.130E+02 -.893E+01 -.177E+02   0.167E+01 -.761E+00 -.150E+01   -.201E-04 -.154E-03 -.298E-03
   0.584E+01 0.373E+01 0.755E+01   -.628E+01 -.372E+01 -.730E+01   -.362E+00 -.328E+00 -.142E-01   -.200E-03 0.623E-04 -.336E-03
   -.355E+01 0.123E+02 -.247E+00   0.237E+01 -.121E+02 0.758E+00   0.979E+00 -.305E+01 -.102E+01   0.157E-03 0.105E-03 0.137E-04
   -.216E+02 0.402E+02 0.331E+01   0.801E+03 -.102E+04 -.438E+01   0.224E+00 -.718E+00 0.788E+00   -.463E-03 0.210E-03 -.606E-04
   -.711E+01 0.224E+02 -.214E+02   0.988E+01 -.267E+02 0.251E+02   0.623E+01 -.969E+01 0.781E+01   0.205E-03 -.226E-03 -.306E-03
   0.164E+01 -.111E+02 -.190E+02   -.289E+01 0.118E+02 0.194E+02   0.727E+00 -.495E-01 0.192E+01   -.737E-04 0.161E-03 -.523E-04
   0.880E+01 -.416E+01 0.161E+02   -.856E+01 0.435E+01 -.164E+02   -.129E+01 -.423E+00 -.116E+01   0.181E-03 -.305E-03 0.152E-03
   0.235E+02 0.431E+02 0.317E+02   -.258E+02 -.468E+02 -.343E+02   -.803E+01 -.114E+02 -.894E+01   0.130E-03 0.162E-03 0.505E-04
   0.237E+01 -.277E+02 0.115E+02   0.219E+03 0.259E+03 -.142E+02   0.121E+02 0.168E+02 -.699E+01   0.189E-03 0.244E-03 0.501E-04
   0.154E+02 -.151E+02 -.705E+01   -.156E+02 0.161E+02 0.790E+01   -.236E+01 0.286E+01 0.279E+01   0.115E-03 0.331E-04 0.565E-04
   0.436E+01 -.187E+02 -.296E+02   -.702E+01 0.183E+02 0.307E+02   -.461E+01 -.531E+00 0.455E+01   -.672E-03 -.477E-03 -.379E-03
   0.410E+00 0.117E+02 -.147E+02   0.294E+00 -.110E+02 0.133E+02   0.587E+00 -.399E+00 0.133E-01   0.193E-03 0.297E-03 -.769E-03
   -.514E+01 0.517E+01 0.164E+02   0.627E+01 -.637E+01 -.169E+02   -.689E-01 0.862E+00 -.441E+00   -.157E-03 0.856E-04 -.154E-03
   -.113E+02 -.321E+02 0.246E+02   0.112E+02 0.394E+02 -.272E+02   -.658E+00 0.137E+02 -.836E+01   0.155E-03 -.505E-03 -.719E-04
   0.146E+02 -.306E+02 0.776E+01   -.156E+02 0.324E+02 -.790E+01   -.189E+01 0.381E+01 -.319E+01   -.192E-03 0.175E-03 -.112E-03
   -.133E+02 0.653E+02 0.384E+01   0.140E+02 -.145E+03 -.375E+01   0.291E+00 -.393E+02 0.144E+01   0.707E-04 0.115E-03 0.793E-04
   -.195E+01 -.148E+02 -.134E+02   0.208E+01 0.149E+02 0.134E+02   -.242E+01 0.291E+01 0.230E+01   0.241E-03 -.184E-03 0.966E-04
   0.119E+02 -.139E+02 -.325E+02   -.125E+02 0.138E+02 0.350E+02   -.190E+01 0.208E+01 0.590E+01   -.632E-05 0.180E-03 0.653E-04
   -.404E+01 0.256E+01 0.128E+02   0.404E+01 -.290E+01 -.128E+02   0.144E+00 -.206E+00 -.362E+00   -.125E-03 -.785E-06 -.155E-03
   -.232E+02 0.225E+02 0.122E+02   0.248E+02 -.237E+02 -.115E+02   0.600E+00 -.728E+00 -.157E+01   -.112E-03 -.127E-03 -.412E-03
   -.145E+02 0.493E+02 -.435E+01   0.140E+02 -.128E+03 0.375E+01   -.748E-02 -.382E+02 -.671E+00   -.338E-04 -.505E-04 -.907E-04
   0.271E+01 -.141E+02 -.127E+02   0.219E+03 0.243E+03 0.142E+02   0.109E+02 0.169E+02 0.785E+01   -.374E-03 -.208E-03 -.868E-04
   -.528E+02 0.142E+02 -.351E+02   0.769E+02 -.206E+02 0.532E+02   0.200E+02 -.623E+01 0.170E+02   0.140E-03 -.373E-04 -.173E-03
   -.323E+01 0.158E+01 -.104E+02   0.373E+01 -.171E+01 0.114E+02   -.385E+00 0.378E+00 -.834E+00   0.834E-04 0.197E-03 -.303E-04
   0.149E+02 -.134E+02 0.245E+02   -.136E+02 0.120E+02 -.218E+02   -.146E+01 0.102E+01 -.307E+01   0.273E-03 0.568E-04 0.181E-03
   0.935E+01 0.185E+02 0.449E+02   -.663E+02 -.531E+02 -.134E+03   -.202E+02 -.115E+02 -.312E+02   0.126E-03 -.168E-03 -.982E-04
   -.216E+02 0.259E+02 -.333E+01   0.801E+03 -.100E+04 0.437E+01   -.731E+00 -.110E+01 -.120E+01   0.370E-03 -.497E-03 0.485E-04
   0.976E+01 -.461E+02 -.188E+02   -.980E+01 0.587E+02 0.260E+02   0.124E+00 0.173E+02 0.104E+02   0.117E-03 0.280E-03 0.328E-04
   -.106E+02 -.124E+02 -.364E+02   0.145E+02 0.138E+02 0.404E+02   0.917E+01 0.430E+01 0.777E+01   -.109E-03 0.573E-04 0.452E-05
   -.790E+01 0.920E+01 -.936E+01   0.798E+01 -.960E+01 0.971E+01   0.283E-01 0.367E+00 -.710E-01   -.450E-03 -.175E-03 -.562E-03
   0.417E+01 -.659E+01 0.170E+02   -.369E+01 0.693E+01 -.173E+02   -.628E+00 0.174E+00 -.481E+00   0.627E-06 0.166E-03 -.405E-03
   0.280E+02 -.236E+02 0.407E+02   -.635E+02 0.846E+02 -.137E+03   -.943E+01 0.187E+02 -.312E+02   -.214E-03 -.151E-03 -.186E-04
[...]
   -.108E+01 -.141E+01 0.130E+02   0.617E+00 0.176E+01 -.136E+02   0.297E+00 -.145E+00 0.642E+00   -.886E-04 0.135E-04 0.443E-03
   0.315E+02 0.383E+02 -.433E+01   -.257E+03 -.271E+03 0.233E+01   -.164E+02 -.172E+02 0.251E+01   0.388E-04 -.333E-04 -.827E-04
   -.354E+02 -.622E+01 -.671E+02   0.349E+02 0.741E+01 0.654E+02   0.993E+01 0.195E+01 0.137E+02   0.436E-04 -.251E-03 -.224E-03
   0.703E+00 -.101E+00 0.783E+01   -.649E+00 -.454E+00 -.832E+01   -.114E+00 0.606E+00 0.689E+00   0.195E-03 -.767E-04 -.120E-03
   -.295E+02 -.163E+02 0.307E+02   0.283E+02 0.152E+02 -.302E+02   0.542E+01 0.236E+01 -.750E+01   0.300E-03 0.136E-03 0.127E-03
   -.178E+02 0.211E+02 -.512E+02   0.163E+02 -.212E+02 0.504E+02   0.385E+01 -.350E+01 0.595E+01   -.277E-03 -.190E-03 0.307E-04
   -.407E+00 -.702E+00 0.802E+01   0.171E+00 0.472E+00 -.854E+01   0.125E-01 0.259E+00 0.624E+00   -.357E-04 0.336E-04 0.171E-03
   0.427E+02 -.289E+02 0.441E+02   -.552E+02 0.319E+02 -.559E+02   -.295E+02 0.131E+02 -.237E+02   0.121E-03 0.233E-03 0.330E-04
   0.126E+02 -.768E+01 -.468E+02   -.130E+02 0.732E+01 0.457E+02   -.132E+01 0.149E+01 0.382E+01   0.187E-04 0.190E-04 0.107E-03
   -.143E+01 -.111E+01 0.110E+02   0.197E+01 0.758E+00 -.115E+02   -.505E+00 0.279E+00 0.698E+00   -.256E-03 0.448E-04 0.342E-03
   0.239E+02 -.208E+02 0.298E+01   -.807E+03 0.100E+04 -.451E+01   0.288E+01 -.275E+00 0.149E+01   -.290E-04 -.125E-03 -.746E-04
   -.699E+00 0.907E+01 -.438E+02   -.129E-01 -.927E+01 0.458E+02   0.526E+00 0.437E+00 0.161E+00   0.129E-03 -.114E-03 0.168E-03
   -.325E+01 0.165E+01 0.816E+01   0.290E+01 -.904E+00 -.847E+01   0.292E+00 -.499E+00 0.301E+00   -.180E-03 -.563E-04 0.208E-03
   0.438E+02 0.817E+01 0.262E+02   -.425E+02 -.886E+01 -.276E+02   -.168E+02 -.507E+01 -.882E+01   -.478E-03 0.350E-04 -.107E-03
   -.409E+02 -.210E+02 -.732E+01   0.455E-12 0.198E-11 0.782E-13   0.410E+02 0.215E+02 0.751E+01   -.468E-03 -.105E-02 0.668E-04

 POSITION                                       TOTAL-FORCE (eV/Angst)
      2.21297     14.78207      4.47289       233.264182    248.240974     -9.668073
     16.35748      1.36340      0.00000        -2.557548      3.874278      3.639322
     13.52858      7.62544      0.89458        -7.270897     -0.977384      5.692277
     10.69968     13.88748      1.78916         1.290892      0.305833     -1.351545
      7.87077      2.25799      2.68374         1.059957     -0.336334     -0.937592
      5.04187      8.52003      3.57831        -0.783558     20.952865    -10.971534
      7.87077     14.78207      4.47289        -2.851527      5.618517     -3.332857
      5.04188      1.36340      0.00000         0.993409   -118.608289      1.530256
      2.21298      7.62544      0.89458        -2.293053      3.003823      2.286391
     16.35748     13.88748      1.78916        -2.506078      2.032752      8.436935
     13.52857      2.25799      2.68374         0.142307     -0.551828     -0.432885
     10.69967      8.52003      3.57831         2.153751     -1.954712     -0.831341
     13.52857     14.78207      4.47289        -0.471549   -117.249932     -1.268643
     10.69968      1.36340      0.00000       232.429865    245.558368      9.329155
      7.87078      7.62544      0.89458        44.191438    -12.636827     35.082298
      5.04188     13.88748      1.78916         0.118215      0.244315      0.180112
      2.21298      2.25799      2.68374        -0.226278     -0.335407     -0.315010
     16.35747      8.52003      3.57831       -77.157882    -46.120954   -120.306572
      3.62742     10.30919      4.47289       779.090919   -979.839848     -0.149218
      0.79853     14.78206      0.00000         0.076509     29.915172     17.603233
     14.94303      3.15256      0.89458        12.995294      5.709111     11.686679
     12.11413      9.41460      1.78916         0.108139     -0.027424      0.277261
      9.28522     15.67664      2.68374        -0.142315      0.512089     -0.843312
      6.45632      4.04715      3.57831       -44.874427     79.771291   -127.505403
      9.28522     10.30919      4.47289        -0.726230     31.091217    -18.489967
      6.45633     14.78206      0.00000         0.229037     -5.429225      0.875212
      3.62743      3.15256      0.89458       -14.861673      7.387232      8.682618
      0.79853      9.41460      1.78916        -2.172843     -0.260476      5.905606
     14.94303     15.67664      2.68374         1.556270      0.243125     -3.215947
     12.11412      4.04715      3.57831        -0.801976     -0.325016      0.229903
     14.94302     10.30919      4.47289        -0.200854     -2.787149     -0.510701
     12.11413     14.78206      0.00000       779.997809   -981.420806     -0.284270
      9.28523      3.15256      0.89458         8.994612    -14.024655     11.459969
      6.45633      9.41460      1.78916        -0.518651      0.709442      2.269869
      3.62742     15.67664      2.68374        -1.050804     -0.239071     -1.492794
      0.79852      4.04715      3.57831       -10.360772    -15.069351    -11.621666
      2.21297      5.83630      4.47289       233.264182    248.240974     -9.668073
     16.35748     10.30917      0.00000        -2.557548      3.874278      3.639322
     13.52858     16.57121      0.89458        -7.270897     -0.977384      5.692277
     10.69968      4.94172      1.78916         1.290892      0.305833     -1.351545
      7.87077     11.20376      2.68374         1.059957     -0.336334     -0.937592
      5.04187     17.46579      3.57831        -0.783558     20.952865    -10.971534
      7.87077      5.83630      4.47289        -2.851527      5.618517     -3.332857
      5.04188     10.30917      0.00000         0.993409   -118.608289      1.530256
      2.21298     16.57121      0.89458        -2.293053      3.003823      2.286391
     16.35748      4.94172      1.78916        -2.506078      2.032752      8.436935
     13.52857     11.20376      2.68374         0.142307     -0.551828     -0.432885
     10.69967     17.46579      3.57831         2.153751     -1.954712     -0.831341
     13.52857      5.83630      4.47289        -0.471549   -117.249932     -1.268643
     10.69968     10.30917      0.00000       232.429865    245.558368      9.329155
      7.87078     16.57121      0.89458        44.191438    -12.636827     35.082298
      5.04188      4.94172      1.78916         0.118215      0.244315      0.180112
      2.21298     11.20376      2.68374        -0.226278     -0.335407     -0.315010
     16.35747     17.46579      3.57831       -77.157882    -46.120954   -120.306572
      3.62742      1.36342      4.47289       779.090919   -979.839848     -0.149218
      0.79853      5.83629      0.00000         0.076509     29.915172     17.603233
     14.94303     12.09833      0.89458        12.995294      5.709111     11.686679
     12.11413      0.46883      1.78916         0.108139     -0.027424      0.277261
      9.28522      6.73087      2.68374        -0.142315      0.512089     -0.843312
      6.45632     12.99292      3.57831       -44.874427     79.771291   -127.505403
[...]
     11.85117      6.16651      5.83064        -3.378405      0.456240      3.239377
     11.00250      3.48278      8.54614        -0.165617      0.202834      0.020831
     10.15383      0.79905     11.26164      -241.771367   -249.838403      0.505831
      3.36447     15.11228      5.83064         9.505505      3.134380     11.871955
      2.51580     12.42855      8.54614        -0.060055      0.049168      0.196663
      1.66713      9.74482     11.26164         4.282894      1.323114     -6.932355
      8.45649     13.32313      5.83064         2.342272     -3.616005      5.152287
      7.60782     10.63940      8.54614        -0.223025      0.025705      0.102472
      6.75915      7.95566     11.26164       -41.966232     16.066772    -35.550303
     13.54851     11.53397      5.83064        -1.745082      1.124623      2.780203
     12.69984      8.85024      8.54614         0.039010     -0.080323      0.166552
     11.85117      6.16651     11.26164      -780.606273    980.884813     -0.045445
     15.24585     16.90144      5.83064        -0.186724      0.228189      2.167722
     14.39718     14.21771      8.54614        -0.059117      0.246693     -0.013146
     13.54851     11.53397     11.26164       -15.489444     -5.753921    -10.301588
    total drift:                                0.087967      0.426830      0.187819

  FREE ENERGIE OF THE ION-ELECTRON SYSTEM (eV)
  free  energy   TOTEN  =      1607.49800432 eV

  energy  without entropy=     1607.50226467  energy(sigma->0) =     1607.50013449