 vasp.6.4.3 19Mar24 (build Oct 22 2024 11:23:12) complex

 executed on             LinuxIFC date 2025.06.05  09:10:56

 INCAR:
   SYSTEM = Si and Ge interface calculation
   ISTART = 0
   ICHARG = 2
   LWAVE = .FALSE.
   LREAL = AUTO
   ENCUT = 700
   ENAUG = 900
   ADDGRID = .TRUE.
   LMAXMIX = 6
   LASPH = .TRUE.
   LMIXTAU = .TRUE.
   NCORE = 16
   NELM = 100
   NBANDS = 288
   EDIFF = 1d-7
   AMIX = 0.6
   ISMEAR = 0
   SIGMA = 0.01
   NELECT = 480
   ISPIN = 2
   NUPDOWN = 1
   LVTOT = .FALSE.
   LVHAR = .TRUE.

 POTCAR:    PAW_PBE Si 05Jan2001
 POTCAR:    PAW_PBE C 08Apr2002
|           W    W    AA    RRRRR   N    N  II  N    N   GGGG   !!!           |
|           W    W   A  A   R    R  NN   N  II  NN   N  G    G  !!!           |
|           W    W  A    A  R    R  N N  N  II  N N  N  G       !!!           |
|           W WW W  AAAAAA  RRRRR   N  N N  II  N  N N  G  GGG   !            |
|           WW  WW  A    A  R   R   N   NN  II  N   NN  G    G                |
|           W    W  A    A  R    R  N    N  II  N    N   GGGG   !!!           |
|     You use a magnetic or noncollinear calculation, but did not specify     |
|     the initial magnetic moment with the MAGMOM tag. Note that a            |
|     default of 8.333e-3 will be used for all atoms. This ferromagnetic      |
|     setup may break the symmetry of the crystal, in particular it may       |
|     rule out finding an antiferromagnetic solution. Thence, we              |
|     recommend setting the initial magnetic moment manually or verifying     |
|     carefully that this magnetic setup is desired.                          |

 POTCAR:    PAW_PBE Si 05Jan2001
   VRHFIN =Si: s2p2

   TITEL  = PAW_PBE Si 05Jan2001
   POMASS =   28.085; ZVAL   =    4.000    mass and valenz
   ENMAX  =  245.345; ENMIN  =  184.009 eV

 POTCAR:    PAW_PBE C 08Apr2002
   VRHFIN =C: s2p2

   TITEL  = PAW_PBE C 08Apr2002
   POMASS =   12.011; ZVAL   =    4.000    mass and valenz
   ENMAX  =  400.000; ENMIN  =  300.000 eV

 Optimization of the real space projectors (new method)

 maximal supplied QI-value         = 19.84
 optimisation between [QCUT,QGAM] = [ 13.49, 26.99] = [ 50.98,203.92] Ry
 Optimized for a Real-space Cutoff    1.07 Angstroem

   l    n(q)    QCUT    max X(q) W(low)/X(q) W(high)/X(q)  e(spline)
   0      9    13.493   159.560    0.22E-03    0.15E-03    0.72E-07
   0      9    13.493   115.863    0.21E-03    0.15E-03    0.71E-07
   1      8    13.493    88.339    0.15E-03    0.11E-03    0.13E-06
   1      8    13.493    48.592    0.15E-03    0.10E-03    0.13E-06
 Optimization of the real space projectors (new method)

 maximal supplied QI-value         = 25.13
 optimisation between [QCUT,QGAM] = [ 13.32, 26.89] = [ 49.69,202.52] Ry
 Optimized for a Real-space Cutoff    1.01 Angstroem

   l    n(q)    QCUT    max X(q) W(low)/X(q) W(high)/X(q)  e(spline)
   0      8    13.321   115.676    0.29E-03    0.42E-03    0.11E-06
   0      8    13.321    87.132    0.29E-03    0.42E-03    0.11E-06
   1      8    13.321     4.429    0.39E-03    0.33E-03    0.98E-07
   1      8    13.321     2.733    0.30E-03    0.26E-03    0.97E-07
  PAW_PBE Si 05Jan2001                  :
  PAW_PBE C 08Apr2002                   :

 POSCAR: Si+C
  positions in direct lattice

 exchange-correlation table for PE
   RHO(1)=    0.500       N(1)  =     2000
   RHO(2)=  100.500       N(2)  =     4000

 ion  position               nearest neighbor table
   1  0.997  0.980  0.000-  78 1.45  88 1.79  67 1.95  91 1.98 119 1.99  47 2.02  29 2.35  34 2.35
                            57 2.40 115 2.42
   2  0.964  0.747  0.241- 115 1.72  92 2.06  55 2.06  30 2.35  35 2.35  16 2.35 120 2.39
   3  0.930  0.513  0.483-  56 1.84 101 1.88  45 2.05 116 2.22  36 2.35  16 2.35  17 2.35  97 2.38
                            73 2.52  69 2.53
   4  0.330  0.313  0.000-  58 0.98  39 1.71 105 1.88  46 2.15 102 2.22  79 2.30  86 2.35  32 2.35
                            28 2.35
   5  0.297  0.080  0.241-  50 1.89 100 2.08  63 2.24  10 2.35  33 2.35  29 2.35
   6  0.264  0.847  0.483-  80 0.78 111 1.90  59 2.06  11 2.35  30 2.35  10 2.35  51 2.51
   7  0.664  0.647  0.000- 112 0.54  96 1.50  52 1.58  65 2.15 108 2.21  31 2.35  35 2.35  49 2.45
                            72 2.52
   8  0.630  0.413  0.241-  70 1.24  94 2.22  13 2.35  32 2.35  36 2.35
   9  0.597  0.180  0.483-  53 1.43  74 2.06  87 2.21  66 2.24  14 2.35  33 2.35  13 2.35  90 2.37

  10  0.314  0.947  0.121- 100 1.09  37 1.17 111 2.21   5 2.35  22 2.35   6 2.35  84 2.55  71 2.55

[...]

  13  0.647  0.280  0.121-  66 1.44  94 1.67  70 2.17   8 2.35  25 2.35   9 2.35  90 2.54  53 2.56
                           103 2.60
  14  0.614  0.047  0.362-  95 1.89  74 2.20  40 2.28   9 2.35  22 2.35  26 2.35 103 2.44  98 2.53
                           114 2.60
  15  0.580  0.813  0.604- 107 0.83  85 1.62  44 1.85  72 2.11  41 2.20  54 2.27  23 2.35  27 2.35
                            61 2.49  51 2.56
  16  0.980  0.613  0.121-  73 1.37 120 1.87  97 2.04  19 2.35   2 2.35   3 2.35  48 2.41  76 2.61

  17  0.947  0.380  0.362-  56 1.70  93 2.35  20 2.35  25 2.35   3 2.35  69 2.46  77 2.49
  18  0.914  0.147  0.604- 117 1.29  98 1.43  57 1.52  43 2.01  77 2.06  83 2.20  21 2.35  26 2.35
                           119 2.50
  19  0.164  0.647  0.000-  76 0.54  48 1.50  82 1.58 101 2.15  60 2.21  16 2.35  11 2.35  97 2.45
                           120 2.52
  20  0.130  0.413  0.241- 118 1.24  46 2.22  17 2.35  28 2.35  12 2.35
  21  0.097  0.180  0.483-  83 1.43 110 2.06  57 2.21 102 2.24  18 2.35  29 2.35  28 2.35  39 2.37

  22  0.497  0.980  0.000- 114 1.45  37 1.79 103 1.95  40 1.98  71 1.99  95 2.02  14 2.35  10 2.35
                            87 2.40  61 2.42
  23  0.464  0.747  0.241-  61 1.72  41 2.06  85 2.06  15 2.35  31 2.35  11 2.35  72 2.39
  24  0.430  0.513  0.483-  86 1.84  65 1.88  81 2.05  62 2.22  32 2.35  12 2.35  31 2.35  49 2.38
                           109 2.52 105 2.53
  25  0.830  0.313  0.000- 106 0.98  90 1.71  69 1.88  94 2.15  66 2.22  43 2.30  56 2.35  13 2.35
                            17 2.35
  26  0.797  0.080  0.241-  98 1.89  64 2.08 117 2.24  34 2.35  14 2.35  18 2.35
  27  0.764  0.847  0.483-  44 0.78  75 1.90 107 2.06  35 2.35  15 2.35  34 2.35  99 2.51
  28  0.147  0.280  0.121- 102 1.44  46 1.67 118 2.17  20 2.35   4 2.35  21 2.35  39 2.54  83 2.56
                            67 2.60
  29  0.114  0.047  0.362-  47 1.89 110 2.20  91 2.28  21 2.35   1 2.35   5 2.35  67 2.44  50 2.53
                            78 2.60
  30  0.080  0.813  0.604-  59 0.83  55 1.62  80 1.85 120 2.11  92 2.20  84 2.27   2 2.35   6 2.35
                           115 2.49  99 2.56
  31  0.480  0.613  0.121- 109 1.37  72 1.87  49 2.04   7 2.35  23 2.35  24 2.35  96 2.41 112 2.61

  32  0.447  0.380  0.362-  86 1.70  42 2.35   8 2.35   4 2.35  24 2.35 105 2.46 113 2.49
  33  0.414  0.147  0.604-  63 1.29  50 1.43  87 1.52  79 2.01 113 2.06  53 2.20   9 2.35   5 2.35
                            71 2.50
  34  0.814  0.947  0.121-  64 1.09  88 1.17  75 2.21  26 2.35   1 2.35  27 2.35  54 2.55 119 2.55

[...]

  37  0.354  0.939  0.921-  10 1.17 111 1.54 100 1.54  71 1.54  22 1.79
  38  0.154  0.539  0.604- 101 1.54  60 1.54  12 1.86
  39  0.254  0.239  0.762- 110 1.54 102 1.54  58 1.54   4 1.71  21 2.37  28 2.54
  40  0.639  0.082  0.921- 114 1.54 103 1.54  74 1.54  22 1.98  14 2.28
  41  0.439  0.682  0.604- 104 1.54  72 1.54  23 2.06  15 2.20
  42  0.539  0.382  0.762- 113 1.54 105 1.54  70 1.54  32 2.35
  43  0.925  0.225  0.921- 117 1.54 106 1.54  77 1.54  18 2.01  25 2.30
  44  0.725  0.825  0.604-  27 0.78 107 1.54  75 1.54  15 1.85  35 2.53
  45  0.825  0.525  0.762-  36 1.27 116 1.54 108 1.54  73 1.54   3 2.05
  46  0.211  0.368  0.921- 102 1.54 118 1.54  62 1.54  28 1.67   4 2.15  20 2.22  12 2.32
  47  0.011  0.968  0.604- 119 1.54  78 1.54  29 1.89   1 2.02
  48  0.111  0.668  0.762-  19 1.50 101 1.54 120 1.54  76 1.54  16 2.41
  49  0.496  0.511  0.921- 105 1.54 109 1.54  65 1.54  31 2.04  24 2.38   7 2.45
  50  0.296  0.111  0.604-  33 1.43 110 1.54  63 1.54   5 1.89  29 2.53
  51  0.396  0.811  0.762- 104 1.54 111 1.54  61 1.54   6 2.51  15 2.56
  52  0.782  0.654  0.921- 108 1.54 112 1.54  68 1.54   7 1.58  35 2.43
  53  0.582  0.254  0.604-   9 1.43 113 1.54  66 1.54  33 2.20  13 2.56
  54  0.682  0.954  0.762- 107 1.54 114 1.54  64 1.54  15 2.27  34 2.55
  55  0.068  0.796  0.921- 120 1.54 115 1.54  59 1.54  30 1.62   2 2.06
  56  0.868  0.396  0.604- 116 1.54  69 1.54  17 1.70   3 1.84  25 2.35  36 2.50
  57  0.968  0.096  0.762-  18 1.52 119 1.54 117 1.54  67 1.54  21 2.21   1 2.40
  58  0.332  0.254  1.000-   4 0.98  79 1.54  39 1.54
  59  0.132  0.854  0.683-  30 0.83  84 1.54  80 1.54  55 1.54   6 2.06
  60  0.232  0.554  0.841-  82 1.54  81 1.54  38 1.54  12 1.76  19 2.21
  61  0.475  0.825  1.000-  85 1.54  51 1.54  23 1.72  22 2.42  15 2.49
  62  0.275  0.425  0.683-  12 1.17  81 1.54  86 1.54  46 1.54  24 2.22
  63  0.375  0.125  0.841-  33 1.29  79 1.54  87 1.54  50 1.54   5 2.24
  64  0.761  0.968  1.000-  34 1.09  88 1.54  54 1.54  26 2.08
  65  0.561  0.568  0.683-  96 1.54  89 1.54  49 1.54  24 1.88   7 2.15
  66  0.661  0.268  0.841-  13 1.44  94 1.54  90 1.54  53 1.54  25 2.22   9 2.24
  67  0.046  0.111  1.000-  91 1.54  57 1.54   1 1.95  29 2.44  28 2.60
  68  0.846  0.711  0.683-  99 1.54  92 1.54  52 1.54  35 1.85
  69  0.946  0.411  0.841-  97 1.54  93 1.54  56 1.54  25 1.88  17 2.46   3 2.53
  70  0.618  0.396  1.000-   8 1.24  94 1.54  42 1.54  13 2.17
  71  0.418  0.996  0.683-  87 1.54  95 1.54  37 1.54  22 1.99  33 2.50  10 2.55
  72  0.518  0.696  0.841-  85 1.54  96 1.54  41 1.54  31 1.87  15 2.11  23 2.39   7 2.52
  73  0.904  0.539  1.000-  16 1.37  97 1.54  45 1.54   3 2.52
  74  0.704  0.139  0.683-  90 1.54  98 1.54  40 1.54   9 2.06  14 2.20
  75  0.804  0.839  0.841-  88 1.54  99 1.54  44 1.54  27 1.90  34 2.21
  76  0.189  0.682  1.000-  19 0.54  82 1.54  48 1.54  11 2.13  16 2.61
  77  0.989  0.282  0.683-  93 1.54  83 1.54  43 1.54  18 2.06  17 2.49
  78  0.089  0.982  0.841-   1 1.45  91 1.54  84 1.54  47 1.54  29 2.60
  79  0.425  0.225  0.921-  63 1.54  58 1.54 113 1.54  33 2.01   4 2.30
  80  0.225  0.825  0.604-   6 0.78  59 1.54 111 1.54  30 1.85  11 2.53
  81  0.325  0.525  0.762-  12 1.27  62 1.54  60 1.54 109 1.54  24 2.05
  82  0.282  0.654  0.921-  60 1.54  76 1.54 104 1.54  19 1.58  11 2.43
  83  0.082  0.254  0.604-  21 1.43  77 1.54 102 1.54  18 2.20  28 2.56
  84  0.182  0.954  0.762-  59 1.54  78 1.54 100 1.54  30 2.27  10 2.55
  85  0.568  0.796  0.921-  72 1.54  61 1.54 107 1.54  15 1.62  23 2.06
  86  0.368  0.396  0.604-  62 1.54 105 1.54  32 1.70  24 1.84   4 2.35  12 2.50
  87  0.468  0.096  0.762-  33 1.52  71 1.54  63 1.54 103 1.54   9 2.21  22 2.40
  88  0.854  0.939  0.921-  34 1.17  75 1.54  64 1.54 119 1.54   1 1.79
  89  0.654  0.539  0.604-  65 1.54 108 1.54  36 1.86
  90  0.754  0.239  0.762-  74 1.54  66 1.54 106 1.54  25 1.71   9 2.37  13 2.54
  91  0.139  0.082  0.921-  78 1.54  67 1.54 110 1.54   1 1.98  29 2.28
  92  0.939  0.682  0.604-  68 1.54 120 1.54   2 2.06  30 2.20
[...]
     0.000000000  0.000000000  5.029924393     0.000000000  0.000000000  0.198810145

  length of vectors
    13.303179741 16.293000328  5.029924393     0.082344607  0.067234094  0.198810145

 FORCES acting on ions
    electron-ion (+dipol)            ewald-force                    non-local-force                 convergence-correction
   0.200E+02 0.490E+02 -.160E+03   -.795E+01 -.458E+02 0.160E+03   -.228E+02 -.485E+01 0.124E+02   -.431E-03 0.402E-03 -.236E-04
   0.172E+01 0.114E+02 -.508E+02   -.473E+01 -.808E+01 0.495E+02   0.341E+01 -.459E+01 0.446E+01   -.294E-03 0.852E-04 0.586E-04
   -.177E+01 -.376E+02 0.113E+03   0.688E+01 0.383E+02 -.117E+03   -.389E+01 0.375E+01 0.197E+01   0.368E-03 -.734E-03 -.277E-04
   0.687E+02 -.172E+03 -.118E+03   -.591E+02 0.184E+03 0.123E+03   -.686E+02 0.119E+03 -.139E+01   -.607E-03 -.187E-03 0.791E-04
   0.375E+01 -.142E+02 -.864E+01   -.329E+01 0.148E+02 0.120E+02   0.727E+00 -.152E+00 -.520E+01   -.516E-03 0.938E-04 -.314E-04
   -.135E+03 -.962E+02 0.280E+03   0.185E+03 0.146E+03 -.383E+03   0.772E+02 0.528E+02 -.964E+02   0.128E-03 -.108E-03 -.115E-03
   0.531E+02 0.297E+03 -.152E+03   -.151E+03 -.773E+03 0.153E+03   -.239E+02 -.137E+03 0.117E+02   -.308E-06 0.427E-03 0.903E-04
   0.913E+01 -.526E+02 -.154E+03   -.886E+01 0.490E+02 0.142E+03   0.218E+00 0.147E+02 0.609E+02   0.382E-03 -.294E-03 0.227E-04
   -.410E+02 0.552E+02 0.128E+03   0.332E+02 -.460E+02 -.129E+03   0.175E+02 -.249E+02 -.108E+02   0.539E-03 0.498E-03 0.242E-04
   -.511E+02 0.320E+02 -.290E+03   0.465E+02 -.348E+02 0.291E+03   0.419E+02 -.186E+02 0.114E+03   -.267E-03 -.191E-04 -.114E-03
   0.117E+02 0.148E+02 0.362E+02   -.865E+01 -.971E+01 -.318E+02   -.333E+01 -.630E+01 -.493E+01   0.314E-03 -.164E-03 -.705E-04
   0.140E+03 -.309E+02 0.216E+03   -.131E+03 0.248E+02 -.215E+03   -.765E+02 0.299E+02 -.543E+02   -.634E-03 -.588E-03 -.560E-04
   0.303E+02 0.421E+02 -.180E+03   -.240E+02 -.474E+02 0.174E+03   -.125E+02 0.120E+01 0.295E+02   0.790E-03 0.114E-03 0.118E-03
   -.199E+02 0.104E+02 0.378E+02   0.162E+02 -.135E+02 -.389E+02   0.320E+01 0.199E+01 0.646E+00   0.702E-03 0.356E-03 0.345E-05
   0.139E+03 0.131E+03 0.235E+03   -.191E+03 -.186E+03 -.283E+03   -.634E+02 -.107E+03 -.657E+02   -.484E-04 -.246E-04 -.398E-04
   -.106E+02 -.656E+02 -.152E+03   0.428E+01 0.582E+02 0.147E+03   0.153E+02 0.285E+02 0.202E+02   -.357E-04 -.336E-03 0.260E-04
   -.286E+02 0.239E+02 0.570E+02   0.279E+02 -.229E+02 -.599E+02   0.311E+01 -.274E+01 0.102E+01   0.284E-03 -.660E-03 -.107E-03
   -.457E+02 -.653E+02 0.220E+03   0.388E+02 0.574E+02 -.215E+03   0.261E+02 0.312E+02 -.491E+02   0.292E-03 0.526E-03 0.823E-05
   0.531E+02 0.297E+03 -.152E+03   -.151E+03 -.773E+03 0.153E+03   -.239E+02 -.137E+03 0.117E+02   0.108E-04 -.335E-03 0.116E-03
   0.913E+01 -.526E+02 -.154E+03   -.886E+01 0.490E+02 0.142E+03   0.218E+00 0.147E+02 0.609E+02   -.623E-03 -.827E-03 0.114E-03
   -.410E+02 0.552E+02 0.128E+03   0.332E+02 -.460E+02 -.129E+03   0.175E+02 -.249E+02 -.108E+02   -.847E-03 0.221E-03 -.350E-05
   0.200E+02 0.490E+02 -.160E+03   -.795E+01 -.458E+02 0.160E+03   -.228E+02 -.485E+01 0.124E+02   0.351E-03 -.852E-04 0.442E-05
   0.172E+01 0.114E+02 -.508E+02   -.473E+01 -.808E+01 0.495E+02   0.341E+01 -.459E+01 0.446E+01   0.862E-04 -.157E-04 0.487E-04
   -.177E+01 -.376E+02 0.113E+03   0.688E+01 0.383E+02 -.117E+03   -.389E+01 0.375E+01 0.197E+01   -.394E-03 -.396E-04 -.124E-04
   0.686E+02 -.172E+03 -.118E+03   -.591E+02 0.184E+03 0.123E+03   -.686E+02 0.119E+03 -.139E+01   0.994E-03 -.923E-04 0.155E-03
   0.375E+01 -.142E+02 -.864E+01   -.329E+01 0.148E+02 0.120E+02   0.727E+00 -.152E+00 -.520E+01   0.690E-03 0.530E-03 -.958E-04
   -.135E+03 -.962E+02 0.280E+03   0.185E+03 0.146E+03 -.383E+03   0.772E+02 0.528E+02 -.964E+02   0.233E-03 0.407E-03 -.315E-04
   0.303E+02 0.421E+02 -.180E+03   -.240E+02 -.474E+02 0.174E+03   -.125E+02 0.120E+01 0.295E+02   -.925E-03 -.315E-03 0.180E-03
   -.199E+02 0.104E+02 0.378E+02   0.162E+02 -.135E+02 -.389E+02   0.320E+01 0.199E+01 0.646E+00   -.790E-03 0.386E-03 0.213E-04
   0.139E+03 0.131E+03 0.235E+03   -.191E+03 -.186E+03 -.283E+03   -.634E+02 -.107E+03 -.657E+02   -.724E-03 -.138E-03 -.111E-04
   -.106E+02 -.656E+02 -.152E+03   0.428E+01 0.582E+02 0.147E+03   0.153E+02 0.285E+02 0.202E+02   -.338E-03 0.207E-03 0.305E-04
   -.286E+02 0.239E+02 0.570E+02   0.279E+02 -.229E+02 -.599E+02   0.311E+01 -.274E+01 0.102E+01   -.203E-03 -.187E-03 -.334E-04
   -.457E+02 -.653E+02 0.220E+03   0.388E+02 0.574E+02 -.215E+03   0.261E+02 0.312E+02 -.491E+02   -.590E-04 0.188E-03 -.273E-04
   -.511E+02 0.320E+02 -.290E+03   0.465E+02 -.348E+02 0.291E+03   0.419E+02 -.186E+02 0.114E+03   0.449E-04 0.477E-03 -.156E-03
   0.117E+02 0.147E+02 0.362E+02   -.865E+01 -.971E+01 -.318E+02   -.333E+01 -.630E+01 -.493E+01   0.230E-03 0.499E-03 -.784E-05
   0.140E+03 -.309E+02 0.216E+03   -.131E+03 0.248E+02 -.215E+03   -.765E+02 0.299E+02 -.543E+02   0.555E-03 -.318E-03 -.243E-04
   -.467E+02 0.175E+02 -.292E+02   0.765E+02 -.233E+02 -.203E+02   -.933E+00 0.559E+00 -.121E+02   -.986E-04 -.760E-04 -.741E-04
   0.539E+01 0.119E+02 0.144E+03   -.565E+01 -.129E+02 -.153E+03   0.576E+00 0.218E+01 0.945E+01   -.172E-03 -.101E-02 0.602E-05
   -.220E+02 -.130E+01 0.939E+02   0.243E+02 0.354E+01 -.107E+03   -.343E+01 -.498E+01 0.123E+02   -.980E-03 -.272E-03 -.593E-04
   -.560E+02 -.281E+02 -.894E+02   0.634E+02 0.328E+02 0.929E+02   -.822E+01 -.225E+01 -.566E+01   0.902E-03 0.490E-03 -.805E-04
   -.745E+01 0.506E+02 0.116E+03   0.920E+01 -.571E+02 -.123E+03   -.225E+01 0.735E+01 0.748E+01   -.101E-03 0.868E-04 -.805E-04
   -.145E+02 -.318E+02 0.574E+02   0.163E+02 0.346E+02 -.607E+02   -.246E+01 -.404E+01 0.550E+01   0.188E-03 -.161E-03 -.123E-04
   -.331E+02 -.152E+02 -.124E+03   0.398E+02 0.193E+02 0.134E+03   -.826E+01 -.427E+01 -.916E+01   0.144E-04 0.391E-03 0.762E-04
   -.255E+02 0.445E+02 0.883E+02   -.113E+03 -.172E+03 0.133E+03   0.186E+02 0.267E+02 -.262E+02   0.446E-03 0.359E-03 0.998E-04
   -.283E+02 -.840E+02 -.294E+01   0.523E+02 0.107E+03 0.233E+02   0.712E+00 -.353E+01 0.838E+01   0.653E-03 -.174E-03 0.611E-04
   -.307E+02 -.382E+02 -.741E+02   0.364E+02 0.460E+02 0.731E+02   -.362E+01 -.248E+01 -.402E+01   -.998E-03 -.523E-03 -.296E-04
   -.152E+02 0.608E+02 0.148E+03   0.179E+02 -.668E+02 -.158E+03   -.336E+01 0.733E+01 0.908E+01   -.470E-03 0.356E-03 0.157E-05
   0.870E+01 -.382E+02 0.119E+03   -.134E+02 0.472E+02 -.139E+03   -.508E+01 -.709E+01 0.864E+01   -.203E-03 -.266E-03 0.287E-04
   -.537E+02 0.186E+02 -.102E+03   0.596E+02 -.213E+02 0.106E+03   -.679E+01 0.140E+01 -.418E+01   -.253E-03 -.139E-03 0.303E-04
   0.448E+02 0.404E+02 0.105E+03   -.598E+02 -.492E+02 -.112E+03   -.329E+01 0.280E+01 0.892E+01   -.602E-03 0.135E-03 0.937E-04
   -.177E+02 -.381E+02 0.563E+02   0.214E+02 0.399E+02 -.581E+02   -.468E+01 -.252E+01 0.527E+01   0.441E-03 -.295E-03 0.713E-04
   -.853E+02 0.286E+01 -.859E+02   0.103E+03 0.312E+00 0.859E+02   -.862E+01 -.328E+01 -.305E+01   0.350E-03 0.569E-03 -.133E-04
   0.759E+01 -.350E+02 0.111E+03   -.146E+02 0.479E+02 -.111E+03   -.342E+01 0.262E+01 0.101E+02   0.554E-03 0.161E-03 -.147E-03
   -.179E+01 -.494E+02 0.607E+02   0.517E+01 0.550E+02 -.659E+02   -.326E+01 -.595E+01 0.906E+01   0.695E-03 0.291E-03 0.251E-03
   -.352E+02 -.202E+02 -.141E+03   0.405E+02 0.203E+02 0.158E+03   -.702E+01 0.515E+00 -.128E+02   -.600E-03 -.456E-04 0.179E-03
   -.140E+01 0.602E+02 0.111E+03   0.112E+01 -.684E+02 -.114E+03   -.232E+01 0.899E+01 0.661E+01   0.896E-03 -.670E-03 -.114E-03
   -.356E+02 -.784E+01 0.246E+02   0.488E+02 0.397E+01 -.231E+02   -.599E+01 -.405E+01 0.559E+01   -.192E-03 0.555E-03 -.876E-04
   -.205E+02 0.561E+02 -.137E+03   0.808E+02 -.172E+03 0.149E+03   0.355E+01 -.133E+02 -.138E+02   -.614E-03 -.180E-04 0.854E-04
   0.284E+02 -.438E+02 0.628E+02   0.877E+02 0.228E+03 0.516E+02   -.101E+02 -.217E+02 -.251E+01   -.725E-03 0.159E-03 0.331E-03
   0.174E+02 0.163E+02 -.849E+02   -.247E+02 -.173E+02 0.947E+02   0.532E+01 0.570E+01 -.909E+01   -.247E-03 -.677E-03 -.712E-04
[...]
   0.284E+02 -.438E+02 0.628E+02   0.877E+02 0.228E+03 0.516E+02   -.101E+02 -.217E+02 -.251E+01   0.615E-04 0.334E-03 0.223E-03
   0.174E+02 0.163E+02 -.849E+02   -.247E+02 -.173E+02 0.947E+02   0.532E+01 0.570E+01 -.909E+01   0.369E-03 -.138E-03 0.201E-04
   0.572E+02 0.279E+02 -.114E+03   -.698E+02 -.424E+02 0.111E+03   0.168E+01 -.755E+01 -.121E+02   -.366E-03 -.874E-04 0.381E-06
   0.938E+01 -.992E+00 0.847E+02   -.113E+02 -.126E+01 -.840E+02   0.363E+01 0.308E+01 0.198E+01   -.957E-03 0.282E-04 -.112E-03
   -.630E+01 0.452E+02 -.787E+02   0.768E+01 -.561E+02 0.908E+02   0.239E+00 0.109E+02 -.135E+02   0.190E-03 -.183E-03 0.217E-03
   0.104E+02 -.356E+02 -.126E+03   0.134E+03 0.801E+03 0.132E+03   -.225E+02 -.157E+03 -.560E+01   0.453E-04 0.655E-03 0.180E-03
   0.380E+02 -.130E+02 0.100E+03   -.427E+02 0.145E+02 -.103E+03   0.614E+01 -.463E+00 0.300E+01   0.301E-03 0.417E-04 -.979E-04
   -.445E+02 0.404E+02 -.275E+02   0.584E+02 -.456E+02 0.244E+02   0.358E+01 0.572E+01 -.846E+01   0.697E-03 0.103E-04 0.120E-03
   0.294E+02 -.564E+02 -.119E+03   -.354E+02 0.630E+02 0.125E+03   0.463E+01 -.490E+01 -.842E+01   -.438E-03 0.137E-03 -.119E-03
   -.649E+01 0.707E+02 0.686E+02   0.338E+02 -.115E+03 -.576E+02   0.153E+02 -.418E+01 0.138E+02   0.855E-03 -.575E-03 0.944E-05
   0.382E+02 0.405E+02 -.122E+03   -.522E+02 -.516E+02 0.163E+03   0.268E+01 0.246E+01 -.414E+01   0.340E-03 0.528E-03 0.701E-04
   0.388E+02 -.294E+02 -.568E+02   -.479E+02 0.267E+02 0.238E+02   0.719E+01 -.875E+01 -.172E+02   -.781E-03 -.798E-03 -.143E-03
   0.382E+02 0.121E+02 0.132E+03   -.447E+02 -.130E+02 -.143E+03   0.847E+01 -.894E-01 0.101E+02   -.207E-03 0.568E-03 0.960E-04
   0.239E+02 0.283E+02 -.368E+02   -.279E+02 -.322E+02 0.392E+02   0.485E+01 0.549E+01 -.667E+01   -.501E-03 -.102E-03 -.158E-03
   0.191E+03 0.374E+03 0.208E+03   -.604E-12 0.711E-13 -.497E-13   -.191E+03 -.374E+03 -.208E+03   -.730E-03 0.411E-04 0.117E-02

 POSITION                                       TOTAL-FORCE (eV/Angst)
      6.74634     14.57678      0.00000       -10.734960     -1.604485     12.565963
      7.85494     11.10632      1.21441         0.393931     -1.266053      3.218655
      8.96354      7.63586      2.42882         1.214449      4.503949     -2.530738
      2.31195      4.66117      0.00000       -59.088426    131.166210      3.997906
      3.42055      1.19071      1.21441         1.192627      0.457097     -1.881560
     -2.12244     12.59366      2.42882       127.483527    103.081149   -199.444065
      4.52915      9.61898      0.00000      -121.940272   -613.131880     12.758942
      5.63774      6.14851      1.21441         0.491304     11.053504     49.063553
      6.74634      2.67805      2.42882         9.710396    -15.759815    -11.064111
     -2.12244     14.08100      0.60720        37.341141    -21.437288    115.387096
     -1.01385     10.61054      1.82161        -0.246939     -1.267102     -0.558993
      0.09475      7.14008      3.03602       -67.500211     23.731483    -52.820746
      6.74634      4.16540      0.60720        -6.250930     -4.151787     22.961092
      7.85494      0.69493      1.82161        -0.458954     -1.120415     -0.487565
      2.31195     12.09788      3.03602      -114.668987   -161.648381   -113.411356
      8.96354      9.12320      0.60720         8.962578     21.039754     14.573170
     10.07214      5.65273      1.82161         2.375006     -1.788865     -1.891226
     11.18074      2.18227      3.03602        19.122065     23.364894    -44.596459
     -2.12244      9.61898      0.00000      -121.940272   -613.131880     12.758942
     -1.01384      6.14851      1.21441         0.491304     11.053504     49.063553
      0.09475      2.67805      2.42882         9.710396    -15.759815    -11.064111
      0.09475     14.57678      0.00000       -10.734960     -1.604485     12.565963
      1.20335     11.10632      1.21441         0.393931     -1.266053      3.218655
      2.31195      7.63586      2.42882         1.214449      4.503949     -2.530738
      8.96354      4.66117      0.00000       -59.088426    131.166210      3.997906
     10.07214      1.19071      1.21441         1.192627      0.457097     -1.881560
      4.52914     12.59366      2.42882       127.483527    103.081149   -199.444065
      0.09475      4.16540      0.60720        -6.250930     -4.151787     22.961092
      1.20335      0.69493      1.82161        -0.458954     -1.120415     -0.487565
     -4.33964     12.09788      3.03602      -114.668987   -161.648381   -113.411356
      2.31195      9.12320      0.60720         8.962578     21.039754     14.573170
      3.42055      5.65274      1.82161         2.375006     -1.788865     -1.891226
      4.52915      2.18227      3.03602        19.122065     23.364894    -44.596459
      4.52915     14.08100      0.60720        37.341141    -21.437288    115.387096
      5.63774     10.61054      1.82161        -0.246939     -1.267102     -0.558993
      6.74634      7.14007      3.03602       -67.500211     23.731483    -52.820746
     -1.54352     13.96957      4.63114        28.799901     -5.330159    -61.659025
     -1.54352      8.02021      3.03602         0.316989      1.149810      0.888292
      1.78228      3.55819      3.83358        -1.164816     -2.737539     -1.014442
      7.95875      1.22094      4.63114        -0.779386      2.442937     -2.118380
      1.30716     10.14498      3.03602        -0.497012      0.879341      1.250245
      4.63296      5.68296      3.83358        -0.621010     -1.190187      2.151493
     10.80943      3.34571      4.63114        -1.560101     -0.102166      1.207064
      4.15784     12.26976      3.03602      -119.607536   -100.527993    194.767495
      7.48364      7.80773      3.83358        24.635102     19.674001     28.735091
      0.35694      5.47048      4.63114         2.044455      5.298276     -5.032324
     -6.29466     14.39453      3.03602        -0.692119      1.316520     -0.633736
     -2.96886      9.93251      3.83358        -9.742414      1.891242    -11.263677
      3.20762      7.59526      4.63114        -0.859211     -1.316624      0.104433
      3.20761      1.64590      3.03602       -18.272502     -5.905017      2.397169
     -0.11818     12.05728      3.83358        -0.933466     -0.793996      3.478140
      6.05830      9.72003      4.63114         9.124750     -0.100897     -3.109938
      6.05830      3.77067      3.03602       -10.482456     15.503486     10.007573
      2.73250     14.18205      3.83358         0.115266     -0.305574      3.797928
     -4.39420     11.84480      4.63114        -1.711694      0.618262      5.019529
      8.90898      5.89544      3.03602        -2.595360      0.773929      3.554613
     12.23477      1.43342      3.83358         7.242414     -7.917789      7.157397
      2.73250      3.77067      5.02992        63.754146   -129.458174     -2.657659
     -3.91909     12.69471      3.43480       106.016327    162.935425    111.938175
     -0.59329      8.23269      4.23236        -1.951458      4.639619      0.793569
[...]
      9.38409      3.77067      5.02992        63.754146   -129.458174     -2.657659
      2.73250     12.69471      3.43480       106.016327    162.935425    111.938175
      6.05830      8.23269      4.23236        -1.951458      4.639619      0.793569
      1.78228      8.02022      5.02992       -10.894710    -22.018463    -14.776838
      1.78227      2.07085      3.43480         1.734132      0.833504      2.736588
     -1.54352     12.48224      4.23236         1.613835      0.049588     -1.380404
      4.63296     10.14499      5.02992       122.224975    608.410407      0.541594
      4.63295      4.19563      3.43480         1.433613      1.049888     -0.054094
      1.30716     14.60701      4.23236        17.558962      0.455423    -11.631662
      7.48364     12.26976      5.02992        -1.347275      1.687732     -3.182863
      7.48363      6.32039      3.43480        42.572087    -48.180195     24.863459
     10.80943      1.85837      4.23236       -11.295959     -8.651290     36.452239
     -1.06841      5.89544      0.00000        -1.930201    -11.427588    -50.191634
      5.58318     14.81949      3.43480         1.988905     -0.902938     -0.819314
     -4.39420     10.35746      4.23236         0.859013      1.545431     -4.227206
    total drift:                               -0.102289      0.060109     -0.107660

  FREE ENERGIE OF THE ION-ELECTRON SYSTEM (eV)
  free  energy   TOTEN  =        84.62985620 eV

  energy  without entropy=       84.63104279  energy(sigma->0) =       84.63044950