 vasp.6.4.3 19Mar24 (build Oct 22 2024 11:23:12) complex

 executed on             LinuxIFC date 2025.06.04  01:15:54

 INCAR:
   SYSTEM = Si and Ge interface calculation
   ISTART = 0
   ICHARG = 2
   LWAVE = .FALSE.
   LREAL = AUTO
   ENCUT = 700
   ENAUG = 900
   ADDGRID = .TRUE.
   LMAXMIX = 6
   LASPH = .TRUE.
   LMIXTAU = .TRUE.
   NCORE = 16
   NELM = 100
   NBANDS = 116
   EDIFF = 1d-7
   AMIX = 0.6
   ISMEAR = 0
   SIGMA = 0.01
   NELECT = 192
   ISPIN = 2
   NUPDOWN = 1
   LVTOT = .FALSE.
   LVHAR = .TRUE.

 POTCAR:    PAW_PBE Sn 08Apr2002
|           W    W    AA    RRRRR   N    N  II  N    N   GGGG   !!!           |
|           W    W   A  A   R    R  NN   N  II  NN   N  G    G  !!!           |
|           W    W  A    A  R    R  N N  N  II  N N  N  G       !!!           |
|           W WW W  AAAAAA  RRRRR   N  N N  II  N  N N  G  GGG   !            |
|           WW  WW  A    A  R   R   N   NN  II  N   NN  G    G                |
|           W    W  A    A  R    R  N    N  II  N    N   GGGG   !!!           |
|     You use a magnetic or noncollinear calculation, but did not specify     |
|     the initial magnetic moment with the MAGMOM tag. Note that a            |
|     default of 0.021 will be used for all atoms. This ferromagnetic         |
|     setup may break the symmetry of the crystal, in particular it may       |
|     rule out finding an antiferromagnetic solution. Thence, we              |
|     recommend setting the initial magnetic moment manually or verifying     |
|     carefully that this magnetic setup is desired.                          |

 POTCAR:    PAW_PBE Sn 08Apr2002
   VRHFIN =Sn: s2p2

   TITEL  = PAW_PBE Sn 08Apr2002
   POMASS =  118.710; ZVAL   =    4.000    mass and valenz
   ENMAX  =  103.236; ENMIN  =   77.427 eV

 Optimization of the real space projectors (new method)

 maximal supplied QI-value         = 12.47
 optimisation between [QCUT,QGAM] = [ 12.47, 27.06] = [ 43.56,205.12] Ry
 Optimized for a Real-space Cutoff    1.58 Angstroem

   l    n(q)    QCUT    max X(q) W(low)/X(q) W(high)/X(q)  e(spline)
   0     13    12.472    14.688    0.45E-04    0.45E-04    0.25E-05
   0     13    12.472     7.308    0.94E-04    0.11E-03    0.61E-05
   1     12    12.472    45.102    0.34E-03    0.14E-03    0.21E-05
   1     12    12.472    30.691    0.31E-03    0.13E-03    0.20E-05
   2     12    12.472     7.156    0.86E-04    0.11E-03    0.17E-05
 WARNING: PSMAXN for non-local potential too small
          PSMAXN should be >   13.5545592237991       NTYP=           1
  PAW_PBE Sn 08Apr2002                  :

 POSCAR: Sn+Sn
  positions in direct lattice

 exchange-correlation table for PE
   RHO(1)=    0.500       N(1)  =     2000
   RHO(2)=  100.500       N(2)  =     4000

 ion  position               nearest neighbor table
   1  0.944  0.912  0.000-  48 1.66  39 2.67   9 2.81  15 2.81  30 3.50
   2  0.694  0.523  0.100-  34 2.67  13 2.81  16 2.81  10 2.81
   3  0.444  0.134  0.200-  41 2.67  14 2.81  17 2.81  11 2.81
   4  0.194  0.745  0.300-  37 2.46  36 2.67  18 2.81   7 2.81  12 2.81  15 2.81
   5  0.944  0.357  0.400-  32 2.46  16 2.81   8 2.81
   6  0.694  0.968  0.500-  43 1.66  39 2.46   9 2.81  17 2.81  25 3.50
   7  0.194  0.662  0.000-  36 1.66  46 2.46  20 2.81   4 2.81  42 3.50
   8  0.944  0.273  0.100-  29 2.46  21 2.81   5 2.81
   9  0.694  0.884  0.200-  48 2.46  43 2.67   6 2.81   1 2.81  19 2.81  22 2.81
  10  0.444  0.495  0.300-  26 2.67  23 2.81  20 2.81   2 2.81
  11  0.194  0.107  0.400-  45 2.67  24 2.81  21 2.81   3 2.81
  12  0.944  0.718  0.500-  31 1.66  28 2.67  22 2.81   4 2.81  37 3.50
  13  0.694  0.662  0.000-  42 1.66  28 2.46  22 2.81   2 2.81  36 3.50
  14  0.444  0.273  0.100-  47 2.46   3 2.81  23 2.81
  15  0.194  0.884  0.200-  30 2.46  25 2.67   1 2.81  24 2.81  19 2.81   4 2.81
  16  0.944  0.495  0.300-  44 2.67   5 2.81   2 2.81  20 2.81
  17  0.694  0.107  0.400-  27 2.67   3 2.81  21 2.81   6 2.81
  18  0.444  0.718  0.500-  37 1.66  46 2.67   4 2.81  22 2.81  31 3.50
  19  0.444  0.912  0.000-  30 1.66  33 2.67  15 2.81   9 2.81  48 3.50
  20  0.194  0.523  0.100-  40 2.67   7 2.81  10 2.81  16 2.81
  21  0.944  0.134  0.200-  35 2.67   8 2.81  11 2.81  17 2.81
  22  0.694  0.745  0.300-  31 2.46  42 2.67  13 2.81  12 2.81   9 2.81  18 2.81
  23  0.444  0.357  0.400-  38 2.46  10 2.81  14 2.81
  24  0.194  0.968  0.500-  25 1.66  33 2.46  11 2.81  15 2.81  43 3.50
  25  0.056  0.912  0.500-  24 1.66  15 2.67  33 2.81  39 2.81   6 3.50
  26  0.306  0.523  0.600-  10 2.67  37 2.81  40 2.81  34 2.81
  27  0.556  0.134  0.700-  17 2.67  38 2.81  35 2.81  41 2.81
  28  0.806  0.745  0.800-  13 2.46  12 2.67  42 2.81  31 2.81  39 2.81  36 2.81
  29  0.056  0.357  0.900-   8 2.46  32 2.81  40 2.81
  30  0.306  0.968  1.000-  19 1.66  15 2.46  33 2.81  41 2.81   1 3.50
  31  0.806  0.662  0.500-  12 1.66  22 2.46  28 2.81  44 2.81  18 3.50
  32  0.056  0.273  0.600-   5 2.46  45 2.81  29 2.81
  33  0.306  0.884  0.700-  24 2.46  19 2.67  30 2.81  25 2.81  43 2.81  46 2.81
  34  0.556  0.495  0.800-   2 2.67  47 2.81  44 2.81  26 2.81
  35  0.806  0.107  0.900-  21 2.67  48 2.81  27 2.81  45 2.81
  36  0.056  0.718  1.000-   7 1.66   4 2.67  46 2.81  28 2.81  13 3.50
  37  0.306  0.662  0.500-  18 1.66   4 2.46  26 2.81  46 2.81  12 3.50
  38  0.556  0.273  0.600-  23 2.46  27 2.81  47 2.81
  39  0.806  0.884  0.700-   6 2.46   1 2.67  48 2.81  43 2.81  25 2.81  28 2.81
  40  0.056  0.495  0.800-  20 2.67  29 2.81  26 2.81  44 2.81
  41  0.306  0.107  0.900-   3 2.67  27 2.81  45 2.81  30 2.81
  42  0.556  0.718  1.000-  13 1.66  22 2.67  28 2.81  46 2.81   7 3.50
  43  0.556  0.912  0.500-   6 1.66   9 2.67  33 2.81  39 2.81  24 3.50
  44  0.806  0.523  0.600-  16 2.67  31 2.81  34 2.81  40 2.81
  45  0.056  0.134  0.700-  11 2.67  32 2.81  35 2.81  41 2.81
  46  0.306  0.745  0.800-   7 2.46  18 2.67  36 2.81  37 2.81  33 2.81  42 2.81
  47  0.556  0.357  0.900-  14 2.46  34 2.81  38 2.81
  48  0.806  0.968  1.000-   1 1.66   9 2.46  35 2.81  39 2.81  19 3.50

  LATTYP: Found a simple orthorhombic cell.
 ALAT       =     7.6476025580
 B/A-ratio  =     1.1999988777
 C/A-ratio  =     2.5455823088

  Lattice vectors:

 A1 = (   0.0000000000,   0.0000000000,   7.6476025580)
 A2 = (   9.1771144870,   0.0000000000,   0.0000000000)
 A3 = (   0.0000000000,  19.4676017760,   0.0000000000)

Analysis of symmetry for initial positions (statically):
 Subroutine PRICEL returns following result:

[...]

   2 primitive cells build up your supercell.

 Routine SETGRP: Setting up the symmetry group for a
 simple orthorhombic supercell.

 Subroutine GETGRP returns: Found  4 space group operations
 (whereof  1 operations were pure point group operations)
 out of a pool of  8 trial point group operations.

The static configuration has the point symmetry C_1 .
 The point group associated with its full space group is C_2h.

Analysis of symmetry for dynamics (positions and initial velocities):
 Subroutine PRICEL returns following result:

[...]

The dynamic configuration has the point symmetry C_1 .
 The point group associated with its full space group is C_2h.

Analysis of structural, dynamic, and magnetic symmetry:
 Subroutine PRICEL returns following result:

  LATTYP: Found a simple orthorhombic cell.
 ALAT       =     4.5885572435
 B/A-ratio  =     1.6666682254
 C/A-ratio  =     4.2426411490

  Lattice vectors:

 A1 = (  -4.5885572435,   0.0000000000,   0.0000000000)
 A2 = (   0.0000000000,   0.0000000000,   7.6476025580)
 A3 = (   0.0000000000,  19.4676017760,   0.0000000000)

   2 primitive cells build up your supercell.

 Routine SETGRP: Setting up the symmetry group for a
 simple orthorhombic supercell.

 Subroutine GETGRP returns: Found  4 space group operations
 (whereof  1 operations were pure point group operations)
 out of a pool of  8 trial point group operations.

The overall configuration has the point symmetry C_1 .
 The point group associated with its full space group is C_2h.

 Subroutine INISYM returns: Found  4 space group operations
 (whereof  1 operations are pure point group operations),
 and found     2 'primitive' translations

                                     Primitive cell

  volume of cell :     683.1466

  direct lattice vectors                    reciprocal lattice vectors
    -4.588557244  0.000000000  0.000000000    -0.217933426  0.000000000  0.000000000
     0.000000000  0.000000000  7.647602558     0.000000000  0.000000000  0.130759933
     0.000000000 19.467601776  0.000000000     0.000000000  0.051367396  0.000000000

  length of vectors
     4.588557244  7.647602558 19.467601776     0.217933426  0.130759933  0.051367396

  position of ions in fractional coordinates (direct lattice)
     0.112971902  0.000000022  0.912132978
     0.612971932  0.099999964  0.523244023
     0.112971902  0.199999973  0.134355187
     0.612972140  0.299999952  0.745466113
     0.112972260  0.399999857  0.356577158
     0.612972140  0.499999970  0.967688322
     0.612971902  0.000000035  0.662132919
     0.112971902  0.099999987  0.273243934
     0.612971782  0.199999973  0.884355068
     0.112972140  0.299999952  0.495465994
     0.612972022  0.399999797  0.106577039
     0.112972260  0.499999821  0.717688084
     0.887028150  0.499999940  0.912132978
     0.387028098  0.599999964  0.523244023
     0.887028218  0.699999928  0.134355187
     0.387027860  0.799999952  0.745466113
     0.887027740  0.899999857  0.356577158
     0.387027740  0.999999881  0.967688322
     0.387028218  0.499999940  0.662132919
     0.887028218  0.600000024  0.273243964
     0.387028218  0.699999928  0.884355068
     0.887027978  0.799999952  0.495465994
     0.387028218  0.899999857  0.106577218
     0.887027740  0.999999881  0.717688084

  ion indices of the primitive-cell ions
   primitive index   ion index
                 1           1
                 2          20
                 3          21
                 4           4
                 5           5
                 6          24
                 7          13
                 8           8
                 9           9
                10          16
                11          11
                12          12
                13          25
                14          44
                15          45
                16          28
                17          29
                18          48
                19          31
                20          32
                21          39
                22          40
                23          35
                24          36

 KPOINTS: Automatic KPOINTS generated

Automatic generation of k-mesh.
 Grid dimensions read from file:
 generate k-points for:    3    2    4

 Generating k-lattice:

  Cartesian coordinates                     Fractional coordinates (reciprocal lattice)
     0.036322238  0.000000000  0.000000000     0.333333333  0.000000000  0.000000000
     0.000000000  0.025683698  0.000000000     0.000000000  0.500000000  0.000000000
     0.000000000  0.000000000  0.032689983     0.000000000  0.000000000  0.250000000

  Length of vectors
     0.036322238  0.025683698  0.032689983

[...]
     42      -0.2026      1.00000
     43      -0.1202      1.00000
     44      -0.1202      1.00000
     45       0.0113      1.00000
     46       0.0113      1.00000
     47       0.0210      1.00000
     48       0.0210      1.00000
     49       0.2081      1.00000
     50       0.2081      1.00000
     51       0.2967      1.00000
     52       0.2967      1.00000
     53       0.6188      1.00000
     54       0.6188      1.00000
     55       0.9120      1.00000
     56       0.9120      1.00000
     57       1.5987      1.00000
     58       1.5987      1.00000
     59       1.8898      1.00000
     60       1.8898      1.00000
[...]
    102       5.5221      0.00000
    103       5.7929      0.00000
    104       5.7929      0.00000
    105       5.8400      0.00000
    106       5.8400      0.00000
    107       6.0314      0.00000
    108       6.0314      0.00000
    109       6.2134      0.00000
    110       6.2134      0.00000
    111       6.3319      0.00000
    112       6.3319      0.00000
    113       6.4042      0.00000
    114       6.4042      0.00000
    115       6.5042      0.00000
    116       6.5042      0.00000
 Fermi energy:         5.1524565501

 spin component 2

[...]

 k-point    12 :       0.3333    0.5000    0.5000
  band No.  band energies     occupation
      1      -7.3843      1.00000
      2      -7.3843      1.00000
      3      -7.0267      1.00000
      4      -7.0267      1.00000
      5      -6.9409      1.00000
      6      -6.9409      1.00000
      7      -6.6077      1.00000
      8      -6.6077      1.00000
      9      -4.8873      1.00000
     10      -4.8873      1.00000
     11      -4.7093      1.00000
     12      -4.7093      1.00000
     13      -4.5436      1.00000
     14      -4.5436      1.00000
     15      -4.2754      1.00000
     16      -4.2754      1.00000
     17      -3.7189      1.00000
     18      -3.7189      1.00000
     19      -3.5381      1.00000
     20      -3.5381      1.00000
     21      -3.3235      1.00000
     22      -3.3235      1.00000
     23      -2.8996      1.00000
     24      -2.8996      1.00000
     25      -2.8874      1.00000
     26      -2.8874      1.00000
     27      -2.1392      1.00000
     28      -2.1392      1.00000
     29      -1.8407      1.00000
     30      -1.8407      1.00000
     31      -1.4661      1.00000
     32      -1.4661      1.00000
     33      -1.4395      1.00000
     34      -1.4395      1.00000
     35      -0.9155      1.00000
     36      -0.9155      1.00000
     37      -0.7027      1.00000
     38      -0.7027      1.00000
     39      -0.4039      1.00000
     40      -0.4039      1.00000
     41      -0.1895      1.00000
     42      -0.1895      1.00000
     43      -0.1048      1.00000
     44      -0.1048      1.00000
     45       0.0259      1.00000
     46       0.0259      1.00000
     47       0.0347      1.00000
     48       0.0347      1.00000
     49       0.2227      1.00000
     50       0.2227      1.00000
     51       0.3101      1.00000
     52       0.3101      1.00000
     53       0.6349      1.00000
     54       0.6349      1.00000
     55       0.9286      1.00000
     56       0.9286      1.00000
     57       1.6149      1.00000
     58       1.6149      1.00000
     59       1.9059      1.00000
     60       1.9059      1.00000
[...]
    102       5.5451      0.00000
    103       5.8112      0.00000
    104       5.8112      0.00000
    105       5.8633      0.00000
    106       5.8633      0.00000
    107       6.0474      0.00000
    108       6.0474      0.00000
    109       6.2317      0.00000
    110       6.2317      0.00000
    111       6.3502      0.00000
    112       6.3503      0.00000
    113       6.4251      0.00000
    114       6.4251      0.00000
    115       6.5288      0.00000
    116       6.5288      0.00000

 soft charge-density along one line, spin component           1
         0         1         2         3         4         5         6         7         8         9
 total charge-density along one line

 soft charge-density along one line, spin component           2
         0         1         2         3         4         5         6         7         8         9
 total charge-density along one line

------------------------ aborting loop because EDIFF is reached ----------------------------------------

  FORCE on cell =-STRESS in cart. coord.  units (eV):
  Direction    XX          YY          ZZ          XY          YZ          ZX
  Alpha Z   210.94457   210.94457   210.94457
  Ewald   -1060.79349 -2122.33182  -942.89591    -0.00028  -150.56556     0.00034
  Hartree   547.16675  -416.95367   677.57268     0.00001    -6.01354    -0.00002
  E(xc)    -939.11195  -934.24089  -909.05362     0.00003     6.50851    -0.00002
  Local   -1423.54012   493.81191 -2003.73437    -0.00001   137.63742    -0.00000
  n-local  2464.43982  2471.29202  2418.86882     0.06919   -53.19174    -0.84642
  augment  -537.81653  -568.13729  -635.04028    -0.00005     2.73299     0.00005
  Kinetic  1379.34260  1388.75199  1361.03515    -0.13879    23.91587     1.56090
  Fock        0.00000     0.00000     0.00000     0.00000     0.00000     0.00000
  Total     640.63164   523.13681   177.69703     0.00000   -38.97605     0.00000
  in kB     751.23368   613.45393   208.37558     0.00000   -45.70509     0.00000

 VOLUME and BASIS-vectors are now :
  energy-cutoff  :      700.00
  volume of cell :     1366.29
      direct lattice vectors                 reciprocal lattice vectors
     9.177114487  0.000000000  0.000000000     0.108966713  0.000000000  0.000000000
     0.000000000 19.467601776  0.000000000     0.000000000  0.051367396  0.000000000
     0.000000000  0.000000000  7.647602558     0.000000000  0.000000000  0.130759933

  length of vectors
     9.177114487 19.467601776  7.647602558     0.108966713  0.051367396  0.130759933

 FORCES acting on ions
    electron-ion (+dipol)            ewald-force                    non-local-force                 convergence-correction
   -.264E+02 -.212E+02 -.131E+01   0.562E+02 -.294E+01 0.132E+01   0.257E+02 -.210E+02 0.923E+00   -.215E-05 0.154E-04 0.311E-06
   -.624E+01 0.606E+02 -.443E+01   0.676E+01 -.601E+02 0.428E+01   0.415E+00 -.402E+00 0.109E+01   0.115E-05 -.594E-05 -.619E-06
   -.555E+01 -.501E+02 -.423E+01   0.586E+01 0.499E+02 0.406E+01   0.339E+00 0.729E+00 0.938E+00   -.163E-05 0.548E-05 -.110E-06
   0.151E+01 0.103E+02 0.142E+01   -.319E+01 -.828E+01 -.735E+00   0.526E-01 0.208E+01 -.162E+01   0.160E-05 -.149E-04 0.971E-06
   0.942E+01 0.902E+01 0.515E+00   -.102E+02 -.916E+01 -.947E+00   -.103E+01 0.177E+01 -.149E+01   0.841E-06 0.203E-05 0.434E-06
   -.118E+02 -.775E+02 0.714E+00   0.394E+02 0.104E+03 -.945E+00   0.236E+02 0.231E+02 -.184E+01   0.314E-05 0.176E-04 -.243E-06
   -.118E+02 0.775E+02 -.714E+00   0.394E+02 -.104E+03 0.945E+00   0.236E+02 -.231E+02 0.184E+01   0.315E-05 -.189E-04 0.189E-06
   0.942E+01 -.902E+01 -.515E+00   -.102E+02 0.916E+01 0.947E+00   -.103E+01 -.177E+01 0.149E+01   0.832E-06 0.436E-06 -.413E-06
   0.151E+01 -.103E+02 -.142E+01   -.319E+01 0.828E+01 0.735E+00   0.526E-01 -.208E+01 0.162E+01   0.151E-05 0.128E-04 -.102E-05
   -.555E+01 0.501E+02 0.423E+01   0.586E+01 -.499E+02 -.406E+01   0.339E+00 -.729E+00 -.938E+00   -.164E-05 -.447E-05 0.116E-06
   -.624E+01 -.606E+02 0.443E+01   0.676E+01 0.601E+02 -.428E+01   0.415E+00 0.402E+00 -.109E+01   0.110E-05 0.662E-05 0.561E-06
   -.264E+02 0.212E+02 0.132E+01   0.562E+02 0.294E+01 -.132E+01   0.257E+02 0.210E+02 -.923E+00   -.209E-05 -.174E-04 -.273E-06
   -.118E+02 0.775E+02 -.714E+00   0.394E+02 -.104E+03 0.945E+00   0.236E+02 -.231E+02 0.184E+01   0.304E-05 -.189E-04 0.182E-06
   0.942E+01 -.902E+01 -.515E+00   -.102E+02 0.916E+01 0.947E+00   -.103E+01 -.177E+01 0.149E+01   0.666E-06 0.344E-06 -.416E-06
   0.151E+01 -.103E+02 -.142E+01   -.319E+01 0.828E+01 0.735E+00   0.526E-01 -.208E+01 0.162E+01   0.152E-05 0.127E-04 -.101E-05
   -.555E+01 0.501E+02 0.423E+01   0.586E+01 -.499E+02 -.406E+01   0.339E+00 -.729E+00 -.938E+00   -.155E-05 -.454E-05 0.117E-06
   -.624E+01 -.606E+02 0.443E+01   0.676E+01 0.601E+02 -.428E+01   0.415E+00 0.402E+00 -.109E+01   0.109E-05 0.650E-05 0.556E-06
   -.264E+02 0.212E+02 0.132E+01   0.562E+02 0.294E+01 -.132E+01   0.257E+02 0.210E+02 -.923E+00   -.215E-05 -.173E-04 -.296E-06
   -.264E+02 -.212E+02 -.131E+01   0.562E+02 -.294E+01 0.132E+01   0.257E+02 -.210E+02 0.923E+00   -.207E-05 0.153E-04 0.334E-06
   -.624E+01 0.606E+02 -.443E+01   0.676E+01 -.601E+02 0.428E+01   0.415E+00 -.402E+00 0.109E+01   0.102E-05 -.598E-05 -.602E-06
   -.555E+01 -.501E+02 -.423E+01   0.586E+01 0.499E+02 0.406E+01   0.339E+00 0.729E+00 0.938E+00   -.156E-05 0.541E-05 -.961E-07
   0.151E+01 0.103E+02 0.142E+01   -.319E+01 -.828E+01 -.735E+00   0.526E-01 0.208E+01 -.162E+01   0.143E-05 -.149E-04 0.959E-06
   0.942E+01 0.902E+01 0.515E+00   -.102E+02 -.916E+01 -.947E+00   -.103E+01 0.177E+01 -.149E+01   0.660E-06 0.192E-05 0.441E-06
   -.118E+02 -.775E+02 0.714E+00   0.394E+02 0.104E+03 -.945E+00   0.236E+02 0.231E+02 -.184E+01   0.307E-05 0.176E-04 -.227E-06
   0.264E+02 -.212E+02 -.131E+01   -.562E+02 -.294E+01 0.132E+01   -.257E+02 -.210E+02 0.923E+00   0.207E-05 0.154E-04 0.398E-06
   0.624E+01 0.606E+02 -.443E+01   -.676E+01 -.601E+02 0.428E+01   -.415E+00 -.402E+00 0.109E+01   -.115E-05 -.593E-05 -.546E-06
   0.555E+01 -.501E+02 -.423E+01   -.586E+01 0.499E+02 0.406E+01   -.339E+00 0.729E+00 0.938E+00   0.154E-05 0.543E-05 -.980E-07
   -.151E+01 0.103E+02 0.142E+01   0.319E+01 -.828E+01 -.735E+00   -.526E-01 0.208E+01 -.162E+01   -.155E-05 -.149E-04 0.971E-06
   -.942E+01 0.902E+01 0.515E+00   0.102E+02 -.916E+01 -.947E+00   0.103E+01 0.177E+01 -.149E+01   -.720E-06 0.203E-05 0.426E-06
   0.118E+02 -.775E+02 0.714E+00   -.394E+02 0.104E+03 -.945E+00   -.236E+02 0.231E+02 -.184E+01   -.310E-05 0.176E-04 -.273E-06
   0.118E+02 0.775E+02 -.714E+00   -.394E+02 -.104E+03 0.945E+00   -.236E+02 -.231E+02 0.184E+01   -.312E-05 -.189E-04 0.336E-06
   -.942E+01 -.902E+01 -.515E+00   0.102E+02 0.916E+01 0.947E+00   0.103E+01 -.177E+01 0.149E+01   -.656E-06 0.432E-06 -.459E-06
   -.151E+01 -.103E+02 -.142E+01   0.319E+01 0.828E+01 0.735E+00   -.526E-01 -.208E+01 0.162E+01   -.152E-05 0.126E-04 -.923E-06
   0.555E+01 0.501E+02 0.423E+01   -.586E+01 -.499E+02 -.406E+01   -.339E+00 -.729E+00 -.938E+00   0.163E-05 -.442E-05 0.912E-07
   0.624E+01 -.606E+02 0.443E+01   -.676E+01 0.601E+02 -.428E+01   -.415E+00 0.402E+00 -.109E+01   -.109E-05 0.646E-05 0.586E-06
   0.264E+02 0.212E+02 0.132E+01   -.562E+02 0.294E+01 -.132E+01   -.257E+02 0.210E+02 -.923E+00   0.218E-05 -.173E-04 -.431E-06
   0.118E+02 0.775E+02 -.714E+00   -.394E+02 -.104E+03 0.945E+00   -.236E+02 -.231E+02 0.184E+01   -.306E-05 -.188E-04 0.318E-06
   -.942E+01 -.902E+01 -.515E+00   0.102E+02 0.916E+01 0.947E+00   0.103E+01 -.177E+01 0.149E+01   -.838E-06 0.368E-06 -.447E-06
   -.151E+01 -.103E+02 -.142E+01   0.319E+01 0.828E+01 0.735E+00   -.526E-01 -.208E+01 0.162E+01   -.151E-05 0.127E-04 -.908E-06
   0.555E+01 0.501E+02 0.423E+01   -.586E+01 -.499E+02 -.406E+01   -.339E+00 -.729E+00 -.938E+00   0.156E-05 -.450E-05 0.860E-07
   0.624E+01 -.606E+02 0.443E+01   -.676E+01 0.601E+02 -.428E+01   -.415E+00 0.402E+00 -.109E+01   -.110E-05 0.659E-05 0.588E-06
   0.264E+02 0.212E+02 0.132E+01   -.562E+02 0.294E+01 -.132E+01   -.257E+02 0.210E+02 -.923E+00   0.205E-05 -.173E-04 -.416E-06
   0.264E+02 -.212E+02 -.131E+01   -.562E+02 -.294E+01 0.132E+01   -.257E+02 -.210E+02 0.923E+00   0.214E-05 0.154E-04 0.374E-06
   0.624E+01 0.606E+02 -.443E+01   -.676E+01 -.601E+02 0.428E+01   -.415E+00 -.402E+00 0.109E+01   -.102E-05 -.596E-05 -.531E-06
   0.555E+01 -.501E+02 -.423E+01   -.586E+01 0.499E+02 0.406E+01   -.339E+00 0.729E+00 0.938E+00   0.165E-05 0.544E-05 -.970E-07
   -.151E+01 0.103E+02 0.142E+01   0.319E+01 -.828E+01 -.735E+00   -.526E-01 0.208E+01 -.162E+01   -.148E-05 -.150E-04 0.966E-06
   -.942E+01 0.902E+01 0.515E+00   0.102E+02 -.916E+01 -.947E+00   0.103E+01 0.177E+01 -.149E+01   -.774E-06 0.196E-05 0.428E-06
   0.118E+02 -.775E+02 0.714E+00   -.394E+02 0.104E+03 -.945E+00   -.236E+02 0.231E+02 -.184E+01   -.310E-05 0.176E-04 -.273E-06
   -.739E-05 -.354E-02 0.274E-02   -.355E-13 0.711E-13 0.373E-13   0.000E+00 0.355E-14 0.888E-15   0.165E-07 -.632E-05 0.101E-07

 POSITION                                       TOTAL-FORCE (eV/Angst)
      8.65874     17.75704      0.00000        55.495061    -45.067600      0.932986
      6.36446     10.18631      0.76476         0.932886      0.092270      0.931158
      4.07018      2.61557      1.52952         0.646221      0.436675      0.769155
      1.77590     14.51244      2.29428        -1.627931      4.080963     -0.941453
      8.65873      6.94170      3.05904        -1.802861      1.629260     -1.925274
      6.36446     18.83857      3.82380        51.177630     49.505722     -2.066057
      1.77590     12.89014      0.00000        51.177630    -49.505722      2.066057
      8.65874      5.31940      0.76476        -1.802861     -1.629260      1.925274
      6.36446     17.21627      1.52952        -1.627931     -4.080963      0.941453
      4.07018      9.64553      2.29428         0.646221     -0.436675     -0.769155
      1.77590      2.07480      3.05904         0.932886     -0.092270     -0.931158
      8.65873     13.97167      3.82380        55.495061     45.067600     -0.932986
      6.36446     12.89014      0.00000        51.177630    -49.505722      2.066057
      4.07018      5.31940      0.76476        -1.802861     -1.629260      1.925274
      1.77590     17.21627      1.52952        -1.627931     -4.080963      0.941453
      8.65874      9.64553      2.29428         0.646221     -0.436675     -0.769155
      6.36446      2.07480      3.05904         0.932886     -0.092270     -0.931158
      4.07018     13.97167      3.82380        55.495061     45.067600     -0.932986
      4.07018     17.75704      0.00000        55.495061    -45.067600      0.932986
      1.77590     10.18631      0.76476         0.932886      0.092270      0.931158
      8.65874      2.61557      1.52952         0.646221      0.436675      0.769155
      6.36446     14.51244      2.29428        -1.627931      4.080963     -0.941453
      4.07018      6.94170      3.05904        -1.802861      1.629260     -1.925274
      1.77590     18.83857      3.82380        51.177630     49.505722     -2.066057
      0.51838     17.75704      3.82380       -55.495061    -45.067600      0.932986
      2.81266     10.18631      4.58856        -0.932886      0.092270      0.931158
      5.10694      2.61557      5.35332        -0.646221      0.436675      0.769155
      7.40121     14.51244      6.11808         1.627931      4.080963     -0.941453
      0.51838      6.94170      6.88284         1.802861      1.629260     -1.925274
      2.81266     18.83857      7.64760       -51.177630     49.505722     -2.066057
      7.40121     12.89014      3.82380       -51.177630    -49.505722      2.066057
      0.51838      5.31940      4.58856         1.802861     -1.629260      1.925274
      2.81266     17.21627      5.35332         1.627931     -4.080963      0.941453
      5.10694      9.64553      6.11808        -0.646221     -0.436675     -0.769155
      7.40121      2.07480      6.88284        -0.932886     -0.092270     -0.931158
      0.51838     13.97167      7.64760       -55.495061     45.067600     -0.932986
      2.81266     12.89014      3.82380       -51.177630    -49.505722      2.066057
      5.10694      5.31940      4.58856         1.802861     -1.629260      1.925274
      7.40121     17.21627      5.35332         1.627931     -4.080963      0.941453
      0.51838      9.64553      6.11808        -0.646221     -0.436675     -0.769155
      2.81266      2.07480      6.88284        -0.932886     -0.092270     -0.931158
      5.10694     13.97167      7.64760       -55.495061     45.067600     -0.932986
      5.10693     17.75704      3.82380       -55.495061    -45.067600      0.932986
      7.40121     10.18631      4.58856        -0.932886      0.092270      0.931158
      0.51838      2.61557      5.35332        -0.646221      0.436675      0.769155
      2.81266     14.51244      6.11808         1.627931      4.080963     -0.941453
      5.10694      6.94170      6.88284         1.802861      1.629260     -1.925274
      7.40122     18.83857      7.64760       -51.177630     49.505722     -2.066057
    total drift:                               -0.000007     -0.003542      0.002735

  FREE ENERGIE OF THE ION-ELECTRON SYSTEM (eV)
  free  energy   TOTEN  =        30.29486190 eV

  energy  without entropy=       30.29612977  energy(sigma->0) =       30.29549584