 vasp.6.4.3 19Mar24 (build Oct 22 2024 11:23:12) complex

 executed on             LinuxIFC date 2025.06.03  23:01:03

 INCAR:
   SYSTEM = Si and Ge interface calculation
   ISTART = 0
   ICHARG = 2
   LWAVE = .FALSE.
   LREAL = AUTO
   ENCUT = 700
   ENAUG = 900
   ADDGRID = .TRUE.
   LMAXMIX = 6
   LASPH = .TRUE.
   LMIXTAU = .TRUE.
   NCORE = 16
   NELM = 100
   NBANDS = 116
   EDIFF = 1d-7
   AMIX = 0.6
   ISMEAR = 0
   SIGMA = 0.01
   NELECT = 192
   ISPIN = 2
   NUPDOWN = 1
   LVTOT = .FALSE.
   LVHAR = .TRUE.

 POTCAR:    PAW_PBE Ge 05Jan2001
|           W    W    AA    RRRRR   N    N  II  N    N   GGGG   !!!           |
|           W    W   A  A   R    R  NN   N  II  NN   N  G    G  !!!           |
|           W    W  A    A  R    R  N N  N  II  N N  N  G       !!!           |
|           W WW W  AAAAAA  RRRRR   N  N N  II  N  N N  G  GGG   !            |
|           WW  WW  A    A  R   R   N   NN  II  N   NN  G    G                |
|           W    W  A    A  R    R  N    N  II  N    N   GGGG   !!!           |
|     You use a magnetic or noncollinear calculation, but did not specify     |
|     the initial magnetic moment with the MAGMOM tag. Note that a            |
|     default of 0.021 will be used for all atoms. This ferromagnetic         |
|     setup may break the symmetry of the crystal, in particular it may       |
|     rule out finding an antiferromagnetic solution. Thence, we              |
|     recommend setting the initial magnetic moment manually or verifying     |
|     carefully that this magnetic setup is desired.                          |

 POTCAR:    PAW_PBE Ge 05Jan2001
   VRHFIN =Ge: s2p2

   TITEL  = PAW_PBE Ge 05Jan2001
   POMASS =   72.610; ZVAL   =    4.000    mass and valenz
   ENMAX  =  173.807; ENMIN  =  130.355 eV

 Optimization of the real space projectors (new method)

 maximal supplied QI-value         = 16.25
 optimisation between [QCUT,QGAM] = [ 13.49, 26.98] = [ 50.95,203.80] Ry
 Optimized for a Real-space Cutoff    1.25 Angstroem

   l    n(q)    QCUT    max X(q) W(low)/X(q) W(high)/X(q)  e(spline)
   0     10    13.489    65.336    0.91E-04    0.11E-03    0.34E-06
   0     10    13.489    52.220    0.89E-04    0.11E-03    0.34E-06
   1     10    13.489    36.409    0.22E-03    0.27E-03    0.14E-06
   1     10    13.489    21.334    0.21E-03    0.27E-03    0.14E-06
   2      9    13.489     4.673    0.11E-03    0.12E-03    0.19E-06
  PAW_PBE Ge 05Jan2001                  :

 POSCAR: Ge+Ge
  positions in direct lattice

 exchange-correlation table for PE
   RHO(1)=    0.500       N(1)  =     2000
   RHO(2)=  100.500       N(2)  =     4000

 ion  position               nearest neighbor table
   1  0.017  0.000  0.000-  30 1.41  48 2.00  33 2.00   7 2.45  13 2.45
   2  0.517  0.000  0.200-   7 2.45   8 2.45  13 2.45  12 2.45
   3  0.017  0.000  0.400-  28 1.41   8 2.45   9 2.45  12 2.45  15 2.45
   4  0.767  0.750  0.200-  13 2.45  12 2.45  16 2.45  11 2.45
   5  0.017  0.500  0.200-  19 2.45  20 2.45  16 2.45  11 2.45
   6  0.642  0.375  0.500-  34 1.41  25 2.00  40 2.00  21 2.45  24 2.45
   7  0.892  0.125  0.100-  48 1.41  22 2.45  14 2.45   2 2.45   1 2.45
   8  0.392  0.125  0.300-  14 2.45   2 2.45  24 2.45   3 2.45
   9  0.892  0.125  0.500-  46 1.41  40 2.00  28 2.00  24 2.45   3 2.45
  10  0.267  0.750  0.000-  39 1.41  33 2.00  45 2.00  13 2.45  16 2.45
  11  0.892  0.625  0.300-   5 2.45  21 2.45   4 2.45  18 2.45
  12  0.642  0.875  0.300-  18 2.45   4 2.45   2 2.45   3 2.45
  13  0.142  0.875  0.100-  33 1.41  10 2.45   4 2.45   2 2.45   1 2.45
  14  0.267  0.250  0.200-   7 2.45   8 2.45  19 2.45  20 2.45
  15  0.142  0.875  0.500-  31 1.41  37 2.00  28 2.00  18 2.45   3 2.45
  16  0.392  0.625  0.100-  45 1.41  17 2.45   5 2.45   4 2.45  10 2.45
  17  0.517  0.500  0.000-  27 1.41  36 2.00  45 2.00  16 2.45  19 2.45
  18  0.267  0.750  0.400-  37 1.41  12 2.45  15 2.45  11 2.45  23 2.45
  19  0.642  0.375  0.100-  36 1.41   5 2.45  17 2.45  22 2.45  14 2.45
  20  0.142  0.375  0.300-  21 2.45   5 2.45  14 2.45  24 2.45
  21  0.517  0.500  0.400-  25 1.41  20 2.45  23 2.45  11 2.45   6 2.45
  22  0.767  0.250  0.000-  42 1.41  48 2.00  36 2.00   7 2.45  19 2.45
  23  0.392  0.625  0.500-  43 1.41  25 2.00  37 2.00  21 2.45  18 2.45
  24  0.767  0.250  0.400-  40 1.41   8 2.45  20 2.45   9 2.45   6 2.45
  25  0.517  0.500  0.500-  21 1.41   6 2.00  23 2.00  43 2.45  34 2.45
  26  0.017  0.500  0.700-  34 2.45  43 2.45  35 2.45  44 2.45
  27  0.517  0.500  0.900-  17 1.41  35 2.45  45 2.45  44 2.45  36 2.45
  28  0.017  0.000  0.500-   3 1.41   9 2.00  15 2.00  46 2.45  31 2.45
  29  0.517  0.000  0.700-  46 2.45  31 2.45  47 2.45  32 2.45
  30  0.017  0.000  0.900-   1 1.41  47 2.45  48 2.45  32 2.45  33 2.45
  31  0.142  0.875  0.600-  15 1.41  37 2.45  38 2.45  29 2.45  28 2.45
  32  0.642  0.875  0.800-  39 2.45  38 2.45  30 2.45  29 2.45
  33  0.142  0.875  0.000-  13 1.41  10 2.00   1 2.00  39 2.45  30 2.45
  34  0.642  0.375  0.600-   6 1.41  26 2.45  25 2.45  40 2.45  41 2.45
  35  0.142  0.375  0.800-  27 2.45  42 2.45  26 2.45  41 2.45
  36  0.642  0.375  0.000-  19 1.41  17 2.00  22 2.00  27 2.45  42 2.45
  37  0.267  0.750  0.500-  18 1.41  15 2.00  23 2.00  31 2.45  43 2.45
  38  0.767  0.750  0.700-  31 2.45  43 2.45  32 2.45  44 2.45
  39  0.267  0.750  0.900-  10 1.41  32 2.45  33 2.45  44 2.45  45 2.45
  40  0.767  0.250  0.500-  24 1.41   9 2.00   6 2.00  46 2.45  34 2.45
  41  0.267  0.250  0.700-  46 2.45  34 2.45  47 2.45  35 2.45
  42  0.767  0.250  0.900-  22 1.41  47 2.45  35 2.45  48 2.45  36 2.45
  43  0.392  0.625  0.600-  23 1.41  25 2.45  26 2.45  38 2.45  37 2.45
  44  0.892  0.625  0.800-  27 2.45  26 2.45  39 2.45  38 2.45
  45  0.392  0.625  0.000-  16 1.41  17 2.00  10 2.00  27 2.45  39 2.45
  46  0.892  0.125  0.600-   9 1.41  40 2.45  41 2.45  29 2.45  28 2.45
  47  0.392  0.125  0.800-  42 2.45  30 2.45  41 2.45  29 2.45
  48  0.892  0.125  0.000-   7 1.41  22 2.00   1 2.00  42 2.45  30 2.45

  LATTYP: Found a simple orthorhombic cell.
 ALAT       =     5.6578001980
 B/A-ratio  =     1.9999999998
 C/A-ratio  =     2.5000000419

  Lattice vectors:

 A1 = (   5.6578001980,   0.0000000000,   0.0000000000)
 A2 = (   0.0000000000,  11.3156003950,   0.0000000000)
 A3 = (   0.0000000000,   0.0000000000,  14.1445007320)

Analysis of symmetry for initial positions (statically):
 Subroutine PRICEL returns following result:

  LATTYP: Found a simple tetragonal cell.
 ALAT       =     4.0006689384
 C/A-ratio  =     1.7677671718

[...]

   8 primitive cells build up your supercell.

 Routine SETGRP: Setting up the symmetry group for a
 simple orthorhombic supercell.

 Subroutine GETGRP returns: Found  4 space group operations
 (whereof  1 operations were pure point group operations)
 out of a pool of  8 trial point group operations.

The static configuration has the point symmetry C_1 .
 The point group associated with its full space group is C_2h.

Analysis of symmetry for dynamics (positions and initial velocities):
 Subroutine PRICEL returns following result:

[...]

The dynamic configuration has the point symmetry C_1 .
 The point group associated with its full space group is C_2h.

Analysis of structural, dynamic, and magnetic symmetry:
 Subroutine PRICEL returns following result:

  LATTYP: Found a simple tetragonal cell.
 ALAT       =     4.0006689384
 C/A-ratio  =     1.7677671718

  Lattice vectors:

 A1 = (   2.8289001726,  -2.8289000988,   0.0000000000)
 A2 = (   2.8289003197,   2.8289000987,   0.0000000000)
 A3 = (   0.0000000000,   0.0000000000,   7.0722512147)

   8 primitive cells build up your supercell.

 Routine SETGRP: Setting up the symmetry group for a
 simple orthorhombic supercell.

 Subroutine GETGRP returns: Found  4 space group operations
 (whereof  1 operations were pure point group operations)
 out of a pool of  8 trial point group operations.

The overall configuration has the point symmetry C_1 .
 The point group associated with its full space group is C_2h.

 Subroutine INISYM returns: Found  4 space group operations
 (whereof  1 operations are pure point group operations),
 and found     8 'primitive' translations

                                     Primitive cell

  volume of cell :     113.1939

  direct lattice vectors                    reciprocal lattice vectors
     2.828900173 -2.828900099  0.000000000     0.176747130 -0.176747144  0.000000000
     2.828900320  2.828900099  0.000000000     0.176747130  0.176747135  0.000000000
     0.000000000  0.000000000  7.072251215     0.000000000  0.000000000  0.141397692

  length of vectors
     4.000668938  4.000669042  7.072251215     0.249958198  0.249958192  0.141397692

  position of ions in fractional coordinates (direct lattice)
     0.017083452  0.017083452  0.000000000
     0.517083437  0.517083377  0.399999898
     0.017083405  0.017083405  0.799999736
     0.517083579  0.017083339  0.000000000
     0.517083579  0.017083339  0.199999950
     0.017083407  0.517083379  0.599999832

  ion indices of the primitive-cell ions
   primitive index   ion index
                 1           1
                 2          14
                 3          30
                 4          33
                 5          13
                 6          47

 KPOINTS: Automatic KPOINTS generated

Automatic generation of k-mesh.
 Grid dimensions read from file:
 generate k-points for:    6    3    2

 Generating k-lattice:

  Cartesian coordinates                     Fractional coordinates (reciprocal lattice)
     0.029457857  0.014728928  0.000000000     0.166666667 -0.000000000  0.000000000
     0.000000000  0.029457857  0.000000000     0.000000000  0.333333333  0.000000000
     0.000000000  0.000000000  0.035349427     0.000000000  0.000000000  0.500000000

  Length of vectors
     0.032934885  0.029457857  0.035349427

  Shift w.r.t. Gamma in fractional coordinates (k-lattice)
     0.000000000  0.000000000  0.000000000

 Subroutine IBZKPT returns following result:

 Found     20 irreducible k-points:

 Following reciprocal coordinates:
            Coordinates               Weight
  0.000000  0.000000  0.000000      1.000000
  0.166667  0.000000  0.000000      2.000000
  0.166667 -0.333333  0.000000      2.000000
  0.333333  0.000000  0.000000      2.000000
  0.333333  0.333333  0.000000      2.000000
  0.500000  0.000000  0.000000      1.000000
  0.000000  0.333333  0.000000      2.000000
  0.166667  0.333333  0.000000      2.000000
  0.500000  0.333333  0.000000      2.000000
 -0.333333  0.333333  0.000000      2.000000
  0.000000  0.000000  0.500000      1.000000
  0.166667  0.000000  0.500000      2.000000
  0.166667 -0.333333  0.500000      2.000000
  0.333333  0.000000  0.500000      2.000000
  0.333333  0.333333  0.500000      2.000000
  0.500000  0.000000  0.500000      1.000000
  0.000000  0.333333  0.500000      2.000000
  0.166667  0.333333  0.500000      2.000000
  0.500000  0.333333  0.500000      2.000000
 -0.333333  0.333333  0.500000      2.000000

 Following cartesian coordinates:
            Coordinates               Weight
  0.000000  0.000000  0.000000      1.000000
  0.029458  0.014729  0.000000      2.000000
[...]
     42      -1.4423      1.00000
     43      -1.4412      1.00000
     44      -1.4412      1.00000
     45      -1.0205      1.00000
     46      -1.0205      1.00000
     47      -0.9462      1.00000
     48      -0.9462      1.00000
     49      -0.2965      1.00000
     50      -0.2964      1.00000
     51      -0.2702      1.00000
     52      -0.2702      1.00000
     53       0.5113      1.00000
     54       0.5113      1.00000
     55       0.6970      1.00000
     56       0.6970      1.00000
     57       1.2842      1.00000
     58       1.2842      1.00000
     59       1.4007      1.00000
     60       1.4008      1.00000
[...]
    102       6.5385      0.00000
    103       6.8064      0.00000
    104       6.8064      0.00000
    105       7.0015      0.00000
    106       7.0016      0.00000
    107       7.0276      0.00000
    108       7.0276      0.00000
    109       7.1660      0.00000
    110       7.1660      0.00000
    111       7.3187      0.00000
    112       7.3187      0.00000
    113       7.5431      0.00000
    114       7.5436      0.00000
    115       7.6086      0.00000
    116       7.6119      0.00000
 Fermi energy:         5.4295216325

 spin component 2

[...]

 k-point    20 :      -0.3333    0.3333    0.5000
  band No.  band energies     occupation
      1     -11.6824      1.00000
      2     -11.6824      1.00000
      3     -11.6468      1.00000
      4     -11.6468      1.00000
      5     -10.8326      1.00000
      6     -10.8325      1.00000
      7     -10.5265      1.00000
      8     -10.5265      1.00000
      9      -9.2311      1.00000
     10      -9.2311      1.00000
     11      -8.2499      1.00000
     12      -8.2498      1.00000
     13      -7.4235      1.00000
     14      -7.4235      1.00000
     15      -6.5538      1.00000
     16      -6.5538      1.00000
     17      -5.4486      1.00000
     18      -5.4486      1.00000
     19      -5.4284      1.00000
     20      -5.4283      1.00000
     21      -5.1193      1.00000
     22      -5.1193      1.00000
     23      -4.9778      1.00000
     24      -4.9778      1.00000
     25      -4.2840      1.00000
     26      -4.2839      1.00000
     27      -4.1424      1.00000
     28      -4.1424      1.00000
     29      -3.8910      1.00000
     30      -3.8910      1.00000
     31      -3.7924      1.00000
     32      -3.7924      1.00000
     33      -2.9484      1.00000
     34      -2.9484      1.00000
     35      -2.6435      1.00000
     36      -2.6435      1.00000
     37      -2.0913      1.00000
     38      -2.0912      1.00000
     39      -1.9566      1.00000
     40      -1.9566      1.00000
     41      -1.4231      1.00000
     42      -1.4231      1.00000
     43      -1.4192      1.00000
     44      -1.4192      1.00000
     45      -0.9902      1.00000
     46      -0.9902      1.00000
     47      -0.9292      1.00000
     48      -0.9291      1.00000
     49      -0.2729      1.00000
     50      -0.2728      1.00000
     51      -0.2466      1.00000
     52      -0.2465      1.00000
     53       0.5401      1.00000
     54       0.5401      1.00000
     55       0.7156      1.00000
     56       0.7156      1.00000
     57       1.3024      1.00000
     58       1.3024      1.00000
     59       1.4179      1.00000
     60       1.4180      1.00000
[...]
    102       6.5589      0.00000
    103       6.8347      0.00000
    104       6.8347      0.00000
    105       7.0208      0.00000
    106       7.0208      0.00000
    107       7.0495      0.00000
    108       7.0495      0.00000
    109       7.1946      0.00000
    110       7.1946      0.00000
    111       7.3471      0.00000
    112       7.3471      0.00000
    113       7.5612      0.00000
    114       7.5624      0.00000
    115       7.6281      0.00000
    116       7.6291      0.00000

 soft charge-density along one line, spin component           1
         0         1         2         3         4         5         6         7         8         9
 total charge-density along one line

 soft charge-density along one line, spin component           2
         0         1         2         3         4         5         6         7         8         9
 total charge-density along one line

------------------------ aborting loop because EDIFF is reached ----------------------------------------

  FORCE on cell =-STRESS in cart. coord.  units (eV):
  Direction    XX          YY          ZZ          XY          YZ          ZX
  Alpha Z   486.29944   486.29944   486.29944
  Ewald   -2033.87254 -2033.87254  -580.08630  -919.59084     0.00017    -0.00006
  Hartree   291.96922   291.99451   164.27392  -187.07858    -0.00001     0.00002
  E(xc)    -724.33017  -724.30590  -747.94008     4.89857    -0.00000     0.00000
  Local    -892.11224  -891.96426  -962.68412   926.78131    -0.00005     0.00012
  n-local  1312.79330  1312.91614  1599.79897   -64.98810     0.06256    -0.27202
  augment    39.65634    39.68400   231.22073   -11.21434     0.00000     0.00002
  Kinetic  1746.58420  1745.84855  1702.77886    50.84730    -0.00151     0.00097
  Fock        0.00000     0.00000     0.00000     0.00000     0.00000     0.00000
  Total     226.98755   226.59994  1893.66141  -200.34468     0.00000     0.00000
  in kB     401.60563   400.91983  3350.42638  -354.46681     0.00000     0.00000

 VOLUME and BASIS-vectors are now :
  energy-cutoff  :      700.00
  volume of cell :      905.55
      direct lattice vectors                 reciprocal lattice vectors
     5.657800198  0.000000000  0.000000000     0.176747139  0.088373570  0.000000000
    -5.657800198 11.315600395  0.000000000     0.000000000  0.088373570  0.000000000
     0.000000000  0.000000000 14.144500732     0.000000000  0.000000000  0.070698855

  length of vectors
     5.657800198 12.651225845 14.144500732     0.197609309  0.088373570  0.070698855

 FORCES acting on ions
    electron-ion (+dipol)            ewald-force                    non-local-force                 convergence-correction
   0.105E-04 -.453E-05 -.338E+02   0.524E-04 -.208E-04 0.802E+02   -.781E-18 -.167E-18 0.306E+02   -.159E-07 0.126E-05 -.958E-05
   0.239E-04 -.152E-05 -.174E+02   0.226E-06 -.550E-05 0.175E+02   0.206E-18 -.112E-20 0.835E+00   0.458E-08 0.124E-05 0.261E-04
   0.360E-04 -.430E-05 0.753E+02   -.163E-04 -.256E-04 -.123E+03   0.117E-17 -.186E-18 -.322E+02   -.403E-08 0.125E-05 -.242E-04
   0.241E-04 0.279E-05 -.174E+02   0.225E-05 0.174E-04 0.175E+02   0.311E-18 -.163E-20 0.835E+00   -.796E-08 -.324E-05 0.261E-04
   0.650E-05 0.339E-04 -.174E+02   -.514E-05 0.198E-04 0.175E+02   -.291E-18 0.507E-21 0.835E+00   0.169E-07 -.126E-05 0.261E-04
   0.366E-04 0.208E-04 0.338E+02   0.731E-05 -.297E-04 -.802E+02   0.222E-18 -.168E-17 -.306E+02   -.100E-07 0.142E-05 0.105E-04
   0.353E-04 0.763E-05 -.753E+02   0.607E-05 -.255E-04 0.123E+03   0.252E-18 0.229E-18 0.322E+02   -.117E-07 0.319E-05 0.196E-04
   0.196E-04 0.313E-05 0.174E+02   -.337E-05 -.197E-04 -.175E+02   -.875E-19 0.509E-19 -.835E+00   0.144E-07 0.317E-05 -.345E-04
   0.406E-04 0.270E-04 0.338E+02   0.102E-04 -.334E-04 -.802E+02   0.162E-18 -.119E-20 -.306E+02   -.424E-07 0.321E-05 0.105E-04
   0.831E-05 -.123E-04 -.338E+02   0.908E-04 -.212E-04 0.802E+02   0.206E-18 -.195E-18 0.306E+02   0.345E-07 -.326E-05 -.959E-05
   0.210E-04 0.646E-04 0.174E+02   0.653E-06 0.250E-04 -.175E+02   0.801E-18 0.133E-19 -.835E+00   0.591E-08 -.318E-05 -.345E-04
   0.544E-04 0.636E-04 0.174E+02   0.188E-04 0.281E-04 -.175E+02   -.119E-18 0.240E-20 -.835E+00   -.178E-07 -.140E-05 -.345E-04
   -.126E-04 0.107E-03 -.753E+02   -.127E-04 0.189E-04 0.123E+03   -.516E-18 0.202E-18 0.322E+02   0.159E-07 -.142E-05 0.197E-04
   0.162E-04 0.122E-04 -.174E+02   0.216E-05 -.144E-04 0.175E+02   -.262E-18 0.330E-21 0.835E+00   -.112E-07 0.326E-05 0.261E-04
   0.418E-04 0.973E-04 0.338E+02   -.819E-04 0.570E-04 -.802E+02   0.101E-18 -.398E-19 -.306E+02   0.301E-07 -.142E-05 0.105E-04
   -.116E-04 0.110E-03 -.753E+02   -.720E-05 0.326E-04 0.123E+03   -.287E-18 0.180E-18 0.322E+02   -.882E-08 -.320E-05 0.196E-04
   0.596E-04 0.574E-04 -.338E+02   0.529E-04 0.626E-05 0.802E+02   -.227E-18 -.192E-18 0.306E+02   -.792E-08 -.127E-05 -.962E-05
   0.348E-04 -.212E-05 0.753E+02   -.223E-04 -.141E-04 -.123E+03   0.638E-18 -.252E-18 -.322E+02   0.521E-08 -.324E-05 -.242E-04
   -.707E-05 -.364E-05 -.753E+02   0.183E-04 -.163E-04 0.123E+03   0.193E-18 0.173E-18 0.322E+02   0.509E-08 0.142E-05 0.196E-04
   0.238E-04 -.519E-05 0.174E+02   -.622E-06 -.269E-04 -.175E+02   0.273E-18 0.301E-19 -.835E+00   -.368E-08 0.141E-05 -.345E-04
   0.111E-03 0.546E-04 0.753E+02   -.254E-04 0.418E-05 -.123E+03   0.220E-18 -.198E-18 -.322E+02   -.211E-07 -.127E-05 -.241E-04
   0.380E-04 0.392E-04 -.338E+02   -.181E-04 -.119E-04 0.802E+02   -.289E-18 -.173E-18 0.306E+02   -.150E-07 0.327E-05 -.962E-05
   0.452E-04 0.100E-03 0.338E+02   -.642E-04 0.729E-04 -.802E+02   0.664E-18 0.217E-19 -.306E+02   0.225E-07 -.321E-05 0.105E-04
   0.264E-04 0.229E-04 0.753E+02   -.494E-05 -.172E-04 -.123E+03   -.742E-18 0.666E-18 -.322E+02   0.165E-07 0.326E-05 -.241E-04
   0.596E-04 0.574E-04 -.338E+02   0.529E-04 0.626E-05 0.802E+02   -.653E-18 0.482E-19 0.306E+02   -.792E-08 -.127E-05 0.207E-04
   0.650E-05 0.339E-04 -.174E+02   -.514E-05 0.198E-04 0.175E+02   -.626E-19 0.121E-21 0.835E+00   0.169E-07 -.126E-05 0.430E-04
   0.111E-03 0.546E-04 0.753E+02   -.254E-04 0.418E-05 -.123E+03   0.141E-17 -.689E-19 -.322E+02   -.211E-07 -.127E-05 -.436E-04
   0.105E-04 -.453E-05 -.338E+02   0.524E-04 -.208E-04 0.802E+02   -.427E-18 0.127E-19 0.306E+02   -.159E-07 0.126E-05 0.208E-04
   0.239E-04 -.152E-05 -.174E+02   0.226E-06 -.550E-05 0.175E+02   0.456E-18 -.292E-19 0.835E+00   0.458E-08 0.124E-05 0.431E-04
   0.360E-04 -.430E-05 0.753E+02   -.163E-04 -.256E-04 -.123E+03   -.140E-17 -.518E-18 -.322E+02   -.403E-08 0.125E-05 -.437E-04
   -.126E-04 0.107E-03 -.753E+02   -.127E-04 0.189E-04 0.123E+03   0.556E-18 -.781E-18 0.322E+02   0.159E-07 -.142E-05 0.488E-04
   0.544E-04 0.636E-04 0.174E+02   0.188E-04 0.281E-04 -.175E+02   0.832E-18 0.163E-20 -.835E+00   -.178E-07 -.140E-05 -.361E-04
   0.418E-04 0.973E-04 0.338E+02   -.819E-04 0.570E-04 -.802E+02   0.105E-18 0.397E-21 -.306E+02   0.301E-07 -.142E-05 -.198E-04
   -.707E-05 -.364E-05 -.753E+02   0.183E-04 -.163E-04 0.123E+03   0.235E-18 0.323E-18 0.322E+02   0.509E-08 0.142E-05 0.487E-04
   0.238E-04 -.519E-05 0.174E+02   -.622E-06 -.269E-04 -.175E+02   0.929E-19 -.439E-20 -.835E+00   -.368E-08 0.141E-05 -.361E-04
   0.366E-04 0.208E-04 0.338E+02   0.731E-05 -.297E-04 -.802E+02   0.200E-18 0.110E-18 -.306E+02   -.100E-07 0.142E-05 -.197E-04
   0.831E-05 -.123E-04 -.338E+02   0.908E-04 -.212E-04 0.802E+02   -.324E-18 0.258E-19 0.306E+02   0.345E-07 -.326E-05 0.208E-04
   0.241E-04 0.279E-05 -.174E+02   0.225E-05 0.174E-04 0.175E+02   0.475E-18 -.676E-19 0.835E+00   -.796E-08 -.324E-05 0.431E-04
   0.348E-04 -.212E-05 0.753E+02   -.223E-04 -.141E-04 -.123E+03   -.776E-18 0.344E-18 -.322E+02   0.521E-08 -.324E-05 -.437E-04
   0.380E-04 0.392E-04 -.338E+02   -.181E-04 -.119E-04 0.802E+02   -.163E-18 0.260E-19 0.306E+02   -.150E-07 0.327E-05 0.207E-04
   0.162E-04 0.122E-04 -.174E+02   0.216E-05 -.144E-04 0.175E+02   0.313E-18 -.135E-20 0.835E+00   -.112E-07 0.326E-05 0.431E-04
   0.264E-04 0.229E-04 0.753E+02   -.494E-05 -.172E-04 -.123E+03   0.583E-18 -.267E-18 -.322E+02   0.165E-07 0.326E-05 -.437E-04
   -.116E-04 0.110E-03 -.753E+02   -.720E-05 0.326E-04 0.123E+03   -.523E-18 0.305E-18 0.322E+02   -.882E-08 -.320E-05 0.488E-04
   0.210E-04 0.646E-04 0.174E+02   0.653E-06 0.250E-04 -.175E+02   -.276E-18 -.436E-20 -.835E+00   0.591E-08 -.318E-05 -.361E-04
   0.452E-04 0.100E-03 0.338E+02   -.642E-04 0.729E-04 -.802E+02   -.219E-18 -.216E-19 -.306E+02   0.225E-07 -.321E-05 -.197E-04
   0.353E-04 0.763E-05 -.753E+02   0.607E-05 -.255E-04 0.123E+03   0.997E-18 -.752E-18 0.322E+02   -.117E-07 0.319E-05 0.488E-04
   0.196E-04 0.313E-05 0.174E+02   -.337E-05 -.197E-04 -.175E+02   0.108E-17 0.401E-20 -.835E+00   0.144E-07 0.317E-05 -.361E-04
   0.406E-04 0.270E-04 0.338E+02   0.102E-04 -.334E-04 -.802E+02   0.693E-18 0.245E-18 -.306E+02   -.424E-07 0.321E-05 -.198E-04
   0.136E-02 0.158E-02 -.969E-03   -.150E-13 0.596E-15 -.185E-12   0.502E-17 -.259E-17 -.107E-13   -.119E-07 -.123E-07 0.381E-05

 POSITION                                       TOTAL-FORCE (eV/Angst)
      0.09665      0.00000      0.00000        -0.000000      0.000000     77.033698
      2.92555      0.00000      2.82890        -0.000000     -0.000000      0.959337
      0.09665      0.00000      5.65780         0.000000      0.000000    -80.046557
      0.09665      8.48670      2.82890        -0.000000     -0.000000      0.959337
     -2.73225      5.65780      2.82890        -0.000000      0.000000      0.959337
      1.51110      4.24335      7.07225         0.000000     -0.000000    -77.033698
      4.34000      1.41445      1.41445         0.000000      0.000000     80.046557
      1.51110      1.41445      4.24335        -0.000000      0.000000     -0.959337
      4.34000      1.41445      7.07225         0.000000     -0.000000    -77.033698
     -2.73225      8.48670      0.00000        -0.000000     -0.000000     77.033698
      1.51110      7.07225      4.24335        -0.000000      0.000000     -0.959337
     -1.31780      9.90115      4.24335         0.000000      0.000000     -0.959337
     -4.14670      9.90115      1.41445         0.000000      0.000000     80.046557
      0.09665      2.82890      2.82890        -0.000000     -0.000000      0.959337
     -4.14670      9.90115      7.07225         0.000000     -0.000000    -77.033698
     -1.31780      7.07225      1.41445         0.000000      0.000000     80.046557
      0.09665      5.65780      0.00000         0.000000     -0.000000     77.033698
     -2.73225      8.48670      5.65780         0.000000      0.000000    -80.046557
      1.51110      4.24335      1.41445        -0.000000      0.000000     80.046557
     -1.31780      4.24335      4.24335        -0.000000      0.000000     -0.959337
      0.09665      5.65780      5.65780         0.000000      0.000000    -80.046557
      2.92555      2.82890      0.00000        -0.000000     -0.000000     77.033698
     -1.31780      7.07225      7.07225         0.000000     -0.000000    -77.033698
      2.92555      2.82890      5.65780         0.000000      0.000000    -80.046557
      0.09665      5.65780      7.07225         0.000000     -0.000000     77.033698
     -2.73225      5.65780      9.90115        -0.000000      0.000000      0.959337
      0.09665      5.65780     12.73005        -0.000000     -0.000000    -80.046557
      0.09665      0.00000      7.07225         0.000000      0.000000     77.033698
      2.92555      0.00000      9.90115         0.000000     -0.000000      0.959337
      0.09665      0.00000     12.73005         0.000000      0.000000    -80.046557
     -4.14670      9.90115      8.48670        -0.000000     -0.000000     80.046557
     -1.31780      9.90115     11.31560        -0.000000      0.000000     -0.959337
     -4.14670      9.90115      0.00000         0.000000     -0.000000    -77.033698
      1.51110      4.24335      8.48670         0.000000     -0.000000     80.046557
     -1.31780      4.24335     11.31560         0.000000      0.000000     -0.959337
      1.51110      4.24335      0.00000        -0.000000     -0.000000    -77.033698
     -2.73225      8.48670      7.07225         0.000000     -0.000000     77.033698
      0.09665      8.48670      9.90115        -0.000000      0.000000      0.959337
     -2.73225      8.48670     12.73005         0.000000      0.000000    -80.046557
      2.92555      2.82890      7.07225         0.000000      0.000000     77.033698
      0.09665      2.82890      9.90115        -0.000000     -0.000000      0.959337
      2.92555      2.82890     12.73005         0.000000     -0.000000    -80.046557
     -1.31780      7.07225      8.48670        -0.000000     -0.000000     80.046557
      1.51110      7.07225     11.31560        -0.000000     -0.000000     -0.959337
     -1.31780      7.07225      0.00000         0.000000     -0.000000    -77.033698
      4.34000      1.41445      8.48670        -0.000000     -0.000000     80.046557
      1.51110      1.41445     11.31560         0.000000      0.000000     -0.959337
      4.34000      1.41445      0.00000        -0.000000     -0.000000    -77.033698
    total drift:                                0.001364      0.001582     -0.000965

  FREE ENERGIE OF THE ION-ELECTRON SYSTEM (eV)
  free  energy   TOTEN  =       189.45588330 eV

  energy  without entropy=      189.45612782  energy(sigma->0) =      189.45600556