 vasp.6.4.3 19Mar24 (build Oct 22 2024 11:23:12) complex

 executed on             LinuxIFC date 2025.06.08  21:29:44

 INCAR:
   SYSTEM = Si and Ge interface calculation
   ISTART = 0
   ICHARG = 2
   LWAVE = .FALSE.
   LREAL = AUTO
   ENCUT = 700
   ENAUG = 900
   ADDGRID = .TRUE.
   LMAXMIX = 6
   LASPH = .TRUE.
   LMIXTAU = .TRUE.
   NCORE = 16
   NELM = 100
   NBANDS = 404
   EDIFF = 1d-7
   AMIX = 0.6
   ISMEAR = 0
   SIGMA = 0.01
   NELECT = 672
   ISPIN = 2
   NUPDOWN = 1
   LVTOT = .FALSE.
   LVHAR = .TRUE.

 POTCAR:    PAW_PBE Ge 05Jan2001
 POTCAR:    PAW_PBE Sn 08Apr2002
|           W    W    AA    RRRRR   N    N  II  N    N   GGGG   !!!           |
|           W    W   A  A   R    R  NN   N  II  NN   N  G    G  !!!           |
|           W    W  A    A  R    R  N N  N  II  N N  N  G       !!!           |
|           W WW W  AAAAAA  RRRRR   N  N N  II  N  N N  G  GGG   !            |
|           WW  WW  A    A  R   R   N   NN  II  N   NN  G    G                |
|           W    W  A    A  R    R  N    N  II  N    N   GGGG   !!!           |
|     You use a magnetic or noncollinear calculation, but did not specify     |
|     the initial magnetic moment with the MAGMOM tag. Note that a            |
|     default of 5.952e-3 will be used for all atoms. This ferromagnetic      |
|     setup may break the symmetry of the crystal, in particular it may       |
|     rule out finding an antiferromagnetic solution. Thence, we              |
|     recommend setting the initial magnetic moment manually or verifying     |
|     carefully that this magnetic setup is desired.                          |

 POTCAR:    PAW_PBE Ge 05Jan2001
   VRHFIN =Ge: s2p2

   TITEL  = PAW_PBE Ge 05Jan2001
   POMASS =   72.610; ZVAL   =    4.000    mass and valenz
   ENMAX  =  173.807; ENMIN  =  130.355 eV

 POTCAR:    PAW_PBE Sn 08Apr2002
   VRHFIN =Sn: s2p2

   TITEL  = PAW_PBE Sn 08Apr2002
   POMASS =  118.710; ZVAL   =    4.000    mass and valenz
   ENMAX  =  103.236; ENMIN  =   77.427 eV

 Optimization of the real space projectors (new method)

 maximal supplied QI-value         = 16.25
 optimisation between [QCUT,QGAM] = [ 13.49, 26.98] = [ 50.95,203.80] Ry
 Optimized for a Real-space Cutoff    1.25 Angstroem

   l    n(q)    QCUT    max X(q) W(low)/X(q) W(high)/X(q)  e(spline)
   0     10    13.489    65.336    0.91E-04    0.11E-03    0.34E-06
   0     10    13.489    52.220    0.89E-04    0.11E-03    0.34E-06
   1     10    13.489    36.409    0.22E-03    0.27E-03    0.14E-06
   1     10    13.489    21.334    0.21E-03    0.27E-03    0.14E-06
   2      9    13.489     4.673    0.11E-03    0.12E-03    0.19E-06
 Optimization of the real space projectors (new method)

 maximal supplied QI-value         = 12.47
 optimisation between [QCUT,QGAM] = [ 12.47, 27.06] = [ 43.56,205.12] Ry
 Optimized for a Real-space Cutoff    1.58 Angstroem

   l    n(q)    QCUT    max X(q) W(low)/X(q) W(high)/X(q)  e(spline)
   0     13    12.472    14.688    0.45E-04    0.45E-04    0.25E-05
   0     13    12.472     7.308    0.94E-04    0.11E-03    0.61E-05
   1     12    12.472    45.102    0.34E-03    0.14E-03    0.21E-05
   1     12    12.472    30.691    0.31E-03    0.13E-03    0.20E-05
   2     12    12.472     7.156    0.86E-04    0.11E-03    0.17E-05
 WARNING: PSMAXN for non-local potential too small
          PSMAXN should be >   13.5545592237991       NTYP=           2
  PAW_PBE Ge 05Jan2001                  :
  PAW_PBE Sn 08Apr2002                  :

 POSCAR: Ge+Sn
  positions in direct lattice

 exchange-correlation table for PE
   RHO(1)=    0.500       N(1)  =     2000
   RHO(2)=  100.500       N(2)  =     4000

 ion  position               nearest neighbor table
   1  0.469  0.990  0.000-  61 2.45  73 2.45  74 2.45 108 3.28
   2  0.094  0.865  0.078-  62 2.45  74 2.45  75 2.45  67 2.45
   3  0.719  0.740  0.156-  63 2.45  76 2.45  75 2.45  68 2.45
   4  0.344  0.615  0.234-  64 2.45  76 2.45  77 2.45  69 2.45
   5  0.969  0.490  0.313-  77 2.45  65 2.45  78 2.45  70 2.45
   6  0.594  0.365  0.391-  66 2.45  78 2.45  71 2.45  97 2.63
   7  0.969  0.990  0.000- 168 2.11  67 2.45  79 2.45  80 2.45
   8  0.594  0.865  0.078-  68 2.45  80 2.45  61 2.45  81 2.45
   9  0.219  0.740  0.156-  69 2.45  82 2.45  81 2.45  62 2.45
  10  0.844  0.615  0.234-  70 2.45  83 2.45  82 2.45  63 2.45
  11  0.469  0.490  0.313-  71 2.45  83 2.45  84 2.45  64 2.45
  12  0.094  0.365  0.391- 157 2.43  72 2.45  65 2.45  84 2.45 115 3.13
  13  0.469  0.490  0.000- 138 2.11  49 2.45  85 2.45  86 2.45
  14  0.094  0.365  0.078-  50 2.45  86 2.45  55 2.45  87 2.45
  15  0.719  0.240  0.156-  88 2.45  56 2.45  87 2.45  51 2.45
  16  0.344  0.115  0.234-  57 2.45  89 2.45  88 2.45  52 2.45
  17  0.969  0.990  0.313-  89 2.45  53 2.45  58 2.45  90 2.45
  18  0.594  0.865  0.391- 139 2.43  90 2.45  59 2.45  54 2.45 109 3.13
  19  0.969  0.490  0.000-  55 2.45  91 2.45  92 2.45 126 3.28
  20  0.594  0.365  0.078-  56 2.45  92 2.45  49 2.45  93 2.45
  21  0.219  0.240  0.156-  94 2.45  50 2.45  93 2.45  57 2.45
  22  0.844  0.115  0.234-  51 2.45  95 2.45  94 2.45  58 2.45
  23  0.469  0.990  0.313-  52 2.45  96 2.45  59 2.45  95 2.45
  24  0.094  0.865  0.391-  53 2.45  60 2.45  96 2.45 127 2.63
  25  0.719  0.240  0.000-  55 2.45  73 2.45  56 2.45 126 2.93 144 3.09 156 3.17
  26  0.344  0.115  0.078-  79 2.45  74 2.45  56 2.45  57 2.45
  27  0.969  0.990  0.156-  58 2.45  80 2.45  57 2.45  75 2.45
  28  0.594  0.865  0.234-  59 2.45  81 2.45  76 2.45  58 2.45
  29  0.219  0.740  0.313-  82 2.45  77 2.45  60 2.45  59 2.45
  30  0.844  0.615  0.391- 145 2.38  83 2.45  60 2.45  78 2.45 127 3.17
  31  0.219  0.240  0.000- 114 2.39  49 2.45  50 2.45  79 2.45
  32  0.844  0.115  0.078-  73 2.45  80 2.45  50 2.45  51 2.45
  33  0.469  0.990  0.156-  52 2.45  51 2.45  81 2.45  74 2.45
  34  0.094  0.865  0.234-  53 2.45  75 2.45  52 2.45  82 2.45
  35  0.719  0.740  0.313-  53 2.45  83 2.45  76 2.45  54 2.45
  36  0.344  0.615  0.391-  54 2.45  84 2.45  77 2.45 103 2.67
  37  0.719  0.740  0.000- 120 2.39  85 2.45  68 2.45  67 2.45
  38  0.344  0.615  0.078-  68 2.45  91 2.45  86 2.45  69 2.45
  39  0.969  0.490  0.156-  70 2.45  87 2.45  92 2.45  69 2.45
  40  0.594  0.365  0.234-  70 2.45  93 2.45  71 2.45  88 2.45
  41  0.219  0.240  0.313-  72 2.45  71 2.45  94 2.45  89 2.45
  42  0.844  0.115  0.391-  90 2.45  95 2.45  72 2.45 121 2.67
  43  0.219  0.740  0.000-  62 2.45  91 2.45  61 2.45 108 2.93 162 3.09 150 3.17
  44  0.844  0.615  0.078-  92 2.45  63 2.45  85 2.45  62 2.45
  45  0.469  0.490  0.156-  64 2.45  93 2.45  86 2.45  63 2.45
  46  0.094  0.365  0.234-  65 2.45  94 2.45  64 2.45  87 2.45
  47  0.719  0.240  0.313-  66 2.45  88 2.45  95 2.45  65 2.45
  48  0.344  0.115  0.391- 151 2.38  89 2.45  96 2.45  66 2.45  97 3.17
  49  0.469  0.365  0.000-  13 2.45  31 2.45  20 2.45 156 3.31
  50  0.094  0.240  0.078-  21 2.45  14 2.45  32 2.45  31 2.45
  51  0.719  0.115  0.156-  22 2.45  33 2.45  15 2.45  32 2.45
  52  0.344  0.990  0.234-  23 2.45  33 2.45  16 2.45  34 2.45
  53  0.969  0.865  0.313-  24 2.45  34 2.45  17 2.45  35 2.45
  54  0.594  0.740  0.391-  18 2.45  36 2.45  35 2.45 163 2.66
  55  0.969  0.365  0.000- 126 2.10  25 2.45  19 2.45  14 2.45
  56  0.594  0.240  0.078-  15 2.45  20 2.45  25 2.45  26 2.45
  57  0.219  0.115  0.156-  16 2.45  27 2.45  21 2.45  26 2.45
  58  0.844  0.990  0.234-  27 2.45  22 2.45  28 2.45  17 2.45
  59  0.469  0.865  0.313-  28 2.45  18 2.45  23 2.45  29 2.45
  60  0.094  0.740  0.391- 127 2.42  29 2.45  30 2.45  24 2.45 145 3.08
[...]
 154  0.179  0.847  0.740- 131 2.82  99 2.82 124 2.83 100 2.83
 155  0.429  0.097  0.830- 132 2.82 100 2.82 125 2.83 101 2.83
 156  0.679  0.347  0.919- 101 2.82 126 2.83 102 2.83  25 3.17  49 3.31
 157  0.095  0.431  0.471-  12 2.43 122 2.82 115 2.83 103 2.83  84 3.13
 158  0.345  0.681  0.561- 123 2.82 103 2.82 116 2.83 104 2.83
 159  0.595  0.931  0.651- 124 2.82 104 2.82 117 2.83 105 2.83
 160  0.845  0.181  0.740- 125 2.82 105 2.82 106 2.83 118 2.83
 161  0.095  0.431  0.830- 106 2.82 126 2.82 119 2.83 107 2.83
 162  0.345  0.681  0.919-  91 2.42 107 2.82 120 2.83 108 2.83  43 3.09
 163  0.762  0.764  0.471-  54 2.66 116 2.82 109 2.83 127 2.83
 164  0.012  0.014  0.561- 117 2.82 109 2.82 110 2.83 128 2.83
 165  0.262  0.264  0.651- 118 2.82 110 2.82 111 2.83 129 2.83
 166  0.512  0.514  0.740- 119 2.82 111 2.82 112 2.83 130 2.83
 167  0.762  0.764  0.830- 120 2.82 112 2.82 113 2.83 131 2.83
 168  0.012  0.014  0.919-   7 2.11 113 2.82 114 2.83 132 2.83  79 2.88

  LATTYP: Found a simple orthorhombic cell.
 ALAT       =    11.3156003950
 B/A-ratio  =     1.4142136035
 C/A-ratio  =     2.2627362706

  Lattice vectors:

 A1 = (  11.3156003950,   0.0000000000,   0.0000000000)
 A2 = (   0.0000000000,  16.0026760100,   0.0000000000)
 A3 = (   0.0000000000,   0.0000000000,  25.6042194370)

Analysis of symmetry for initial positions (statically):
 Subroutine PRICEL returns following result:

[...]

   2 primitive cells build up your supercell.

 Routine SETGRP: Setting up the symmetry group for a
 simple orthorhombic supercell.

 Subroutine GETGRP returns: Found  1 space group operations
 (whereof  1 operations were pure point group operations)
 out of a pool of  8 trial point group operations.

The static configuration has the point symmetry C_1 .

Analysis of symmetry for dynamics (positions and initial velocities):
 Subroutine PRICEL returns following result:

[...]

The dynamic configuration has the point symmetry C_1 .

Analysis of structural, dynamic, and magnetic symmetry:
 Subroutine PRICEL returns following result:

  LATTYP: Found a simple orthorhombic cell.
 ALAT       =     8.0013380050
 B/A-ratio  =     1.4142138579
 C/A-ratio  =     3.1999922289

  Lattice vectors:

 A1 = (   0.0000013466,   8.0013380050,   0.0000000000)
 A2 = ( -11.3156030881,   0.0000000000,   0.0000000000)
 A3 = (   0.0000000000,   0.0000000000,  25.6042194370)

   2 primitive cells build up your supercell.

 Routine SETGRP: Setting up the symmetry group for a
 simple orthorhombic supercell.

 Subroutine GETGRP returns: Found  1 space group operations
 (whereof  1 operations were pure point group operations)
 out of a pool of  8 trial point group operations.

The overall configuration has the point symmetry C_1 .

 Subroutine INISYM returns: Found  1 space group operations
 (whereof  1 operations are pure point group operations),
 and found     2 'primitive' translations

                                     Primitive cell

  volume of cell :    2318.2051

  direct lattice vectors                    reciprocal lattice vectors
     0.000001347  8.001338005  0.000000000     0.000000000  0.124979097  0.000000000
   -11.315603088  0.000000000  0.000000000    -0.088373549  0.000000015  0.000000000
     0.000000000  0.000000000 25.604219437     0.000000000  0.000000000  0.039056063

  length of vectors
     8.001338005 11.315603088 25.604219437     0.124979097  0.088373549  0.039056063

  position of ions in fractional coordinates (direct lattice)
     0.979378462  0.520621620  0.000000017
     0.729378462  0.770621679  0.078125209
     0.479378462  0.020621769  0.156250417
[...]
     0.000000000  0.000000000 25.604219437     0.000000000  0.000000000  0.039056063

  length of vectors
    11.315600395 19.599195182 25.604219437     0.108235075  0.062489549  0.039056063

 FORCES acting on ions
    electron-ion (+dipol)            ewald-force                    non-local-force                 convergence-correction
   0.771E+01 -.107E+02 0.118E+03   -.849E+01 0.106E+02 -.118E+03   -.993E-01 0.491E+00 0.113E+00   -.678E-05 0.154E-04 -.473E-04
   0.739E-01 0.139E+01 0.692E+02   -.235E+00 -.172E+01 -.695E+02   0.186E+00 0.154E+00 0.420E+00   0.166E-05 0.386E-05 -.454E-04
   0.434E-01 -.262E+00 0.231E+02   0.341E-01 0.235E+00 -.230E+02   -.595E-01 0.251E-01 -.116E+00   -.116E-04 -.108E-04 -.149E-04
   0.121E-01 -.246E+00 -.229E+02   0.392E-01 0.228E+00 0.230E+02   -.363E-01 0.379E-01 -.129E+00   0.399E-05 -.107E-05 -.175E-04
   -.168E-01 0.184E+01 -.696E+02   -.744E-01 -.189E+01 0.699E+02   0.257E+00 0.521E-01 -.136E+00   -.208E-04 0.410E-05 0.336E-05
   0.107E+02 -.156E+02 -.112E+03   -.110E+02 0.161E+02 0.112E+03   -.146E+00 0.495E+00 -.677E+00   0.711E-05 -.209E-04 0.415E-05
   0.240E+02 0.130E+02 0.924E+02   -.244E+02 -.139E+02 -.886E+02   -.857E+00 -.125E+01 0.550E+01   0.297E-04 0.409E-04 -.433E-04
   -.247E+01 -.171E+01 0.716E+02   0.279E+01 0.173E+01 -.713E+02   -.229E+00 0.280E-01 -.468E+00   0.270E-05 -.159E-05 -.143E-04
   0.132E+00 0.150E+00 0.224E+02   -.299E+00 -.235E+00 -.227E+02   0.215E+00 0.383E-01 0.192E+00   0.143E-04 -.510E-05 -.134E-04
   0.269E+00 0.204E+00 -.227E+02   -.305E+00 -.228E+00 0.227E+02   0.121E+00 0.233E-01 0.112E+00   0.518E-07 -.273E-05 0.263E-05
   -.261E+01 -.191E+01 -.709E+02   0.267E+01 0.192E+01 0.710E+02   -.388E-01 0.850E-01 -.157E+00   0.132E-04 -.991E-05 -.149E-04
   0.181E+02 0.172E+02 -.102E+03   -.183E+02 -.172E+02 0.101E+03   -.709E-01 -.950E+00 -.117E+01   0.636E-05 0.111E-05 0.232E-04
   0.240E+02 0.130E+02 0.924E+02   -.244E+02 -.139E+02 -.886E+02   -.857E+00 -.125E+01 0.550E+01   0.254E-04 0.226E-04 -.376E-04
   -.247E+01 -.171E+01 0.716E+02   0.279E+01 0.173E+01 -.713E+02   -.229E+00 0.280E-01 -.468E+00   0.245E-05 0.115E-05 -.152E-04
   0.132E+00 0.150E+00 0.224E+02   -.299E+00 -.235E+00 -.227E+02   0.215E+00 0.383E-01 0.192E+00   0.743E-05 0.253E-05 -.213E-04
   0.269E+00 0.204E+00 -.227E+02   -.305E+00 -.228E+00 0.227E+02   0.121E+00 0.233E-01 0.112E+00   -.553E-06 0.360E-05 0.643E-05
   -.261E+01 -.191E+01 -.709E+02   0.267E+01 0.192E+01 0.710E+02   -.388E-01 0.850E-01 -.157E+00   0.149E-04 -.772E-05 -.711E-05
   0.181E+02 0.172E+02 -.102E+03   -.183E+02 -.172E+02 0.101E+03   -.709E-01 -.950E+00 -.117E+01   0.217E-05 0.626E-05 0.204E-04
   0.771E+01 -.107E+02 0.118E+03   -.849E+01 0.106E+02 -.118E+03   -.993E-01 0.491E+00 0.113E+00   -.920E-05 0.161E-05 -.440E-04
   0.739E-01 0.139E+01 0.692E+02   -.235E+00 -.172E+01 -.695E+02   0.186E+00 0.154E+00 0.420E+00   0.177E-05 -.291E-05 -.445E-04
   0.434E-01 -.262E+00 0.231E+02   0.342E-01 0.235E+00 -.230E+02   -.595E-01 0.251E-01 -.116E+00   -.358E-05 -.405E-06 -.207E-04
   0.121E-01 -.246E+00 -.229E+02   0.393E-01 0.228E+00 0.230E+02   -.363E-01 0.379E-01 -.129E+00   0.354E-05 0.212E-06 -.127E-04
   -.169E-01 0.184E+01 -.696E+02   -.743E-01 -.189E+01 0.699E+02   0.257E+00 0.521E-01 -.136E+00   -.205E-04 0.153E-05 0.140E-04
   0.107E+02 -.156E+02 -.112E+03   -.110E+02 0.161E+02 0.112E+03   -.146E+00 0.495E+00 -.677E+00   0.105E-04 -.116E-04 0.591E-05
   0.240E+02 0.125E+02 0.109E+03   -.250E+02 -.127E+02 -.109E+03   -.514E+00 0.910E-01 0.327E+00   0.838E-05 -.778E-05 -.493E-04
   -.258E+01 -.208E+01 0.709E+02   0.242E+01 0.200E+01 -.713E+02   0.369E+00 -.412E-01 0.574E+00   -.100E-04 0.748E-05 -.568E-04
   0.467E+00 0.180E+00 0.229E+02   -.296E+00 -.232E+00 -.227E+02   -.130E+00 0.378E-01 -.181E+00   -.107E-04 0.972E-05 -.168E-04
   0.281E+00 0.171E+00 -.225E+02   -.290E+00 -.239E+00 0.227E+02   0.333E-01 0.204E-01 -.155E+00   0.172E-05 -.119E-05 -.129E-04
   -.219E+01 -.165E+01 -.718E+02   0.255E+01 0.181E+01 0.716E+02   0.210E-01 -.640E-01 0.298E+00   -.223E-04 0.253E-05 0.112E-04
   0.303E+02 0.837E+01 -.101E+03   -.310E+02 -.823E+01 0.100E+03   -.130E+01 -.284E-01 -.213E+01   0.287E-04 0.178E-04 0.122E-04
   0.422E+01 -.149E+02 0.106E+03   -.398E+01 0.155E+02 -.106E+03   0.572E+00 0.528E+00 0.131E+01   0.149E-04 -.358E-04 -.403E-04
   -.485E-01 0.202E+01 0.697E+02   0.172E+00 -.201E+01 -.696E+02   -.133E+00 0.589E-01 -.130E+00   0.175E-05 0.752E-05 -.399E-04
   -.219E+00 -.225E+00 0.228E+02   0.301E-01 0.231E+00 -.230E+02   0.221E+00 -.205E-01 0.145E+00   0.115E-04 0.433E-05 -.147E-04
   -.111E+00 -.253E+00 -.230E+02   0.250E-01 0.238E+00 0.230E+02   0.122E+00 0.968E-02 0.810E-01   -.226E-05 0.632E-06 0.221E-04
   0.602E-01 0.186E+01 -.694E+02   0.119E-01 -.184E+01 0.693E+02   -.167E+00 0.346E-01 0.105E-01   0.102E-04 0.103E-04 0.117E-05
   0.182E+01 -.900E+01 -.113E+03   -.220E+01 0.933E+01 0.113E+03   0.104E+00 -.530E-01 0.601E-01   -.111E-04 0.398E-05 0.126E-04
   0.422E+01 -.149E+02 0.106E+03   -.398E+01 0.155E+02 -.106E+03   0.572E+00 0.528E+00 0.131E+01   0.661E-05 -.344E-04 -.403E-04
   -.486E-01 0.202E+01 0.697E+02   0.172E+00 -.201E+01 -.696E+02   -.133E+00 0.589E-01 -.130E+00   0.250E-05 -.547E-05 -.330E-04
   -.219E+00 -.225E+00 0.228E+02   0.302E-01 0.231E+00 -.230E+02   0.221E+00 -.205E-01 0.145E+00   0.122E-04 -.236E-05 -.195E-04
   -.111E+00 -.253E+00 -.230E+02   0.251E-01 0.238E+00 0.230E+02   0.122E+00 0.968E-02 0.810E-01   -.463E-05 -.227E-05 0.952E-05
   0.602E-01 0.186E+01 -.694E+02   0.119E-01 -.184E+01 0.693E+02   -.167E+00 0.346E-01 0.105E-01   0.155E-04 0.663E-05 -.738E-06
   0.182E+01 -.900E+01 -.113E+03   -.220E+01 0.933E+01 0.113E+03   0.104E+00 -.530E-01 0.601E-01   -.131E-04 -.379E-05 0.171E-04
   0.240E+02 0.125E+02 0.109E+03   -.250E+02 -.127E+02 -.109E+03   -.514E+00 0.910E-01 0.327E+00   0.129E-04 -.120E-04 -.513E-04
   -.258E+01 -.208E+01 0.709E+02   0.242E+01 0.200E+01 -.713E+02   0.369E+00 -.412E-01 0.574E+00   -.685E-05 -.104E-04 -.481E-04
   0.467E+00 0.180E+00 0.229E+02   -.296E+00 -.232E+00 -.227E+02   -.130E+00 0.378E-01 -.181E+00   -.115E-04 0.366E-06 -.211E-04
   0.281E+00 0.171E+00 -.225E+02   -.290E+00 -.239E+00 0.227E+02   0.333E-01 0.204E-01 -.155E+00   0.517E-05 0.159E-05 -.248E-04
   -.219E+01 -.165E+01 -.718E+02   0.255E+01 0.181E+01 0.716E+02   0.210E-01 -.640E-01 0.298E+00   -.281E-04 -.787E-05 0.100E-04
   0.303E+02 0.837E+01 -.101E+03   -.310E+02 -.823E+01 0.100E+03   -.130E+01 -.284E-01 -.213E+01   0.307E-04 0.103E-04 0.904E-05
   -.739E+01 0.976E+01 0.118E+03   0.822E+01 -.973E+01 -.119E+03   0.108E+00 -.393E+00 0.386E-01   0.128E-04 -.364E-05 -.442E-04
   0.675E-01 -.195E+01 0.696E+02   -.207E+00 0.196E+01 -.694E+02   0.160E+00 -.885E-01 -.155E+00   -.283E-05 -.504E-05 -.339E-04
   -.336E-01 0.253E+00 0.231E+02   -.291E-01 -.230E+00 -.230E+02   0.326E-01 -.844E-02 -.114E+00   0.694E-05 0.528E-05 -.245E-04
   0.155E+00 0.256E+00 -.230E+02   -.208E-01 -.232E+00 0.230E+02   -.163E+00 -.483E-02 0.419E-01   -.191E-05 0.326E-05 0.170E-04
   -.224E-01 -.187E+01 -.696E+02   0.185E-01 0.188E+01 0.697E+02   -.190E+00 -.412E-01 -.376E-01   0.212E-04 -.393E-05 0.177E-04
   -.197E+01 0.913E+01 -.113E+03   0.231E+01 -.947E+01 0.113E+03   -.122E+00 0.112E+00 0.556E-01   0.137E-04 0.874E-05 0.125E-04
   -.246E+02 -.115E+02 0.916E+02   0.251E+02 0.122E+02 -.874E+02   0.105E+01 0.102E+01 0.582E+01   -.320E-04 -.798E-05 -.363E-04
   0.259E+01 0.203E+01 0.710E+02   -.238E+01 -.194E+01 -.715E+02   -.428E+00 0.415E-01 0.617E+00   0.277E-05 -.430E-05 -.490E-04
   -.152E+00 -.147E+00 0.224E+02   0.294E+00 0.230E+00 -.227E+02   -.196E+00 -.231E-01 0.185E+00   -.906E-05 0.493E-05 -.199E-04
   -.297E+00 -.179E+00 -.226E+02   0.286E+00 0.232E+00 0.227E+02   -.156E-01 0.316E-02 -.120E+00   0.221E-05 -.344E-07 -.151E-04
   0.255E+01 0.191E+01 -.710E+02   -.261E+01 -.190E+01 0.712E+02   0.446E-01 -.841E-01 -.183E+00   -.115E-04 0.570E-05 -.385E-05
   -.298E+02 -.831E+01 -.101E+03   0.305E+02 0.804E+01 0.101E+03   0.117E+01 0.512E-01 -.177E+01   -.324E-04 0.608E-05 0.133E-04
[...]
   -.352E+00 -.123E+01 0.712E+02   0.211E+00 0.112E+01 -.709E+02   0.264E+00 0.264E+00 -.337E+00   -.686E-06 -.671E-06 0.307E-04
   0.119E+02 0.885E+01 0.112E+03   -.118E+02 -.863E+01 -.113E+03   -.839E+00 -.791E+00 0.141E+01   0.691E-05 0.700E-05 0.622E-05
   0.231E+02 0.401E+01 -.127E+03   -.230E+02 -.392E+01 0.127E+03   -.142E+01 0.106E+00 0.189E+01   0.380E-05 0.323E-05 0.344E-04
   0.475E+00 -.115E+01 -.720E+02   -.502E+00 0.118E+01 0.720E+02   0.852E-01 0.373E-01 0.116E+00   0.326E-05 0.486E-05 0.117E-04
   -.873E-01 -.157E+00 -.245E+02   0.593E-01 0.216E+00 0.245E+02   0.146E-01 -.216E-01 -.598E-01   0.529E-06 0.196E-05 -.293E-05
   -.224E+00 -.251E+00 0.245E+02   0.245E+00 0.216E+00 -.245E+02   0.936E-02 0.529E-01 0.349E-01   0.115E-05 -.158E-05 0.206E-04
   -.198E+01 -.114E+01 0.722E+02   0.207E+01 0.118E+01 -.721E+02   -.701E-01 0.570E-01 -.137E+00   -.120E-05 -.378E-05 0.179E-04
   -.938E+01 0.430E+01 0.128E+03   0.976E+01 -.380E+01 -.128E+03   0.685E+00 -.246E+00 -.221E+01   -.812E-05 -.285E-05 0.515E-05
   -.433E+01 0.776E+01 -.116E+03   0.411E+01 -.805E+01 0.117E+03   -.188E-01 0.144E+00 -.339E+00   0.740E-05 0.124E-04 0.181E-04
   -.164E+01 -.134E+01 -.713E+02   0.149E+01 0.113E+01 0.710E+02   0.245E+00 0.328E+00 0.167E+00   -.130E-05 -.216E-05 0.132E-04
   -.171E+00 -.257E+00 -.245E+02   0.201E+00 0.215E+00 0.244E+02   0.686E-02 0.696E-01 0.787E-01   -.614E-06 -.103E-05 -.798E-06
   -.127E+00 -.202E+00 0.247E+02   0.104E+00 0.215E+00 -.246E+02   0.268E-01 0.333E-01 -.643E-01   -.294E-05 -.550E-05 0.223E-04
   -.233E+00 -.115E+01 0.733E+02   0.144E+00 0.113E+01 -.732E+02   0.125E+00 0.107E+00 -.108E-01   -.252E-05 -.341E-05 0.247E-04
   0.116E+02 0.630E+01 0.146E+03   -.117E+02 -.637E+01 -.148E+03   -.198E-01 0.132E+01 -.849E+01   0.245E-04 0.310E-04 -.886E-06
   0.111E+00 0.552E+00 0.102E+02   0.870E-13 -.302E-13 0.188E-11   -.359E+00 -.196E+00 -.100E+02   0.977E-05 0.246E-04 -.517E-03

 POSITION                                       TOTAL-FORCE (eV/Angst)
     -5.89114     15.83768      0.00000        -0.880127      0.373002     -0.045011
     -8.72005     13.83734      2.00033         0.026995     -0.169890      0.072927
     -0.23335     11.83701      4.00067         0.019503     -0.003733      0.039896
     -3.06225      9.83667      6.00100         0.016451      0.017844     -0.014024
      5.42446      7.83634      8.00134         0.167322     -0.003815      0.144979
      2.59556      5.83600     10.00167        -0.404788      0.998821     -0.562579
     -0.23335     15.83768      0.00000        -1.270215     -2.123242      9.340879
     -3.06225     13.83734      2.00033         0.096876      0.042738     -0.227856
     -5.89115     11.83701      4.00067         0.048761     -0.048105     -0.058624
      2.59556      9.83667      6.00100         0.086261     -0.002416      0.061177
     -0.23334      7.83634      8.00134         0.023101      0.094232     -0.020596
     -3.06225      5.83600     10.00167        -0.338010     -0.874871     -2.184857
     -0.23335      7.83634      0.00000        -1.270215     -2.123242      9.340879
     -3.06225      5.83600      2.00033         0.096876      0.042738     -0.227856
      5.42445      3.83567      4.00067         0.048761     -0.048105     -0.058624
      2.59556      1.83533      6.00100         0.086261     -0.002416      0.061177
     -0.23334     15.83768      8.00134         0.023101      0.094232     -0.020596
     -3.06225     13.83734     10.00167        -0.338010     -0.874871     -2.184857
      5.42446      7.83634      0.00000        -0.880127      0.373002     -0.045011
      2.59556      5.83600      2.00033         0.026995     -0.169890      0.072927
     -0.23335      3.83567      4.00067         0.019503     -0.003733      0.039896
      8.25336      1.83533      6.00100         0.016451      0.017844     -0.014024
     -5.89115     15.83768      8.00134         0.167322     -0.003815      0.144979
     -8.72005     13.83734     10.00167        -0.404788      0.998821     -0.562579
      5.42446      3.83567      0.00000        -1.539472     -0.120427      0.743685
      2.59555      1.83533      2.00033         0.210371     -0.122449      0.138292
     -0.23335     15.83768      4.00067         0.042900     -0.015750      0.068838
     -3.06225     13.83734      6.00100         0.025207     -0.048904     -0.024474
     -5.89115     11.83701      8.00134         0.374259      0.091771      0.110688
      2.59555      9.83667     10.00167        -2.069102      0.107288     -3.134349
     -0.23335      3.83567      0.00000         0.815756      1.129231      1.984532
      8.25336      1.83533      2.00033        -0.007845      0.062756      0.019542
     -5.89115     15.83768      4.00067         0.033744     -0.015738     -0.062886
     -8.72005     13.83734      6.00100         0.038174     -0.007062      0.087812
     -0.23334     11.83701      8.00134        -0.093519      0.053469     -0.148735
     -3.06225      9.83667     10.00167        -0.276361      0.276957      0.115670
     -0.23335     11.83701      0.00000         0.815756      1.129231      1.984532
     -3.06225      9.83667      2.00034        -0.007845      0.062756      0.019542
      5.42445      7.83634      4.00067         0.033744     -0.015738     -0.062886
      2.59555      5.83600      6.00100         0.038174     -0.007062      0.087812
     -0.23335      3.83567      8.00134        -0.093519      0.053469     -0.148735
      8.25336      1.83533     10.00167        -0.276361      0.276957      0.115670
     -5.89115     11.83701      0.00000        -1.539472     -0.120427      0.743685
      2.59556      9.83667      2.00034         0.210371     -0.122449      0.138292
     -0.23335      7.83634      4.00067         0.042900     -0.015750      0.068838
     -3.06225      5.83600      6.00100         0.025207     -0.048904     -0.024474
      5.42445      3.83567      8.00134         0.374259      0.091771      0.110688
      2.59555      1.83533     10.00167        -2.069102      0.107288     -3.134349
      1.18110      5.83600      0.00000         0.939586     -0.361764     -0.152506
     -1.64780      3.83567      2.00034         0.022050     -0.082959      0.023531
      6.83890      1.83533      4.00067        -0.028643      0.012751      0.016128
     -7.30560     15.83768      6.00100        -0.027207      0.017035      0.075672
      1.18111     13.83734      8.00134        -0.192011     -0.038358      0.116740
     -1.64780     11.83701     10.00167         0.212370     -0.232344      0.084320
      6.83891      5.83600      0.00000         1.552814      1.716530      9.980030
      4.01001      3.83567      2.00034        -0.216825      0.129282      0.100430
      1.18110      1.83533      4.00067        -0.052434      0.058007     -0.065846
     -1.64780     15.83768      6.00100        -0.024859      0.054134     -0.047793
     -4.47669     13.83734      8.00134        -0.012667     -0.076300     -0.053555
     -7.30560     11.83701     10.00167         1.922309     -0.217904     -2.747521
[...]
     -7.56757     13.56174     18.95009         0.059983      0.072503     -0.004633
      3.74803      1.55973     21.24437         0.124410      0.155513     -0.028516
      3.74803      5.56041     23.53864        -0.738428     -0.573427      0.539388
     -3.79570      6.89395     12.06725        -1.263007      0.191062      2.454025
     -3.79570     10.89463     14.36153         0.059886      0.065067      0.122390
     -3.79570     14.89530     16.65581        -0.011881      0.035471      0.001109
      7.51990      2.89329     18.95009         0.032239      0.016288      0.008303
     -3.79570      6.89396     21.24437         0.020790      0.088711     -0.094479
     -3.79570     10.89463     23.53864         1.069702      0.244920     -2.562025
     -0.02383     12.22818     12.06725        -0.239541     -0.153693      0.021368
     -0.02383      0.22617     14.36153         0.103058      0.119391     -0.156946
     -0.02384      4.22685     16.65581         0.038947      0.025652     -0.002913
     -0.02383      8.22751     18.95009         0.005360      0.044587     -0.001666
     -0.02384     12.22819     21.24437         0.037088      0.087374      0.038877
     -0.02384      0.22618     23.53865        -0.183362      1.241056     -9.994228
    total drift:                               -0.247990      0.356604      0.160251

  FREE ENERGIE OF THE ION-ELECTRON SYSTEM (eV)
  free  energy   TOTEN  =      -670.64203166 eV

  energy  without entropy=     -670.64126037  energy(sigma->0) =     -670.64164602