 vasp.6.4.3 19Mar24 (build Oct 22 2024 11:23:12) complex

 executed on             LinuxIFC date 2025.06.11  05:38:57

 INCAR:
   SYSTEM = Si and Ge interface calculation
   ISTART = 0
   ICHARG = 2
   LWAVE = .FALSE.
   LREAL = AUTO
   ENCUT = 700
   ENAUG = 900
   ADDGRID = .TRUE.
   LMAXMIX = 6
   LASPH = .TRUE.
   LMIXTAU = .TRUE.
   NCORE = 16
   NELM = 100
   NBANDS = 634
   EDIFF = 1d-7
   AMIX = 0.6
   ISMEAR = 0
   SIGMA = 0.01
   NELECT = 1056
   ISPIN = 2
   NUPDOWN = 1
   LVTOT = .FALSE.
   LVHAR = .TRUE.

 POTCAR:    PAW_PBE Sn 08Apr2002
 POTCAR:    PAW_PBE Si 05Jan2001
|           W    W    AA    RRRRR   N    N  II  N    N   GGGG   !!!           |
|           W    W   A  A   R    R  NN   N  II  NN   N  G    G  !!!           |
|           W    W  A    A  R    R  N N  N  II  N N  N  G       !!!           |
|           W WW W  AAAAAA  RRRRR   N  N N  II  N  N N  G  GGG   !            |
|           WW  WW  A    A  R   R   N   NN  II  N   NN  G    G                |
|           W    W  A    A  R    R  N    N  II  N    N   GGGG   !!!           |
|     You use a magnetic or noncollinear calculation, but did not specify     |
|     the initial magnetic moment with the MAGMOM tag. Note that a            |
|     default of 3.788e-3 will be used for all atoms. This ferromagnetic      |
|     setup may break the symmetry of the crystal, in particular it may       |
|     rule out finding an antiferromagnetic solution. Thence, we              |
|     recommend setting the initial magnetic moment manually or verifying     |
|     carefully that this magnetic setup is desired.                          |

 POTCAR:    PAW_PBE Sn 08Apr2002
   VRHFIN =Sn: s2p2

   TITEL  = PAW_PBE Sn 08Apr2002
   POMASS =  118.710; ZVAL   =    4.000    mass and valenz
   ENMAX  =  103.236; ENMIN  =   77.427 eV

 POTCAR:    PAW_PBE Si 05Jan2001
   VRHFIN =Si: s2p2

   TITEL  = PAW_PBE Si 05Jan2001
   POMASS =   28.085; ZVAL   =    4.000    mass and valenz
   ENMAX  =  245.345; ENMIN  =  184.009 eV

 Optimization of the real space projectors (new method)

 maximal supplied QI-value         = 12.47
 optimisation between [QCUT,QGAM] = [ 12.47, 27.06] = [ 43.56,205.12] Ry
 Optimized for a Real-space Cutoff    1.58 Angstroem

   l    n(q)    QCUT    max X(q) W(low)/X(q) W(high)/X(q)  e(spline)
   0     13    12.472    14.688    0.45E-04    0.45E-04    0.25E-05
   0     13    12.472     7.308    0.94E-04    0.11E-03    0.61E-05
   1     12    12.472    45.102    0.34E-03    0.14E-03    0.21E-05
   1     12    12.472    30.691    0.31E-03    0.13E-03    0.20E-05
   2     12    12.472     7.156    0.86E-04    0.11E-03    0.17E-05
 WARNING: PSMAXN for non-local potential too small
          PSMAXN should be >   13.5545592237991       NTYP=           1
 Optimization of the real space projectors (new method)

 maximal supplied QI-value         = 19.84
 optimisation between [QCUT,QGAM] = [ 13.49, 26.99] = [ 50.98,203.92] Ry
 Optimized for a Real-space Cutoff    1.07 Angstroem

   l    n(q)    QCUT    max X(q) W(low)/X(q) W(high)/X(q)  e(spline)
   0      9    13.493   159.560    0.22E-03    0.15E-03    0.72E-07
   0      9    13.493   115.863    0.21E-03    0.15E-03    0.71E-07
   1      8    13.493    88.339    0.15E-03    0.11E-03    0.13E-06
   1      8    13.493    48.592    0.15E-03    0.10E-03    0.13E-06
  PAW_PBE Sn 08Apr2002                  :
  PAW_PBE Si 05Jan2001                  :

 POSCAR: Sn+Si
  positions in direct lattice

 exchange-correlation table for PE
   RHO(1)=    0.500       N(1)  =     2000
   RHO(2)=  100.500       N(2)  =     4000

 ion  position               nearest neighbor table
   1  0.995  0.667  0.000- 177 1.47 135 2.24 255 2.61  31 2.81 100 2.81 254 3.04 216 3.11 219 3.20
                           246 3.39
   2  0.828  0.667  0.218-  49 2.81  32 2.81 101 2.81 100 2.81 255 3.31
   3  0.662  0.667  0.436- 208 2.09  50 2.81  33 2.81 101 2.81 102 2.81 121 2.98 166 3.04
   4  0.995  0.333  0.000- 243 1.38 132 2.27 162 2.64  34 2.81 103 2.81 173 3.09 201 3.10 204 3.19

   5  0.828  0.333  0.218-  52 2.81  35 2.81 104 2.81 103 2.81
   6  0.662  0.333  0.436- 193 2.08  53 2.81  36 2.81 104 2.81 105 2.81 118 3.00
   7  0.995  0.000  0.000- 147 1.36 258 1.86 186 1.96  28 2.81 106 2.81 263 3.30 185 3.34
   8  0.828  0.000  0.218-  46 2.81  29 2.81 107 2.81 106 2.81
   9  0.662  0.000  0.436- 139 2.38  47 2.81  30 2.81 107 2.81 108 2.81 211 3.28 151 3.30 190 3.30

  10  0.328  0.667  0.000- 207 1.84 165 2.24 249 2.32 248 2.80  40 2.81  82 2.81 123 2.91 237 3.17
                           168 3.23
  11  0.162  0.667  0.218-  41 2.81  31 2.81  83 2.81  82 2.81
  12  0.995  0.667  0.436- 142 2.41  42 2.81  32 2.81  83 2.81  84 2.81 196 3.24 181 3.32 223 3.32

[...]

  17  0.162  0.000  0.218-  38 2.81  28 2.81  89 2.81  88 2.81
  18  0.995  0.000  0.436- 127 1.62  39 2.81  29 2.81  89 2.81  90 2.81
  19  0.662  0.667  0.000- 159 0.59 198 1.89  49 2.81  91 2.81 114 2.84 240 3.23
  20  0.495  0.667  0.218-  92 2.81  40 2.81  50 2.81  91 2.81
  21  0.328  0.667  0.436- 217 2.05  51 2.81  41 2.81  93 2.81  92 2.81 136 3.04
  22  0.662  0.333  0.000- 189 1.88 150 2.27 231 2.35 155 2.78  94 2.81  52 2.81 111 2.86 228 3.13
                           156 3.19
  23  0.495  0.333  0.218-  95 2.81  43 2.81  53 2.81  94 2.81
  24  0.328  0.333  0.436- 202 2.03  54 2.81  96 2.81  44 2.81  95 2.81 244 3.06 133 3.06
  25  0.662  0.000  0.000- 171 1.42 126 2.21 264 2.66  46 2.81  97 2.81 170 3.05 225 3.16 213 3.18
                           240 3.37
  26  0.495  0.000  0.218-  98 2.81  37 2.81  47 2.81  97 2.81
  27  0.328  0.000  0.436- 115 2.46  48 2.81  38 2.81  99 2.81  98 2.81 220 3.25 199 3.27 259 3.30

[...]

  50  0.578  0.583  0.327-   3 2.81  20 2.81  77 2.81  78 2.81
  51  0.412  0.583  0.544- 247 1.88 205 2.27 136 2.35 206 2.78  21 2.81  78 2.81 175 2.86 133 3.13
                           217 3.19
  52  0.745  0.250  0.109- 150 1.62   5 2.81  80 2.81  79 2.81  22 2.81
  53  0.578  0.250  0.327-   6 2.81  80 2.81  81 2.81  23 2.81
  54  0.412  0.250  0.544- 202 1.42 160 2.21 118 2.66  24 2.81  81 2.81 191 3.05 232 3.16 244 3.18
                           115 3.37
  55  0.162  0.833  0.000- 138 1.88 249 2.27 180 2.35 257 2.78  82 2.81  28 2.81 219 2.86 177 3.13
                           258 3.19
  56  0.995  0.833  0.218- 100 2.81  83 2.81  29 2.81  28 2.81
  57  0.828  0.833  0.436- 124 2.03  84 2.81 101 2.81  30 2.81  29 2.81 169 3.06 211 3.06
  58  0.162  0.500  0.000- 246 1.42 204 2.21 165 2.66  85 2.81  31 2.81 245 3.05 120 3.16 135 3.18
                           162 3.37
  59  0.995  0.500  0.218- 103 2.81  86 2.81  32 2.81  31 2.81
  60  0.828  0.500  0.436- 196 2.46  87 2.81 104 2.81  33 2.81  32 2.81 112 3.25 121 3.27 157 3.30

[...]

 103  0.912  0.417  0.109- 174 2.09  76 2.81  59 2.81   5 2.81   4 2.81 243 2.98 132 3.04
 104  0.745  0.417  0.327-  77 2.81   5 2.81  60 2.81   6 2.81
 105  0.578  0.417  0.544- 163 1.84 118 2.24 205 2.32 194 2.80  78 2.81   6 2.81 235 2.91 193 3.17
                           121 3.23
 106  0.912  0.083  0.109- 186 2.08  79 2.81  62 2.81   8 2.81   7 2.81 264 3.00
 107  0.745  0.083  0.327-  80 2.81   8 2.81   9 2.81  63 2.81
 108  0.578  0.083  0.544- 190 0.69 151 1.83  81 2.81   9 2.81 232 2.93 139 3.13
 109  0.765  0.157  0.544-  36 1.86  63 2.05 154 2.34 226 2.34  90 3.19
 110  0.650  0.234  0.727- 232 2.34 227 2.34 155 2.34 154 2.34  36 3.30
 111  0.534  0.310  0.909- 233 2.34 155 2.34 228 2.34 156 2.34  22 2.86  70 3.20
 112  0.919  0.387  0.544-  87 0.59 229 2.34 157 2.34  15 2.44  60 3.25
 113  0.804  0.464  0.727- 230 2.34 235 2.34 157 2.34 158 2.34
 114  0.688  0.541  0.909- 236 2.34 158 2.34 231 2.34 159 2.34  19 2.84  76 3.15  49 3.28
 115  0.381  0.080  0.544- 259 2.34 160 2.34  27 2.46  99 2.64  48 3.23  81 3.24  98 3.30  54 3.37

[...]

 241  0.169  0.137  0.636-  99 2.27 199 2.34 116 2.34 200 2.34 130 2.34  72 3.04  45 3.12
 242  0.054  0.214  0.818- 200 2.34 117 2.34 131 2.34 201 2.34
 243  0.938  0.291  0.000-   4 1.38 201 2.34 132 2.34 103 2.98  79 3.23  34 3.27
 244  0.323  0.368  0.636-  96 2.24 119 2.34 202 2.34 133 2.34 203 2.34  24 3.06  54 3.18
 245  0.207  0.445  0.818- 120 2.34 203 2.34 134 2.34 204 2.34  58 3.05
 246  0.092  0.522  0.000-  58 1.42  31 2.03 204 2.34 135 2.34   1 3.39
 247  0.477  0.599  0.636-  51 1.88 205 2.34 122 2.34 136 2.34 206 2.34
 248  0.361  0.676  0.818- 206 2.34 123 2.34 137 2.34 207 2.34  10 2.80
 249  0.246  0.753  0.000-  82 1.62  55 2.27  10 2.32 207 2.34 138 2.34
 250  0.631  0.830  0.636- 102 2.30 125 2.34 139 2.34 208 2.34 209 2.34  30 3.11
 251  0.515  0.907  0.818- 126 2.34 140 2.34 209 2.34 210 2.34  64 3.09
 252  0.400  0.984  0.000-  16 1.43  37 2.09 141 2.34 210 2.34
 253  0.092  0.522  0.636-  42 1.83 214 2.34 134 2.34 142 2.34 215 2.34  69 3.30
 254  0.977  0.599  0.818- 135 2.34 215 2.34 143 2.34 216 2.34   1 3.04
 255  0.861  0.676  0.000- 216 2.34 144 2.34 100 2.38   1 2.61  73 3.13   2 3.31  49 3.32
 256  0.246  0.753  0.636-  93 1.36 217 2.34 137 2.34 145 2.34 218 2.34
 257  0.131  0.830  0.818- 218 2.34 146 2.34 138 2.34 219 2.34  55 2.78
 258  0.015  0.907  0.000-   7 1.86  28 2.05 147 2.34 219 2.34  55 3.19
 259  0.400  0.984  0.636-  48 1.89 140 2.34 115 2.34 220 2.34 221 2.34  27 3.30
 260  0.284  0.060  0.818- 116 2.34 141 2.34 221 2.34 222 2.34  16 3.08
 261  0.169  0.137  0.000-  61 0.59 117 2.34 222 2.34  88 2.44  34 3.25
 262  0.015  0.907  0.636-  39 1.84 223 2.34 146 2.34 127 2.34 224 2.34
 263  0.900  0.984  0.818- 128 2.34 147 2.34 224 2.34 225 2.34   7 3.30
 264  0.784  0.060  0.000-  79 2.24 225 2.34 129 2.34  25 2.66 106 3.00  46 3.32

  LATTYP: Found a simple tetragonal cell.
 ALAT       =    19.4675998690
 C/A-ratio  =     0.7653871812

  Lattice vectors:

 A1 = (  19.4675998690,   0.0000000000,   0.0000000000)
 A2 = (   0.0000000000,  19.4675998690,   0.0000000000)
 A3 = (   0.0000000000,   0.0000000000,  14.9002513890)

Analysis of symmetry for initial positions (statically):
 Subroutine PRICEL returns following result:

[...]

   2 primitive cells build up your supercell.

 Routine SETGRP: Setting up the symmetry group for a
 simple tetragonal supercell.

 Subroutine GETGRP returns: Found  2 space group operations
 (whereof  1 operations were pure point group operations)
 out of a pool of 16 trial point group operations.

The static configuration has the point symmetry C_1 .
 The point group associated with its full space group is C_1h.

Analysis of symmetry for dynamics (positions and initial velocities):
 Subroutine PRICEL returns following result:

[...]

The dynamic configuration has the point symmetry C_1 .
 The point group associated with its full space group is C_1h.

Analysis of structural, dynamic, and magnetic symmetry:
 Subroutine PRICEL returns following result:

  LATTYP: Found a simple tetragonal cell.
 ALAT       =    13.7656718808
 C/A-ratio  =     1.0824209322

  Lattice vectors:

 A1 = (   9.7337999345,  -9.7337999345,   0.0000000000)
 A2 = (   9.7337999345,   9.7337999345,   0.0000000000)
 A3 = (   0.0000000000,   0.0000000000,  14.9002513890)

   2 primitive cells build up your supercell.

 Routine SETGRP: Setting up the symmetry group for a
[...]
     0.000000000  0.000000000 14.900251389     0.000000000  0.000000000  0.067112962

  length of vectors
    19.467599869 19.467599869 14.900251389     0.051367401  0.051367401  0.067112962

 FORCES acting on ions
    electron-ion (+dipol)            ewald-force                    non-local-force                 convergence-correction
   0.437E+02 0.230E+02 -.100E+03   -.702E+02 -.429E+02 0.100E+03   -.357E+02 -.254E+02 0.280E+01   0.720E-04 0.640E-04 0.451E-04
   0.151E+01 0.867E+00 -.426E+02   -.108E+01 -.287E+00 0.425E+02   -.541E+00 -.530E+00 0.633E+00   0.496E-04 0.895E-04 0.567E-04
   -.945E+00 0.128E+02 0.129E+03   0.214E+01 -.134E+02 -.129E+03   0.359E+00 -.412E+01 -.929E+01   -.117E-05 -.461E-04 -.637E-04
   -.453E+02 -.220E+02 -.991E+02   0.850E+02 0.497E+02 0.989E+02   0.391E+02 0.257E+02 0.255E+01   -.129E-03 0.131E-05 0.271E-04
   -.254E+00 -.821E+00 -.398E+02   -.687E-01 0.580E+00 0.398E+02   0.951E-01 0.140E+00 0.161E+00   -.395E-04 -.355E-04 0.505E-04
   0.161E+02 0.492E+01 0.124E+03   -.160E+02 -.399E+01 -.125E+03   -.583E+01 -.210E+01 -.807E+01   0.442E-05 -.325E-04 -.550E-04
   0.252E+01 -.251E+01 -.134E+03   -.366E+01 0.227E+01 0.187E+03   -.179E+01 0.239E+01 0.424E+02   -.384E-04 -.640E-04 0.804E-04
   -.188E+01 -.118E+00 -.412E+02   0.997E+00 -.514E+00 0.410E+02   0.821E+00 0.619E+00 0.261E+00   0.565E-04 0.311E-04 0.546E-04
   -.911E+01 -.945E+01 0.115E+03   0.864E+01 0.970E+01 -.115E+03   0.402E+00 0.212E+01 -.334E+01   0.272E-04 0.125E-03 -.414E-04
   -.388E+02 -.831E+01 -.119E+03   0.422E+02 0.956E+01 0.123E+03   0.170E+02 0.300E+01 0.141E+02   -.992E-05 -.167E-04 0.153E-04
   0.125E+00 0.681E+00 -.397E+02   0.148E+00 -.510E+00 0.397E+02   -.902E-01 -.721E-01 0.113E+00   0.257E-04 0.148E-04 0.746E-04
   0.132E+02 -.662E+01 0.116E+03   -.111E+02 0.542E+01 -.114E+03   -.313E+01 0.165E+01 -.375E+01   0.124E-03 -.302E-04 -.585E-04
   -.198E+01 0.195E+02 -.116E+03   0.687E+02 -.442E+03 0.117E+03   0.528E+01 -.298E+02 0.153E+02   0.803E-04 0.427E-04 -.618E-05
   -.159E+01 -.798E+00 -.426E+02   0.106E+01 0.140E+00 0.426E+02   0.679E+00 0.580E+00 0.504E+00   0.595E-04 -.614E-05 0.886E-04
   -.135E+02 0.675E+01 0.116E+03   0.110E+02 -.496E+01 -.114E+03   0.317E+01 -.194E+01 -.386E+01   -.773E-04 0.685E-04 -.103E-03
   0.489E+02 -.328E+01 -.973E+02   -.880E+02 0.109E+02 0.983E+02   -.445E+02 0.875E+01 0.150E+01   0.101E-03 -.834E-04 0.247E-04
   0.196E+01 0.136E+00 -.411E+02   -.107E+01 0.561E+00 0.411E+02   -.828E+00 -.670E+00 0.130E+00   -.118E-03 -.620E-04 0.729E-04
   0.699E+00 0.151E+01 0.151E+03   -.769E+00 -.208E+01 -.166E+03   -.396E+00 -.968E+00 -.356E+02   -.108E-04 -.315E-05 -.545E-04
   0.803E+01 -.207E+02 -.114E+03   -.153E+03 0.611E+03 0.113E+03   -.943E+01 0.287E+02 0.135E+02   -.624E-04 -.130E-04 0.754E-04
   -.106E+01 -.122E+01 -.415E+02   0.725E+00 0.930E+00 0.411E+02   0.285E+00 0.317E+00 0.748E+00   -.385E-04 -.964E-04 0.289E-04
   -.171E+02 -.373E+01 0.126E+03   0.174E+02 0.265E+01 -.126E+03   0.644E+01 0.187E+01 -.915E+01   -.801E-04 -.431E-04 -.481E-04
   0.372E+02 0.574E+01 -.118E+03   -.398E+02 -.693E+01 0.121E+03   -.158E+02 -.179E+01 0.126E+02   -.265E-04 -.238E-04 0.324E-04
   0.123E+01 0.120E+01 -.413E+02   -.769E+00 -.858E+00 0.409E+02   -.383E+00 -.371E+00 0.729E+00   0.795E-05 0.442E-04 -.904E-05
   0.234E+01 -.141E+02 0.131E+03   -.359E+01 0.150E+02 -.131E+03   -.845E+00 0.510E+01 -.111E+02   0.609E-05 0.587E-04 -.718E-04
   -.508E+02 0.431E+01 -.994E+02   0.897E+02 -.150E+02 0.101E+03   0.445E+02 -.110E+02 0.233E+01   -.390E-05 0.723E-04 0.169E-04
   -.100E+00 0.501E-01 -.408E+02   0.639E-01 -.407E-01 0.408E+02   0.612E-01 0.165E-01 0.480E+00   0.332E-05 0.310E-04 0.478E-04
   0.795E+01 0.840E+01 0.113E+03   -.775E+01 -.842E+01 -.113E+03   0.247E+00 -.219E+01 -.252E+01   -.118E-04 -.105E-03 -.894E-04
   -.171E+02 -.373E+01 -.126E+03   0.174E+02 0.265E+01 0.126E+03   0.644E+01 0.187E+01 0.915E+01   -.800E-04 -.430E-04 0.481E-04
   0.125E+00 0.681E+00 0.397E+02   0.148E+00 -.510E+00 -.397E+02   -.902E-01 -.721E-01 -.113E+00   0.257E-04 0.149E-04 -.747E-04
   0.437E+02 0.230E+02 0.100E+03   -.702E+02 -.429E+02 -.100E+03   -.357E+02 -.254E+02 -.280E+01   0.718E-04 0.641E-04 -.451E-04
   0.234E+01 -.141E+02 -.131E+03   -.359E+01 0.150E+02 0.131E+03   -.845E+00 0.510E+01 0.111E+02   0.625E-05 0.585E-04 0.717E-04
   -.159E+01 -.798E+00 0.426E+02   0.106E+01 0.140E+00 -.426E+02   0.679E+00 0.580E+00 -.504E+00   0.595E-04 -.627E-05 -.887E-04
   -.453E+02 -.220E+02 0.991E+02   0.850E+02 0.497E+02 -.989E+02   0.391E+02 0.257E+02 -.255E+01   -.129E-03 0.116E-05 -.271E-04
   0.795E+01 0.840E+01 -.113E+03   -.775E+01 -.842E+01 0.113E+03   0.247E+00 -.219E+01 0.252E+01   -.116E-04 -.105E-03 0.893E-04
   0.196E+01 0.136E+00 0.411E+02   -.107E+01 0.561E+00 -.411E+02   -.828E+00 -.670E+00 -.130E+00   -.118E-03 -.620E-04 -.730E-04
   0.253E+01 -.251E+01 0.134E+03   -.366E+01 0.227E+01 -.187E+03   -.179E+01 0.239E+01 -.424E+02   -.386E-04 -.639E-04 -.804E-04
   -.945E+00 0.128E+02 -.129E+03   0.214E+01 -.134E+02 0.129E+03   0.359E+00 -.412E+01 0.929E+01   -.114E-05 -.460E-04 0.637E-04
   -.106E+01 -.122E+01 0.415E+02   0.725E+00 0.930E+00 -.411E+02   0.285E+00 0.317E+00 -.748E+00   -.383E-04 -.963E-04 -.288E-04
   -.388E+02 -.831E+01 0.119E+03   0.422E+02 0.956E+01 -.123E+03   0.170E+02 0.300E+01 -.141E+02   -.972E-05 -.166E-04 -.153E-04
   0.161E+02 0.492E+01 -.124E+03   -.160E+02 -.399E+01 0.125E+03   -.583E+01 -.210E+01 0.807E+01   0.445E-05 -.327E-04 0.550E-04
   0.123E+01 0.120E+01 0.413E+02   -.769E+00 -.858E+00 -.409E+02   -.383E+00 -.371E+00 -.729E+00   0.816E-05 0.440E-04 0.899E-05
   -.198E+01 0.195E+02 0.116E+03   0.687E+02 -.442E+03 -.117E+03   0.528E+01 -.298E+02 -.153E+02   0.805E-04 0.426E-04 0.619E-05
   -.911E+01 -.945E+01 -.115E+03   0.864E+01 0.970E+01 0.115E+03   0.402E+00 0.212E+01 0.334E+01   0.272E-04 0.125E-03 0.414E-04
   -.100E+00 0.501E-01 0.408E+02   0.640E-01 -.406E-01 -.408E+02   0.612E-01 0.165E-01 -.480E+00   0.349E-05 0.310E-04 -.479E-04
   0.489E+02 -.328E+01 0.973E+02   -.880E+02 0.109E+02 -.983E+02   -.445E+02 0.875E+01 -.150E+01   0.102E-03 -.834E-04 -.247E-04
   0.132E+02 -.662E+01 -.116E+03   -.111E+02 0.542E+01 0.114E+03   -.313E+01 0.165E+01 0.375E+01   0.124E-03 -.302E-04 0.585E-04
   0.151E+01 0.867E+00 0.426E+02   -.108E+01 -.287E+00 -.425E+02   -.541E+00 -.530E+00 -.633E+00   0.495E-04 0.895E-04 -.568E-04
   0.803E+01 -.207E+02 0.114E+03   -.153E+03 0.611E+03 -.113E+03   -.943E+01 0.287E+02 -.135E+02   -.624E-04 -.129E-04 -.754E-04
   -.135E+02 0.675E+01 -.116E+03   0.110E+02 -.496E+01 0.114E+03   0.317E+01 -.194E+01 0.386E+01   -.775E-04 0.683E-04 0.103E-03
   -.255E+00 -.821E+00 0.398E+02   -.688E-01 0.579E+00 -.398E+02   0.951E-01 0.140E+00 -.161E+00   -.397E-04 -.356E-04 -.505E-04
   0.372E+02 0.574E+01 0.118E+03   -.398E+02 -.693E+01 -.121E+03   -.158E+02 -.179E+01 -.126E+02   -.265E-04 -.240E-04 -.324E-04
   0.699E+00 0.151E+01 -.151E+03   -.769E+00 -.208E+01 0.166E+03   -.396E+00 -.968E+00 0.356E+02   -.110E-04 -.307E-05 0.545E-04
   -.188E+01 -.118E+00 0.412E+02   0.997E+00 -.514E+00 -.410E+02   0.821E+00 0.619E+00 -.261E+00   0.563E-04 0.312E-04 -.546E-04
   -.508E+02 0.431E+01 0.994E+02   0.897E+02 -.150E+02 -.101E+03   0.445E+02 -.110E+02 -.233E+01   -.395E-05 0.724E-04 -.169E-04
   0.373E+02 0.574E+01 -.118E+03   -.398E+02 -.693E+01 0.121E+03   -.158E+02 -.179E+01 0.126E+02   -.263E-04 -.240E-04 0.324E-04
   0.123E+01 0.120E+01 -.413E+02   -.769E+00 -.858E+00 0.409E+02   -.383E+00 -.371E+00 0.729E+00   0.821E-05 0.440E-04 -.905E-05
   0.234E+01 -.141E+02 0.131E+03   -.359E+01 0.150E+02 -.131E+03   -.845E+00 0.510E+01 -.111E+02   0.615E-05 0.585E-04 -.718E-04
   -.508E+02 0.431E+01 -.994E+02   0.897E+02 -.150E+02 0.101E+03   0.445E+02 -.110E+02 0.233E+01   -.374E-05 0.723E-04 0.170E-04
   -.100E+00 0.501E-01 -.408E+02   0.640E-01 -.407E-01 0.408E+02   0.612E-01 0.165E-01 0.480E+00   0.359E-05 0.309E-04 0.478E-04
   0.795E+01 0.840E+01 0.113E+03   -.775E+01 -.842E+01 -.113E+03   0.247E+00 -.219E+01 -.252E+01   -.118E-04 -.105E-03 -.894E-04
[...]
   -.243E+01 -.464E+01 -.718E+01   0.183E+01 0.464E+01 0.642E+01   0.490E+00 0.479E+00 0.241E-01   -.114E-04 0.776E-05 0.329E-04
   -.425E+02 -.156E+02 -.845E+02   0.910E+02 0.269E+01 0.846E+02   0.322E+02 -.847E+00 -.687E+01   0.888E-04 -.660E-04 0.471E-04
   -.365E+01 0.339E+02 0.638E+01   0.386E+01 -.344E+02 -.609E+01   0.341E+01 -.164E+02 0.189E+02   -.139E-04 0.207E-03 -.159E-03
   0.252E+01 0.475E+01 -.642E+01   -.193E+01 -.476E+01 0.572E+01   -.441E+00 -.455E+00 -.744E-01   0.500E-04 0.369E-04 0.225E-04
   0.184E+02 0.149E+02 -.917E+02   -.190E+02 -.143E+02 0.912E+02   -.156E+01 -.260E+01 -.129E+01   0.432E-04 0.110E-03 0.226E-04
   -.849E+00 -.146E+01 0.485E+01   0.154E+01 0.443E+01 0.635E+02   0.439E+00 0.109E+01 0.297E+02   -.592E-04 -.522E-04 -.382E-04
   0.361E+01 0.123E+01 -.116E+01   -.347E+01 -.106E+01 0.885E+00   -.279E+00 -.522E-01 -.103E+01   0.991E-05 -.127E-04 0.146E-04
   0.188E+02 0.434E+02 -.801E+02   -.174E+02 -.491E+02 0.808E+02   -.387E+01 -.157E+02 -.840E+01   -.398E-04 -.279E-04 0.905E-04
   0.200E+01 -.341E+02 0.100E+02   -.186E+01 0.328E+02 -.110E+02   -.258E+01 0.153E+02 0.158E+02   0.734E-04 -.108E-03 -.351E-04
   0.152E+01 -.368E+01 -.632E+01   -.126E+01 0.297E+01 0.637E+01   -.504E+00 0.636E+00 -.656E+00   0.544E-04 0.455E-04 -.542E-04
   0.110E+02 0.698E+01 -.962E+02   0.148E+03 -.634E+03 0.975E+02   -.204E+01 -.634E+01 -.803E+00   -.171E-03 0.113E-03 0.807E-04
   0.310E+02 0.718E+01 0.138E+02   -.350E+02 -.785E+01 -.910E+01   -.116E+02 -.184E+01 0.133E+02   0.271E-04 0.169E-04 -.271E-04
   0.360E+01 0.100E+01 -.840E+01   -.397E+01 -.112E+01 0.883E+01   0.431E+00 -.215E+00 -.829E+00   0.486E-04 0.614E-05 0.437E-05
   0.427E+01 0.153E+02 -.103E+03   -.488E+01 -.168E+02 0.104E+03   -.155E+01 -.353E+01 -.663E+00   0.703E-04 0.918E-04 0.416E-04
   -.689E+01 0.704E+01 -.386E-02   0.103E-12 0.139E-11 -.682E-12   0.749E+01 -.688E+01 0.405E-13   -.343E-03 -.653E-04 0.144E-05

 POSITION                                       TOTAL-FORCE (eV/Angst)
     19.37095     12.97840      0.00000       -62.214154    -45.292700      2.722986
     16.12635     12.97840      3.24460        -0.119072      0.048688      0.530806
     12.88174     12.97840      6.48920         1.547477     -4.803416     -8.919621
     19.37095      6.48920      0.00000        78.718425     53.455277      2.332612
     16.12635      6.48920      3.24460        -0.230414     -0.102177      0.164588
     12.88174      6.48920      6.48920        -5.790557     -1.170116     -8.395085
     19.37095      0.00000      0.00000        -2.932088      2.150769     95.907403
     16.12635      0.00000      3.24460        -0.060183     -0.013663      0.064054
     12.88174      0.00000      6.48920        -0.068331      2.362775     -3.075899
      6.39255     12.97840      0.00000        20.322776      4.257804     17.563447
      3.14794     12.97840      3.24460         0.180985      0.098606      0.082643
     19.37095     12.97840      6.48920        -0.996333      0.451509     -1.578988
      6.39255      6.48920      0.00000        71.991585   -452.633079     16.529482
      3.14794      6.48920      3.24460         0.142371     -0.077692      0.520390
     19.37095      6.48920      6.48920         0.667494     -0.149595     -1.427490
      6.39255      0.00000      0.00000       -83.643872     16.334115      2.518077
      3.14794      0.00000      3.24460         0.055634      0.026324      0.067201
     19.37095      0.00000      6.48920        -0.468458     -1.532915    -50.346497
     12.88175     12.97840      0.00000      -154.801932    619.114977     12.701285
      9.63715     12.97840      3.24460        -0.056308      0.027670      0.351335
      6.39255     12.97840      6.48920         6.707240      0.793206     -9.527684
     12.88175      6.48920      0.00000       -18.389358     -2.977636     15.272578
      9.63715      6.48920      3.24460         0.074806     -0.031000      0.318950
      6.39255      6.48920      6.48920        -2.093289      5.924659    -10.909909
     12.88175      0.00000      0.00000        83.408384    -21.675413      3.621077
      9.63715      0.00000      3.24460         0.022470      0.025370      0.494028
      6.39255      0.00000      6.48920         0.444319     -2.209791     -2.343717
      1.52565     17.84530      1.62230         6.707240      0.793206      9.527684
     17.74865     17.84530      4.86690         0.180985      0.098606     -0.082643
     14.50404     17.84530      8.11150       -62.214154    -45.292700     -2.722986
      1.52565     11.35610      1.62230        -2.093289      5.924659     10.909909
     17.74865     11.35610      4.86690         0.142371     -0.077692     -0.520390
     14.50404     11.35610      8.11150        78.718425     53.455277     -2.332612
      1.52565      4.86690      1.62230         0.444319     -2.209791      2.343717
     17.74865      4.86690      4.86690         0.055634      0.026324     -0.067201
     14.50404      4.86690      8.11150        -2.932088      2.150769    -95.907403
      8.01485     17.84530      1.62230         1.547477     -4.803416      8.919621
      4.77025     17.84530      4.86690        -0.056308      0.027670     -0.351335
      1.52564     17.84530      8.11150        20.322776      4.257804    -17.563447
      8.01485     11.35610      1.62230        -5.790557     -1.170116      8.395085
      4.77025     11.35610      4.86690         0.074806     -0.031000     -0.318950
      1.52564     11.35610      8.11150        71.991585   -452.633079    -16.529482
      8.01485      4.86690      1.62230        -0.068331      2.362775      3.075899
      4.77025      4.86690      4.86690         0.022470      0.025370     -0.494028
      1.52564      4.86690      8.11150       -83.643872     16.334115     -2.518077
     14.50405     17.84530      1.62230        -0.996333      0.451509      1.578988
     11.25945     17.84530      4.86690        -0.119072      0.048688     -0.530806
      8.01485     17.84530      8.11150      -154.801932    619.114977    -12.701285
     14.50405     11.35610      1.62230         0.667494     -0.149595      1.427490
     11.25945     11.35610      4.86690        -0.230414     -0.102177     -0.164588
      8.01485     11.35610      8.11150       -18.389358     -2.977636    -15.272578
     14.50405      4.86690      1.62230        -0.468458     -1.532915     50.346497
     11.25945      4.86690      4.86690        -0.060183     -0.013663     -0.064054
      8.01485      4.86690      8.11150        83.408384    -21.675413     -3.621077
      3.14795     16.22300      0.00000       -18.389358     -2.977636     15.272578
     19.37094     16.22300      3.24460         0.074806     -0.031000      0.318950
     16.12635     16.22300      6.48920        -2.093289      5.924659    -10.909909
      3.14795      9.73380      0.00000        83.408384    -21.675413      3.621077
     19.37094      9.73380      3.24460         0.022470      0.025370      0.494028
     16.12635      9.73380      6.48920         0.444319     -2.209791     -2.343717
[...]
     12.27449     16.15151      9.46925         1.973091      3.327109      2.889436
     10.02822     17.64902     12.18475        -0.119858      0.472558     -0.729834
      7.78196     19.14653      0.00000        80.709532    -13.732693     -6.792340
      1.79193     10.16148      9.46925         3.621766    -16.876586     19.213041
     19.01327     11.65899     12.18475         0.147173     -0.463356     -0.777482
     16.76700     13.15650      0.00000        -2.152452     -2.072629     -1.851880
      4.78695     14.65400      9.46925         1.129061      4.058483     98.038300
      2.54068     16.15151     12.18475        -0.146404      0.113470     -1.306440
      0.29442     17.64902      0.00000        -2.474390    -21.317063     -7.691609
      7.78196     19.14653      9.46925        -2.435400     14.015541     14.843074
      5.53570      1.17644     12.18475        -0.252862     -0.069081     -0.609578
      3.28944      2.67395      0.00000       156.664529   -633.655377      0.526836
      0.29442     17.64902      9.46925       -15.588812     -2.519170     18.010962
     17.51576     19.14653     12.18475         0.062067     -0.335946     -0.401698
     15.26950      1.17644      0.00000        -2.166631     -5.047538      0.324532
    total drift:                                0.605036      0.158412     -0.003858

  FREE ENERGIE OF THE ION-ELECTRON SYSTEM (eV)
  free  energy   TOTEN  =      1387.27171262 eV

  energy  without entropy=     1387.27676333  energy(sigma->0) =     1387.27423798