 vasp.6.4.3 19Mar24 (build Oct 22 2024 11:23:12) complex

 executed on             LinuxIFC date 2025.06.04  00:54:39

 INCAR:
   SYSTEM = Si and Ge interface calculation
   ISTART = 0
   ICHARG = 2
   LWAVE = .FALSE.
   LREAL = AUTO
   ENCUT = 700
   ENAUG = 900
   ADDGRID = .TRUE.
   LMAXMIX = 6
   LASPH = .TRUE.
   LMIXTAU = .TRUE.
   NCORE = 16
   NELM = 100
   NBANDS = 116
   EDIFF = 1d-7
   AMIX = 0.6
   ISMEAR = 0
   SIGMA = 0.01
   NELECT = 192
   ISPIN = 2
   NUPDOWN = 1
   LVTOT = .FALSE.
   LVHAR = .TRUE.

 POTCAR:    PAW_PBE Sn 08Apr2002
|           W    W    AA    RRRRR   N    N  II  N    N   GGGG   !!!           |
|           W    W   A  A   R    R  NN   N  II  NN   N  G    G  !!!           |
|           W    W  A    A  R    R  N N  N  II  N N  N  G       !!!           |
|           W WW W  AAAAAA  RRRRR   N  N N  II  N  N N  G  GGG   !            |
|           WW  WW  A    A  R   R   N   NN  II  N   NN  G    G                |
|           W    W  A    A  R    R  N    N  II  N    N   GGGG   !!!           |
|     You use a magnetic or noncollinear calculation, but did not specify     |
|     the initial magnetic moment with the MAGMOM tag. Note that a            |
|     default of 0.021 will be used for all atoms. This ferromagnetic         |
|     setup may break the symmetry of the crystal, in particular it may       |
|     rule out finding an antiferromagnetic solution. Thence, we              |
|     recommend setting the initial magnetic moment manually or verifying     |
|     carefully that this magnetic setup is desired.                          |

 POTCAR:    PAW_PBE Sn 08Apr2002
   VRHFIN =Sn: s2p2

   TITEL  = PAW_PBE Sn 08Apr2002
   POMASS =  118.710; ZVAL   =    4.000    mass and valenz
   ENMAX  =  103.236; ENMIN  =   77.427 eV

 Optimization of the real space projectors (new method)

 maximal supplied QI-value         = 12.47
 optimisation between [QCUT,QGAM] = [ 12.47, 27.06] = [ 43.56,205.12] Ry
 Optimized for a Real-space Cutoff    1.58 Angstroem

   l    n(q)    QCUT    max X(q) W(low)/X(q) W(high)/X(q)  e(spline)
   0     13    12.472    14.688    0.45E-04    0.45E-04    0.25E-05
   0     13    12.472     7.308    0.94E-04    0.11E-03    0.61E-05
   1     12    12.472    45.102    0.34E-03    0.14E-03    0.21E-05
   1     12    12.472    30.691    0.31E-03    0.13E-03    0.20E-05
   2     12    12.472     7.156    0.86E-04    0.11E-03    0.17E-05
 WARNING: PSMAXN for non-local potential too small
          PSMAXN should be >   13.5545592237991       NTYP=           1
  PAW_PBE Sn 08Apr2002                  :

 POSCAR: Sn+Sn
  positions in direct lattice

 exchange-correlation table for PE
   RHO(1)=    0.500       N(1)  =     2000
   RHO(2)=  100.500       N(2)  =     4000

 ion  position               nearest neighbor table
   1  0.343  0.672  0.000-  44 2.17  38 2.60  48 2.81  13 2.81  28 2.81  41 3.07  45 3.24  39 3.55
                            18 3.55  33 3.55
   2  0.677  0.838  0.300-  14 2.81  34 2.81  29 2.81  13 2.81
   3  0.010  0.005  0.600-  37 1.70  35 2.81  30 2.81  14 2.81  15 2.81  46 3.15  43 3.54
   4  0.010  0.005  0.000-  37 2.75  10 2.81  34 2.81  47 2.95  46 3.15  43 3.54  15 3.55  30 3.55

   5  0.343  0.172  0.300-  11 2.81  31 2.81  10 2.81  35 2.81
   6  0.677  0.338  0.600-  32 2.81  11 2.81  36 2.81  12 2.81
   7  0.677  0.338  0.000-  42 1.26  16 2.81  31 2.81  45 3.30  12 3.55  36 3.55  48 3.68
   8  0.010  0.505  0.300-  17 2.81  28 2.81  32 2.81  16 2.81  45 3.27
   9  0.343  0.672  0.600-  29 2.81  18 2.81  17 2.81  33 2.81  38 3.38  44 3.75  41 3.75
  10  0.093  0.922  0.150-   4 2.81  23 2.81  19 2.81   5 2.81
  11  0.427  0.088  0.450-   5 2.81  24 2.81   6 2.81  20 2.81
  12  0.760  0.255  0.750-  42 2.49   6 2.81  21 2.81  45 3.38  41 3.48   7 3.55  25 3.55  48 3.75

[...]

  23  0.843  0.672  0.300-  32 2.81  10 2.81  31 2.81  14 2.81
  24  0.177  0.838  0.600-  11 2.81  32 2.81  15 2.81  33 2.81
  25  0.843  0.172  0.000-  47 2.17  41 2.60  45 2.81  34 2.81  16 2.81  38 3.07  48 3.24  42 3.55
                            30 3.55  12 3.55
  26  0.177  0.338  0.300-  35 2.81  13 2.81  34 2.81  17 2.81
  27  0.510  0.505  0.600-  40 1.70  14 2.81  36 2.81  35 2.81  18 2.81  43 3.15  46 3.54
  28  0.260  0.755  0.150-  39 2.49  48 2.60   8 2.81  19 2.81   1 2.81  20 2.81  45 3.07
  29  0.593  0.922  0.450-   9 2.81   2 2.81  20 2.81  21 2.81
  30  0.927  0.088  0.750-  47 1.70  37 1.88  21 2.81   3 2.81  41 3.01  38 3.42  25 3.55   4 3.55

[...]

  34  0.927  0.088  0.150-  47 2.75  25 2.81   2 2.81   4 2.81  26 2.81
  35  0.260  0.255  0.450-  26 2.81   3 2.81  27 2.81   5 2.81
  36  0.593  0.422  0.750-  43 2.40  40 2.74  27 2.81   6 2.81  46 2.90  22 3.55   7 3.55
  37  0.963  0.989  0.750-   3 1.70  30 1.88  15 2.74   4 2.75  46 2.81  47 2.81  43 2.81
  38  0.574  0.878  0.850-   1 2.60  47 2.81  48 2.81  44 2.81  18 3.01  25 3.07   9 3.38  30 3.42
                            33 3.48  21 3.75
  39  0.185  0.767  0.950-  19 1.26  28 2.49  33 2.49  48 2.81  45 2.81   1 3.55
  40  0.463  0.489  0.750-  27 1.70  18 1.88  36 2.74  22 2.75  44 2.81  46 2.81  43 2.81
  41  0.074  0.378  0.850-  25 2.60  45 2.81  47 2.81  44 2.81  30 3.01   1 3.07  21 3.38  18 3.42
                            12 3.48   9 3.75
  42  0.685  0.267  0.950-   7 1.26  16 2.49  12 2.49  48 2.81  45 2.81  25 3.55
  43  0.768  0.684  0.800-  36 2.40  40 2.81  37 2.81  15 2.90  22 3.15  27 3.15   4 3.54   3 3.54

[...]

  45  0.991  0.462  0.000-  16 2.60  25 2.81  41 2.81  42 2.81  39 2.81  28 3.07   1 3.24   8 3.27
                             7 3.30  12 3.38  19 3.68  33 3.75
  46  0.268  0.184  0.800-  15 2.40  37 2.81  40 2.81  36 2.90   4 3.15   3 3.15  22 3.54  27 3.54

  47  0.880  0.073  0.900-  30 1.70  25 2.17  34 2.75  38 2.81  41 2.81  37 2.81   4 2.95  21 3.75

  48  0.491  0.962  0.000-  28 2.60   1 2.81  39 2.81  42 2.81  38 2.81  16 3.07  25 3.24  20 3.27
                            19 3.30  33 3.38   7 3.68  12 3.75

  LATTYP: Found a base centered orthorhombic cell.
 ALAT       =     9.1771147817
 B/A-ratio  =     3.0000000001
 C/A-ratio  =     1.1785112885

  Lattice vectors:

 A1 = (  14.5102920530,   0.0000000000,   0.0000000000)
 A2 = ( -11.6082344060,   8.7061758040,   0.0000000000)
 A3 = (   0.0000000000,   0.0000000000,  10.8153333660)

Analysis of symmetry for initial positions (statically):
 Subroutine PRICEL returns following result:

  LATTYP: Found a simple orthorhombic cell.
 ALAT       =     4.5885571614
 B/A-ratio  =     2.3570226948
 C/A-ratio  =     3.0000001081

[...]

   2 primitive cells build up your supercell.

 Routine SETGRP: Setting up the symmetry group for a
 base centered orthorhombic supercell.

 Subroutine GETGRP returns: Found  1 space group operations
 (whereof  1 operations were pure point group operations)
 out of a pool of  8 trial point group operations.

The static configuration has the point symmetry C_1 .

Analysis of symmetry for dynamics (positions and initial velocities):
 Subroutine PRICEL returns following result:

[...]

The dynamic configuration has the point symmetry C_1 .

Analysis of structural, dynamic, and magnetic symmetry:
 Subroutine PRICEL returns following result:

  LATTYP: Found a simple orthorhombic cell.
 ALAT       =     4.5885571614
 B/A-ratio  =     2.3570226948
 C/A-ratio  =     3.0000001081

  Lattice vectors:

 A1 = (  -1.4510285681,  -4.3530877453,   0.0000000000)
 A2 = (   0.0000000000,   0.0000000000,  10.8153333660)
 A3 = ( -13.0592629741,   4.3530880587,   0.0000000000)

   2 primitive cells build up your supercell.

 Routine SETGRP: Setting up the symmetry group for a
 base centered orthorhombic supercell.

 Subroutine GETGRP returns: Found  1 space group operations
 (whereof  1 operations were pure point group operations)
 out of a pool of  8 trial point group operations.

The overall configuration has the point symmetry C_1 .

 Subroutine INISYM returns: Found  1 space group operations
 (whereof  1 operations are pure point group operations),
 and found     2 'primitive' translations

                                     Primitive cell

  volume of cell :     683.1459

  direct lattice vectors                    reciprocal lattice vectors
    -1.451028568 -4.353087745  0.000000000    -0.068916607 -0.206749803  0.000000000
     0.000000000  0.000000000 10.815333366     0.000000000  0.000000000  0.092461320
   -13.059262974  4.353088059  0.000000000    -0.068916602  0.022972190  0.000000000

  length of vectors
     4.588557161 10.815333366 13.765671980     0.217933430  0.092461320  0.072644474

  position of ions in fractional coordinates (direct lattice)
     0.985105302  0.000000000  0.328368356
     0.485105139  0.300000042  0.161701794
     0.985105166  0.599999964  0.995035217
     0.985105285  0.000000000  0.995035098
     0.485105168  0.300000042  0.828368490
     0.985105258  0.599999964  0.661701913
     0.985105317  0.000000000  0.661701734
     0.485105275  0.300000042  0.495035172
     0.985105123  0.599999964  0.328368535
     0.985105217  0.149999991  0.828368409
     0.485105243  0.450000018  0.661701832
     0.985105191  0.750000060  0.495035224
     0.985105322  0.149999991  0.161701757
     0.485105339  0.450000018  0.995035314
     0.985105039  0.750000060  0.828368587
     0.985105400  0.149999991  0.495035075
     0.485105396  0.450000018  0.328368468
     0.985105233  0.750000060  0.161701906
     0.047768666  0.750000060  0.026538121
     0.547768655  0.850000143  0.304315908
     0.047768753  0.950000167  0.582093651
     0.547768635  0.800000072  0.915426948
     0.047768733  0.900000215  0.193204690
     0.547768961  0.000000238  0.470982598

  ion indices of the primitive-cell ions
   primitive index   ion index
                 1           1
                 2          26
                 3          27
                 4          22
                 5           5
                 6          24
                 7          19
                 8           8
                 9           9
                10          31
                11          32
                12          33
                13          13
                14          35
                15          36
                16          28
                17          29
                18          18
                19          40
                20          38
                21          39
                22          43
                23          44
                24          48

 KPOINTS: Automatic KPOINTS generated

Automatic generation of k-mesh.
 Grid dimensions read from file:
 generate k-points for:    4    4    3

 Generating k-lattice:

  Cartesian coordinates                     Fractional coordinates (reciprocal lattice)
     0.017229150  0.022972200  0.000000000     0.250000000 -0.000000000  0.000000000
     0.000000000  0.028715248  0.000000000     0.000000000  0.250000000  0.000000000
     0.000000000  0.000000000  0.030820440     0.000000000  0.000000000  0.333333333

  Length of vectors
     0.028715250  0.028715248  0.030820440

  Shift w.r.t. Gamma in fractional coordinates (k-lattice)
     0.000000000  0.000000000  0.000000000

[...]
     42      -0.2893      1.00000
     43      -0.2792      1.00000
     44      -0.1330      1.00000
     45      -0.0915      1.00000
     46       0.0791      1.00000
     47       0.2059      1.00000
     48       0.3523      1.00000
     49       0.4418      1.00000
     50       0.4668      1.00000
     51       0.6311      1.00000
     52       0.6964      1.00000
     53       1.0698      1.00000
     54       1.2085      1.00000
     55       1.3252      1.00000
     56       1.3344      1.00000
     57       1.6012      1.00000
     58       1.7104      1.00000
     59       1.8025      1.00000
     60       1.9048      1.00000
[...]
    102       5.7681      0.00000
    103       5.8579      0.00000
    104       5.9335      0.00000
    105       5.9579      0.00000
    106       6.0312      0.00000
    107       6.0843      0.00000
    108       6.2082      0.00000
    109       6.2375      0.00000
    110       6.3532      0.00000
    111       6.4655      0.00000
    112       6.4809      0.00000
    113       6.5522      0.00000
    114       6.6916      0.00000
    115       6.6986      0.00000
    116       6.8284      0.00000
 Fermi energy:         5.3008001644

 spin component 2

[...]

 k-point    26 :       0.5000    0.5000    0.3333
  band No.  band energies     occupation
      1      -9.0436      1.00000
      2      -8.5310      1.00000
      3      -8.0166      1.00000
      4      -7.1150      1.00000
      5      -7.0912      1.00000
      6      -6.1506      1.00000
      7      -5.7412      1.00000
      8      -5.2687      1.00000
      9      -5.1162      1.00000
     10      -4.9153      1.00000
     11      -4.8981      1.00000
     12      -4.3920      1.00000
     13      -4.3815      1.00000
     14      -4.1655      1.00000
     15      -4.1490      1.00000
     16      -4.0468      1.00000
     17      -3.9553      1.00000
     18      -3.7675      1.00000
     19      -3.6808      1.00000
     20      -3.5110      1.00000
     21      -3.1514      1.00000
     22      -3.1455      1.00000
     23      -3.0727      1.00000
     24      -2.9301      1.00000
     25      -2.9254      1.00000
     26      -2.7956      1.00000
     27      -2.4075      1.00000
     28      -2.4067      1.00000
     29      -2.3132      1.00000
     30      -2.0712      1.00000
     31      -1.5497      1.00000
     32      -1.4307      1.00000
     33      -1.4115      1.00000
     34      -1.2101      1.00000
     35      -1.0700      1.00000
     36      -0.9777      1.00000
     37      -0.8005      1.00000
     38      -0.7871      1.00000
     39      -0.4950      1.00000
     40      -0.4358      1.00000
     41      -0.3507      1.00000
     42      -0.2708      1.00000
     43      -0.2617      1.00000
     44      -0.1168      1.00000
     45      -0.0739      1.00000
     46       0.0975      1.00000
     47       0.2224      1.00000
     48       0.3692      1.00000
     49       0.4578      1.00000
     50       0.4846      1.00000
     51       0.6481      1.00000
     52       0.7124      1.00000
     53       1.0865      1.00000
     54       1.2256      1.00000
     55       1.3401      1.00000
     56       1.3520      1.00000
     57       1.6179      1.00000
     58       1.7262      1.00000
     59       1.8186      1.00000
     60       1.9231      1.00000
[...]
    102       5.7896      0.00000
    103       5.8783      0.00000
    104       5.9518      0.00000
    105       5.9796      0.00000
    106       6.0501      0.00000
    107       6.1010      0.00000
    108       6.2274      0.00000
    109       6.2572      0.00000
    110       6.3723      0.00000
    111       6.4831      0.00000
    112       6.5002      0.00000
    113       6.5700      0.00000
    114       6.7109      0.00000
    115       6.7163      0.00000
    116       6.8456      0.00000

 soft charge-density along one line, spin component           1
         0         1         2         3         4         5         6         7         8         9
 total charge-density along one line

 soft charge-density along one line, spin component           2
         0         1         2         3         4         5         6         7         8         9
 total charge-density along one line

------------------------ aborting loop because EDIFF is reached ----------------------------------------

  FORCE on cell =-STRESS in cart. coord.  units (eV):
  Direction    XX          YY          ZZ          XY          YZ          ZX
  Alpha Z   210.94477   210.94477   210.94477
  Ewald   -1145.05336 -1469.56346 -1568.51922  -226.75141   119.10425  -415.21621
  Hartree   312.18280   390.85408    -6.84604    28.72504    35.94973  -103.64490
  E(xc)    -947.34270  -922.73035  -944.23325    23.14338    -8.11314    26.33260
  Local   -1182.58023 -1161.81228  -415.74303    23.93076   -94.81624   304.70711
  n-local  2487.36417  2413.11566  2510.62273   -54.04203     0.43986   -58.54928
  augment  -578.12473  -613.53394  -553.05338   -24.49895     5.60075   -34.07291
  Kinetic  1379.93856  1421.74143  1372.74809    19.21051     2.14804    11.72473
  Fock        0.00000     0.00000     0.00000     0.00000     0.00000     0.00000
  Total     537.32927   269.01590   605.92068  -210.28269    60.31326  -268.71886
  in kB     630.09726   315.46053   710.53072  -246.58725    70.72613  -315.11222

 VOLUME and BASIS-vectors are now :
  energy-cutoff  :      700.00
  volume of cell :     1366.29
      direct lattice vectors                 reciprocal lattice vectors
    14.510292053  0.000000000  0.000000000     0.068916600  0.091888801  0.000000000
   -11.608234406  8.706175804  0.000000000     0.000000000  0.114860993  0.000000000
     0.000000000  0.000000000 10.815333366     0.000000000  0.000000000  0.092461320

  length of vectors
    14.510292053 14.510293007 10.815333366     0.114861001  0.114860993  0.092461320

 FORCES acting on ions
    electron-ion (+dipol)            ewald-force                    non-local-force                 convergence-correction
   0.115E+02 0.172E+01 -.452E+02   -.147E+02 -.146E+01 0.467E+02   -.703E+01 0.223E+01 0.663E+01   -.422E-04 0.123E-04 0.515E-04
   -.757E+01 0.209E+01 -.867E+01   0.742E+01 -.258E+01 0.888E+01   0.119E+00 0.453E+00 -.212E-01   0.390E-04 -.213E-04 0.884E-05
   -.187E+02 0.227E+01 0.735E+02   0.290E+02 -.382E+00 -.105E+03   0.918E+01 0.272E+01 -.305E+02   0.819E-04 -.252E-04 -.260E-04
   -.288E+02 0.884E+01 -.504E+02   0.295E+02 -.933E+01 0.503E+02   0.108E+01 0.159E+00 0.135E+01   0.108E-03 -.333E-04 0.303E-04
   -.212E+01 0.701E+00 -.229E+01   0.224E+01 -.764E+00 0.213E+01   -.997E-01 0.399E-01 0.206E+00   0.207E-04 -.366E-05 -.282E-04
   0.182E+00 -.274E-01 0.190E+02   -.164E+00 0.846E-01 -.184E+02   0.825E-01 0.185E-01 -.899E+00   -.551E-04 0.198E-04 0.251E-04
   0.479E+02 -.188E+02 -.890E+01   -.133E+03 0.748E+02 0.565E+02   -.251E+02 0.152E+02 0.132E+02   -.631E-04 0.248E-04 -.553E-05
   0.929E+01 -.374E+01 -.329E+02   -.941E+01 0.366E+01 0.331E+02   -.250E-01 0.153E+00 0.676E+00   -.590E-04 0.224E-04 -.912E-05
   0.172E+02 -.474E+01 0.416E+02   -.176E+02 0.471E+01 -.421E+02   0.276E+00 -.279E-01 -.168E-01   -.265E-04 0.647E-05 -.498E-04
   0.194E+01 -.575E+00 -.183E+02   -.191E+01 0.646E+00 0.179E+02   0.370E+00 -.258E+00 0.339E+00   0.426E-04 -.136E-04 -.246E-04
   0.263E+01 -.104E+01 0.200E+01   -.280E+01 0.950E+00 -.177E+01   0.944E-01 0.932E-01 -.237E+00   -.349E-04 0.114E-04 0.270E-05
   0.175E+02 -.580E+01 0.509E+02   -.177E+02 0.582E+01 -.515E+02   0.189E+01 -.169E+00 -.200E+01   -.117E-03 0.387E-04 0.809E-06
   -.170E+02 0.466E+01 -.469E+02   0.179E+02 -.460E+01 0.482E+02   -.410E+00 0.208E-02 0.646E+00   0.514E-04 -.172E-04 0.428E-04
   -.889E+01 0.409E+01 0.306E+02   0.921E+01 -.352E+01 -.305E+02   -.266E+00 -.754E+00 -.660E+00   0.441E-04 -.212E-04 -.276E-04
   -.493E+02 0.237E+02 0.741E+01   0.499E+02 -.252E+02 -.686E+01   0.423E+01 -.445E+01 -.910E+00   0.689E-04 -.225E-04 0.293E-04
   0.754E+01 0.144E+01 -.681E+02   -.766E+01 -.186E+01 0.695E+02   0.187E+01 -.158E+01 0.613E+01   -.905E-04 0.308E-04 0.556E-05
   0.722E+01 -.208E+01 0.101E+02   -.700E+01 0.244E+01 -.978E+01   -.222E+00 -.363E+00 -.436E+00   -.108E-04 0.899E-05 -.329E-04
   0.154E+02 -.129E+02 0.512E+02   -.202E+02 0.227E+02 -.806E+02   -.110E+02 0.121E+02 -.292E+02   0.530E-04 -.181E-04 -.193E-04
   0.479E+02 -.188E+02 -.890E+01   -.133E+03 0.748E+02 0.565E+02   -.251E+02 0.152E+02 0.132E+02   -.554E-04 0.222E-04 -.695E-05
   0.929E+01 -.374E+01 -.329E+02   -.941E+01 0.366E+01 0.331E+02   -.250E-01 0.153E+00 0.676E+00   -.607E-04 0.171E-04 -.101E-04
   0.172E+02 -.474E+01 0.416E+02   -.176E+02 0.471E+01 -.421E+02   0.276E+00 -.279E-01 -.168E-01   -.311E-04 0.998E-05 -.566E-04
   -.288E+02 0.884E+01 -.504E+02   0.295E+02 -.933E+01 0.503E+02   0.108E+01 0.159E+00 0.135E+01   0.973E-04 -.317E-04 0.243E-04
   -.212E+01 0.701E+00 -.229E+01   0.224E+01 -.764E+00 0.213E+01   -.997E-01 0.399E-01 0.206E+00   0.197E-04 -.111E-04 -.281E-04
   0.182E+00 -.274E-01 0.190E+02   -.164E+00 0.846E-01 -.184E+02   0.825E-01 0.185E-01 -.899E+00   -.509E-04 0.167E-04 0.264E-04
   0.115E+02 0.172E+01 -.452E+02   -.147E+02 -.146E+01 0.467E+02   -.703E+01 0.223E+01 0.663E+01   -.509E-04 0.166E-04 0.572E-04
   -.757E+01 0.209E+01 -.867E+01   0.742E+01 -.258E+01 0.888E+01   0.119E+00 0.453E+00 -.212E-01   0.439E-04 -.658E-05 0.936E-05
   -.187E+02 0.227E+01 0.735E+02   0.290E+02 -.382E+00 -.105E+03   0.918E+01 0.272E+01 -.305E+02   0.768E-04 -.258E-04 -.157E-04
   0.754E+01 0.144E+01 -.681E+02   -.766E+01 -.186E+01 0.695E+02   0.187E+01 -.158E+01 0.613E+01   -.863E-04 0.285E-04 0.505E-06
   0.722E+01 -.208E+01 0.101E+02   -.700E+01 0.244E+01 -.978E+01   -.222E+00 -.363E+00 -.436E+00   -.135E-04 -.473E-06 -.329E-04
   0.154E+02 -.129E+02 0.512E+02   -.202E+02 0.227E+02 -.806E+02   -.110E+02 0.121E+02 -.292E+02   0.504E-04 -.149E-04 -.304E-04
   0.194E+01 -.575E+00 -.183E+02   -.191E+01 0.646E+00 0.179E+02   0.370E+00 -.258E+00 0.339E+00   0.348E-04 -.112E-04 -.273E-04
   0.263E+01 -.104E+01 0.200E+01   -.280E+01 0.950E+00 -.177E+01   0.944E-01 0.932E-01 -.237E+00   -.344E-04 0.109E-04 0.249E-05
   0.175E+02 -.580E+01 0.509E+02   -.177E+02 0.582E+01 -.514E+02   0.189E+01 -.169E+00 -.200E+01   -.112E-03 0.364E-04 0.468E-05
   -.170E+02 0.466E+01 -.469E+02   0.179E+02 -.460E+01 0.482E+02   -.410E+00 0.208E-02 0.646E+00   0.492E-04 -.152E-04 0.548E-04
   -.889E+01 0.409E+01 0.306E+02   0.921E+01 -.352E+01 -.305E+02   -.266E+00 -.754E+00 -.660E+00   0.479E-04 -.916E-05 -.272E-04
   -.493E+02 0.237E+02 0.741E+01   0.499E+02 -.252E+02 -.686E+01   0.423E+01 -.445E+01 -.910E+00   0.569E-04 -.192E-04 0.301E-04
   -.182E+02 0.199E+02 0.379E+01   0.219E+02 -.301E+02 0.267E+02   0.915E+01 -.120E+02 0.257E+02   0.110E-03 -.444E-04 -.893E-06
   0.771E+01 -.149E+02 0.255E+02   -.753E+01 0.161E+02 -.279E+02   -.400E+00 0.170E+01 -.403E+00   -.307E-04 -.451E-06 0.827E-05
   0.443E+02 -.343E+01 0.186E+02   0.381E+02 -.515E+02 -.665E+02   0.199E+02 -.152E+02 -.154E+02   -.116E-03 0.419E-04 0.162E-04
   -.182E+02 0.199E+02 0.379E+01   0.219E+02 -.301E+02 0.267E+02   0.915E+01 -.120E+02 0.257E+02   0.106E-03 -.371E-04 0.683E-05
   0.771E+01 -.149E+02 0.255E+02   -.753E+01 0.161E+02 -.279E+02   -.400E+00 0.170E+01 -.403E+00   -.221E-04 0.281E-04 0.773E-05
   0.443E+02 -.343E+01 0.186E+02   0.381E+02 -.515E+02 -.665E+02   0.199E+02 -.152E+02 -.154E+02   -.123E-03 0.423E-04 0.166E-04
   -.400E+02 -.201E+01 -.191E+02   0.396E+02 0.323E+01 0.186E+02   0.106E+01 0.387E+01 0.331E+01   0.993E-04 -.430E-04 0.178E-04
   -.134E+02 0.175E+02 -.272E+02   0.596E+01 -.219E+02 0.555E+02   -.298E+01 -.575E+01 0.250E+02   0.524E-04 -.181E-04 0.281E-04
   0.100E+02 -.169E+02 -.764E+01   -.105E+02 0.180E+02 0.704E+01   0.199E+01 0.190E+01 -.116E+01   -.106E-03 0.434E-04 0.299E-04
   -.400E+02 -.201E+01 -.191E+02   0.396E+02 0.323E+01 0.186E+02   0.106E+01 0.387E+01 0.331E+01   0.109E-03 -.212E-04 0.175E-04
   -.134E+02 0.175E+02 -.272E+02   0.596E+01 -.219E+02 0.555E+02   -.298E+01 -.575E+01 0.250E+02   0.454E-04 -.214E-04 0.286E-04
   0.100E+02 -.169E+02 -.764E+01   -.105E+02 0.180E+02 0.704E+01   0.199E+01 0.190E+01 -.116E+01   -.110E-03 0.280E-04 0.293E-04
   -.738E+01 -.266E+00 -.281E+01   0.179E-12 0.114E-12 -.409E-13   0.748E+01 0.292E+00 0.280E+01   0.596E-05 0.108E-04 0.154E-03

 POSITION                                       TOTAL-FORCE (eV/Angst)
     -2.81561      5.84734      0.00000       -10.253778      2.484090      8.223894
      0.08645      7.29837      3.24460        -0.031882     -0.036549      0.194033
      0.08645      0.04323      6.48920        19.470453      4.606176    -62.315047
      0.08645      0.04323      0.00000         1.797850     -0.331873      1.314377
      2.98851      1.49426      3.24460         0.014190     -0.023355      0.038574
      5.89056      2.94528      6.48920         0.098243      0.075156     -0.280203
      5.89057      2.94528      0.00000      -110.695916     71.229461     60.781668
     -5.71767      4.39631      3.24460        -0.149139      0.070817      0.865571
     -2.81561      5.84734      6.48920        -0.098487     -0.053845     -0.539996
     -9.34524      8.02389      1.62230         0.397545     -0.187044     -0.104637
      5.16505      0.76874      4.86690        -0.072868      0.006472     -0.003365
      8.06711      2.21977      8.11150         1.641905     -0.149838     -2.582580
     -0.63906      5.12183      1.62230         0.521368      0.062278      2.024157
      2.26299      6.57286      4.86690         0.056201     -0.180751     -0.513154
     -9.34524      8.02389      8.11150         4.882277     -6.005903     -0.364430
      8.06711      2.21977      1.62230         1.744283     -1.995370      7.453252
     -3.54112      3.67080      4.86690        -0.007294     -0.006462     -0.101352
     -0.63907      5.12183      8.11150       -15.884264     21.897005    -58.583877
     -7.16870      7.29837      0.00000      -110.695916     71.229461     60.781668
      7.34160      0.04323      3.24460        -0.149139      0.070817      0.865571
     10.24365      1.49425      6.48920        -0.098487     -0.053845     -0.539996
      1.53748      4.39631      0.00000         1.797850     -0.331873      1.314377
      4.43954      5.84734      3.24460         0.014190     -0.023355      0.038574
     -7.16870      7.29837      6.48920         0.098243      0.075156     -0.280203
     10.24366      1.49425      0.00000       -10.253778      2.484090      8.223894
     -1.36458      2.94528      3.24460        -0.031882     -0.036549      0.194033
      1.53748      4.39631      6.48920        19.470453      4.606176    -62.315047
     -4.99215      6.57286      1.62230         1.744283     -1.995370      7.453252
     -2.09009      8.02389      4.86690        -0.007294     -0.006462     -0.101352
     12.42020      0.76874      8.11150       -15.884264     21.897005    -58.583877
      3.71402      3.67080      1.62230         0.397545     -0.187044     -0.104637
      6.61608      5.12183      4.86690        -0.072868      0.006472     -0.003365
     -4.99215      6.57286      8.11150         1.641905     -0.149838     -2.582580
     12.42020      0.76874      1.62230         0.521368      0.062278      2.024157
      0.81196      2.21977      4.86690         0.056201     -0.180751     -0.513154
      3.71402      3.67080      8.11150         4.882277     -6.005903     -0.364430
      2.48618      8.61376      8.11150        12.875642    -22.186079     56.195838
     -1.86691      7.64640      9.19303        -0.229189      2.828742     -2.802659
     -6.22000      6.67905     10.27457       102.326758    -70.094940    -63.299135
      1.03515      4.26067      8.11150        12.875642    -22.186079     56.195838
     -3.31794      3.29332      9.19303        -0.229189      2.828742     -2.802659
      6.83926      2.32596     10.27457       102.326758    -70.094940    -63.299135
      3.21169      5.95354      8.65227         0.598278      5.088422      2.837948
     -1.14140      4.98618      9.73380       -10.451726    -10.144241     53.321310
      9.01581      4.01883      0.00000         1.449552      3.047630     -1.760186
      1.76066      1.60045      8.65227         0.598278      5.088422      2.837948
     11.91787      0.63310      9.73380       -10.451726    -10.144241     53.321310
     -4.04346      8.37192      0.00000         1.449552      3.047630     -1.760186
    total drift:                                0.097197      0.026768     -0.013172

  FREE ENERGIE OF THE ION-ELECTRON SYSTEM (eV)
  free  energy   TOTEN  =        81.76970571 eV

  energy  without entropy=       81.77124049  energy(sigma->0) =       81.77047310