 vasp.6.4.3 19Mar24 (build Oct 22 2024 11:23:12) complex

 executed on             LinuxIFC date 2025.06.03  22:54:11

 INCAR:
   SYSTEM = Si and Ge interface calculation
   ISTART = 0
   ICHARG = 2
   LWAVE = .FALSE.
   LREAL = AUTO
   ENCUT = 700
   ENAUG = 900
   ADDGRID = .TRUE.
   LMAXMIX = 6
   LASPH = .TRUE.
   LMIXTAU = .TRUE.
   NCORE = 16
   NELM = 100
   NBANDS = 58
   EDIFF = 1d-7
   AMIX = 0.6
   ISMEAR = 0
   SIGMA = 0.01
   NELECT = 96
   ISPIN = 2
   NUPDOWN = 1
   LVTOT = .FALSE.
   LVHAR = .TRUE.

 POTCAR:    PAW_PBE Ge 05Jan2001
|           W    W    AA    RRRRR   N    N  II  N    N   GGGG   !!!           |
|           W    W   A  A   R    R  NN   N  II  NN   N  G    G  !!!           |
|           W    W  A    A  R    R  N N  N  II  N N  N  G       !!!           |
|           W WW W  AAAAAA  RRRRR   N  N N  II  N  N N  G  GGG   !            |
|           WW  WW  A    A  R   R   N   NN  II  N   NN  G    G                |
|           W    W  A    A  R    R  N    N  II  N    N   GGGG   !!!           |
|     You use a magnetic or noncollinear calculation, but did not specify     |
|     the initial magnetic moment with the MAGMOM tag. Note that a            |
|     default of 0.042 will be used for all atoms. This ferromagnetic         |
|     setup may break the symmetry of the crystal, in particular it may       |
|     rule out finding an antiferromagnetic solution. Thence, we              |
|     recommend setting the initial magnetic moment manually or verifying     |
|     carefully that this magnetic setup is desired.                          |

 POTCAR:    PAW_PBE Ge 05Jan2001
   VRHFIN =Ge: s2p2

   TITEL  = PAW_PBE Ge 05Jan2001
   POMASS =   72.610; ZVAL   =    4.000    mass and valenz
   ENMAX  =  173.807; ENMIN  =  130.355 eV

 Optimization of the real space projectors (new method)

 maximal supplied QI-value         = 16.25
 optimisation between [QCUT,QGAM] = [ 13.49, 26.98] = [ 50.95,203.80] Ry
 Optimized for a Real-space Cutoff    1.25 Angstroem

   l    n(q)    QCUT    max X(q) W(low)/X(q) W(high)/X(q)  e(spline)
   0     10    13.489    65.336    0.91E-04    0.11E-03    0.34E-06
   0     10    13.489    52.220    0.89E-04    0.11E-03    0.34E-06
   1     10    13.489    36.409    0.22E-03    0.27E-03    0.14E-06
   1     10    13.489    21.334    0.21E-03    0.27E-03    0.14E-06
   2      9    13.489     4.673    0.11E-03    0.12E-03    0.19E-06
  PAW_PBE Ge 05Jan2001                  :

 POSCAR: Ge+Ge
  positions in direct lattice

 exchange-correlation table for PE
   RHO(1)=    0.500       N(1)  =     2000
   RHO(2)=  100.500       N(2)  =     4000

 ion  position               nearest neighbor table
   1  0.231  0.714  0.917-  15 2.45  21 2.45   7 2.46  24 2.46   4 2.83
   2  0.517  0.000  0.167-  11 2.45   4 2.45   5 2.45  18 2.45
   3  0.017  0.000  0.334-  12 2.45  19 2.45  11 2.45   5 2.45   6 2.83
   4  0.267  0.750  0.083-   2 2.45  24 2.45   7 2.45   8 2.45   1 2.83
   5  0.767  0.750  0.250-   8 2.45   2 2.45   3 2.45  13 2.45
   6  0.981  0.964  0.500-  22 2.45  16 2.45  19 2.46  12 2.46   3 2.83
   7  0.517  0.500  0.000-  18 2.45   4 2.45  10 2.46   1 2.46  15 2.83
   8  0.017  0.500  0.167-  18 2.45   5 2.45  11 2.45   4 2.45
   9  0.481  0.464  0.500-  16 2.45  22 2.45  12 2.46  19 2.46  13 2.83
  10  0.731  0.214  0.917-  21 2.45  15 2.45   7 2.46  24 2.46  18 2.83
  11  0.267  0.250  0.250-   2 2.45  13 2.45   8 2.45   3 2.45
  12  0.767  0.250  0.417-   3 2.45  13 2.45   9 2.46   6 2.46  16 2.83
  13  0.517  0.500  0.334-  19 2.45  11 2.45  12 2.45   5 2.45   9 2.83
  14  0.981  0.464  0.667-  22 2.45  16 2.45  23 2.45  17 2.45
  15  0.481  0.464  0.834-  17 2.45  23 2.45   1 2.45  10 2.45   7 2.83
  16  0.731  0.214  0.583-  14 2.45   9 2.45  20 2.45   6 2.45  12 2.83
  17  0.231  0.214  0.750-  20 2.45  15 2.45  14 2.45  21 2.45
  18  0.767  0.250  0.083-   8 2.45   7 2.45   2 2.45  24 2.45  10 2.83
  19  0.267  0.750  0.417-  13 2.45   3 2.45   6 2.46   9 2.46  22 2.83
  20  0.481  0.964  0.667-  22 2.45  17 2.45  16 2.45  23 2.45
  21  0.981  0.964  0.834-  23 2.45  10 2.45  17 2.45   1 2.45  24 2.83
  22  0.231  0.714  0.583-  20 2.45  14 2.45   6 2.45   9 2.45  19 2.83
  23  0.731  0.714  0.750-  21 2.45  14 2.45  15 2.45  20 2.45
  24  0.017  0.000  0.000-   4 2.45  18 2.45   1 2.46  10 2.46  21 2.83

  LATTYP: Found a simple tetragonal cell.
 ALAT       =     5.6578001980
 C/A-ratio  =     2.9948918972

  Lattice vectors:

 A1 = (   5.6578001980,   0.0000000000,   0.0000000000)
 A2 = (   0.0000000000,   5.6578001980,   0.0000000000)
 A3 = (   0.0000000000,   0.0000000000,  16.9444999690)

Analysis of symmetry for initial positions (statically):
 Subroutine PRICEL returns following result:

[...]

   2 primitive cells build up your supercell.

 Routine SETGRP: Setting up the symmetry group for a
 simple tetragonal supercell.

 Subroutine GETGRP returns: Found  8 space group operations
 (whereof  1 operations were pure point group operations)
 out of a pool of 16 trial point group operations.

The static configuration has the point symmetry C_1 .
 The point group associated with its full space group is D_2h.

Analysis of symmetry for dynamics (positions and initial velocities):
 Subroutine PRICEL returns following result:

[...]

The dynamic configuration has the point symmetry C_1 .
 The point group associated with its full space group is D_2h.

Analysis of structural, dynamic, and magnetic symmetry:
 Subroutine PRICEL returns following result:

  LATTYP: Found a simple tetragonal cell.
 ALAT       =     4.0006688186
 C/A-ratio  =     4.2354168109

  Lattice vectors:

 A1 = (   2.8288998331,  -2.8289002687,   0.0000000000)
 A2 = (   2.8288998331,   2.8288999293,   0.0000000000)
 A3 = (   0.0000000000,   0.0000000000,  16.9444999690)

   2 primitive cells build up your supercell.

 Routine SETGRP: Setting up the symmetry group for a
 simple tetragonal supercell.

 Subroutine GETGRP returns: Found  8 space group operations
 (whereof  1 operations were pure point group operations)
 out of a pool of 16 trial point group operations.

The overall configuration has the point symmetry C_1 .
 The point group associated with its full space group is D_2h.

 Subroutine INISYM returns: Found  8 space group operations
 (whereof  1 operations are pure point group operations),
 and found     2 'primitive' translations

                                     Primitive cell

  volume of cell :     271.2027

  direct lattice vectors                    reciprocal lattice vectors
     2.828899833 -2.828900269  0.000000000     0.176747145 -0.176747139  0.000000000
     2.828899833  2.828899929  0.000000000     0.176747167  0.176747139  0.000000000
     0.000000000  0.000000000 16.944499969     0.000000000  0.000000000  0.059016200

  length of vectors
     4.000668819  4.000668579 16.944499969     0.249958206  0.249958221  0.059016200

  position of ions in fractional coordinates (direct lattice)
     0.517083474  0.945654846  0.917377412
     0.517083318  0.517083260  0.166950926
     0.017083335  0.017083337  0.333901882
     0.517083445  0.017083477  0.083475463
     0.017083430  0.517083432  0.250426382
     0.017083499  0.945654961  0.500000060
     0.017083454  0.017083456  0.000000000
     0.517083415  0.017083447  0.417377353
     0.517083333  0.445654735  0.666950941
     0.017083422  0.945654884  0.833901882
     0.517083474  0.945654846  0.583475530
     0.017083415  0.445654905  0.750426412

  ion indices of the primitive-cell ions
   primitive index   ion index
                 1           1
                 2           8
                 3          13
                 4           4
                 5          11
                 6           6
                 7           7
                 8          19
                 9          20
                10          15
                11          22
                12          17

 KPOINTS: Automatic KPOINTS generated

Automatic generation of k-mesh.
 Grid dimensions read from file:
 generate k-points for:    6    6    2

 Generating k-lattice:

  Cartesian coordinates                     Fractional coordinates (reciprocal lattice)
     0.029457857  0.000000000  0.000000000     0.166666667  0.000000000  0.000000000
     0.000000000  0.029457857  0.000000000     0.000000000  0.166666667  0.000000000
     0.000000000  0.000000000  0.029508100     0.000000000  0.000000000  0.500000000

  Length of vectors
     0.029457857  0.029457857  0.029508100

  Shift w.r.t. Gamma in fractional coordinates (k-lattice)
     0.000000000  0.000000000  0.000000000

 Subroutine IBZKPT returns following result:

 Found     26 irreducible k-points:

 Following reciprocal coordinates:
            Coordinates               Weight
  0.000000  0.000000  0.000000      1.000000
  0.166667  0.000000  0.000000      4.000000
  0.333333  0.000000  0.000000      4.000000
  0.500000  0.000000  0.000000      2.000000
  0.166667  0.166667  0.000000      2.000000
 -0.166667  0.166667  0.000000      2.000000
  0.333333  0.166667  0.000000      4.000000
 -0.166667  0.333333  0.000000      4.000000
  0.500000  0.166667  0.000000      4.000000
  0.333333  0.333333  0.000000      2.000000
 -0.333333  0.333333  0.000000      2.000000
  0.500000  0.333333  0.000000      4.000000
  0.500000  0.500000  0.000000      1.000000
  0.000000  0.000000  0.500000      1.000000
  0.166667  0.000000  0.500000      4.000000
  0.333333  0.000000  0.500000      4.000000
  0.500000  0.000000  0.500000      2.000000
  0.166667  0.166667  0.500000      2.000000
 -0.166667  0.166667  0.500000      2.000000
  0.333333  0.166667  0.500000      4.000000
 -0.166667  0.333333  0.500000      4.000000
  0.500000  0.166667  0.500000      4.000000
  0.333333  0.333333  0.500000      2.000000
 -0.333333  0.333333  0.500000      2.000000
  0.500000  0.333333  0.500000      4.000000
  0.500000  0.500000  0.500000      1.000000

 Following cartesian coordinates:
            Coordinates               Weight
  0.000000  0.000000  0.000000      1.000000
  0.029458  0.000000  0.000000      4.000000
  0.058916  0.000000  0.000000      4.000000
  0.088374  0.000000  0.000000      2.000000
  0.029458  0.029458  0.000000      2.000000
 -0.029458  0.029458  0.000000      2.000000
  0.058916  0.029458  0.000000      4.000000
 -0.029458  0.058916  0.000000      4.000000
  0.088374  0.029458  0.000000      4.000000
  0.058916  0.058916  0.000000      2.000000
 -0.058916  0.058916  0.000000      2.000000
  0.088374  0.058916  0.000000      4.000000
  0.088374  0.088374  0.000000      1.000000
  0.000000  0.000000  0.029508      1.000000
  0.029458  0.000000  0.029508      4.000000
  0.058916  0.000000  0.029508      4.000000
  0.088374  0.000000  0.029508      2.000000
  0.029458  0.029458  0.029508      2.000000
 -0.029458  0.029458  0.029508      2.000000
  0.058916  0.029458  0.029508      4.000000
 -0.029458  0.058916  0.029508      4.000000
  0.088374  0.029458  0.029508      4.000000
  0.058916  0.058916  0.029508      2.000000
 -0.058916  0.058916  0.029508      2.000000
  0.088374  0.058916  0.029508      4.000000
  0.088374  0.088374  0.029508      1.000000

[...]

[...]

 eigenvalues of (default mixing * dielectric matrix)
  average eigenvalue GAMMA=   1.7508
  1.7508

[...]

 eigenvalue-minimisations  :  7080
 total energy-change (2. order) :-0.6114756E-06  (-0.7562133E-07)
 number of electron      95.9999999 magnetization       1.0000000
 augmentation part      -15.9727784 magnetization      -0.0998273

[...]

 Broyden mixing:
  rms(total) = 0.30241E-04    rms(broyden)= 0.30025E-04
  rms(prec ) = 0.32529E-04
  weight for this iteration     100.00

 eigenvalues of (default mixing * dielectric matrix)
  average eigenvalue GAMMA=   1.0280
  2.1035  1.7925  1.5787  1.2030  1.2030  0.7053  0.7053  0.5731  0.5012  0.4650
  0.4778

[...]

--------------------------------------- Iteration      1(  17)  ---------------------------------------

 eigenvalue-minimisations  :  3792
 total energy-change (2. order) : 0.4712547E-07  (-0.1311848E-08)
 number of electron      95.9999999 magnetization       1.0000000
 augmentation part      -15.9727570 magnetization      -0.0998295

 Free energy of the ion-electron system (eV)
  alpha Z        PSCENC =       202.97036621
  Ewald energy   TEWEN  =     -2594.22048218
  -Hartree energ DENC   =      -209.01495337
  -exchange      EXHF   =         0.00000000
  -V(xc)+E(xc)   XCENC  =      -174.11798994
  PAW double counting   =      5251.31978153    -4907.54873839
  entropy T*S    EENTRO =        -0.00048607
  eigenvalues    EBANDS =      -184.85343782
  atomic energy  EATOM  =      2519.90183662
  Solvation  Ediel_sol  =         0.00000000
  free energy    TOTEN  =       -95.56410342 eV

  energy without entropy =      -95.56361734  energy(sigma->0) =      -95.56386038

 average (electrostatic) potential at core
  the test charge radii are     1.1631
  (the norm of the test charge is              1.0000)
       1 -33.2487       2 -33.0200       3 -33.1616       4 -33.1617       5 -33.0200
       6 -33.2486       7 -33.2487       8 -33.0200       9 -33.2486      10 -33.2487
      11 -33.0200      12 -33.2486      13 -33.1616      14 -33.0200      15 -33.1617
      16 -33.1617      17 -33.0200      18 -33.1617      19 -33.2486      20 -33.0200
      21 -33.1617      22 -33.1617      23 -33.0200      24 -33.2487

 E-fermi :   3.5168     XC(G=0):  -9.1930     alpha+bet : -9.1722

 val. band max:        3.6203048865   @ k =   0.1667   0.1667   0.0000
 cond. band min:       3.5297045932   @ k =  -0.1667   0.1667   0.0000
 fundamental gap:     -0.0906002933
 Fermi energy:         3.6243606105

 spin component 1

 k-point     1 :       0.0000    0.0000    0.0000
  band No.  band energies     occupation
      1      -9.4313      1.00000
      2      -9.1632      1.00000
      3      -8.6474      1.00000
      4      -7.5262      1.00000
      5      -7.3812      1.00000
      6      -6.4309      1.00000
      7      -6.4309      1.00000
      8      -6.4108      1.00000
      9      -6.4108      1.00000
     10      -5.2030      1.00000
     11      -5.1754      1.00000
     12      -5.1214      1.00000
     13      -5.1214      1.00000
     14      -5.1184      1.00000
     15      -5.1184      1.00000
     16      -4.4295      1.00000
     17      -4.4295      1.00000
     18      -4.3340      1.00000
     19      -4.3339      1.00000
     20      -2.4262      1.00000
     21      -2.0685      1.00000
     22      -0.8670      1.00000
     23      -0.8670      1.00000
     24      -0.4571      1.00000
     25      -0.4571      1.00000
     26      -0.1615      1.00000
     27      -0.0092      1.00000
     28       0.0030      1.00000
     29       0.0030      1.00000
     30       0.1615      1.00000
     31       0.1833      1.00000
     32       0.1833      1.00000
     33       0.7811      1.00000
     34       1.0557      1.00000
     35       1.1141      1.00000
     36       1.3272      1.00000
     37       1.3383      1.00000
     38       1.6977      1.00000
     39       1.9289      1.00000
     40       1.9289      1.00000
     41       1.9550      1.00000
     42       2.3313      1.00000
     43       2.4577      1.00000
     44       2.5265      1.00000
     45       2.5265      1.00000
     46       2.5305      1.00000
     47       2.5305      1.00000
     48       2.8605      1.00000
     49       3.2895      1.00000
     50       3.7776      0.00000
     51       3.7776      0.00000
     52       3.8431      0.00000
     53       3.8433      0.00000
     54       4.2841      0.00000
     55       4.4679      0.00000
     56       4.7687      0.00000
     57       4.8705      0.00000
     58       4.9316      0.00000
     59       5.1561      0.00000
     60       5.3140      0.00000

[...]

 k-point    26 :       0.5000    0.5000    0.5000
  band No.  band energies     occupation
      1      -8.6701      1.00000
      2      -8.6701      1.00000
      3      -7.4436      1.00000
      4      -7.4436      1.00000
      5      -7.4436      1.00000
      6      -7.4435      1.00000
      7      -7.0617      1.00000
      8      -7.0617      1.00000
      9      -6.4746      1.00000
     10      -6.4745      1.00000
     11      -5.8715      1.00000
     12      -5.8715      1.00000
     13      -5.8715      1.00000
     14      -5.8714      1.00000
     15      -3.8157      1.00000
     16      -3.8157      1.00000
     17      -3.4855      1.00000
     18      -3.4855      1.00000
     19      -3.2485      1.00000
     20      -3.2484      1.00000
     21      -3.2484      1.00000
     22      -3.2484      1.00000
     23      -1.0938      1.00000
     24      -1.0938      1.00000
     25      -0.4027      1.00000
     26      -0.4027      1.00000
     27      -0.1619      1.00000
     28      -0.1618      1.00000
     29      -0.1618      1.00000
     30      -0.1618      1.00000
     31       0.3101      1.00000
     32       0.3101      1.00000
     33       1.5706      1.00000
     34       1.5706      1.00000
     35       2.0245      1.00000
     36       2.0245      1.00000
     37       2.1526      1.00000
     38       2.1526      1.00000
     39       2.1527      1.00000
     40       2.1527      1.00000
     41       2.2927      1.00000
     42       2.2927      1.00000
     43       2.9795      1.00000
     44       2.9795      1.00000
     45       3.2196      1.00000
     46       3.2196      1.00000
     47       3.2862      1.00000
     48       3.2863      1.00000
     49       3.2863      1.00000
     50       3.2863      1.00000
     51       4.5149      0.00000
     52       4.5149      0.00000
     53       4.8938      0.00000
     54       4.8938      0.00000
     55       4.8938      0.00000
     56       4.8938      0.00000
     57       5.1145      0.00000
     58       5.1145      0.00000
     59       5.7952      0.00000
     60       5.7952      0.00000
 Fermi energy:         3.5167777484

 spin component 2

[...]

 k-point    26 :       0.5000    0.5000    0.5000
  band No.  band energies     occupation
      1      -8.6300      1.00000
      2      -8.6300      1.00000
      3      -7.4045      1.00000
      4      -7.4045      1.00000
      5      -7.4045      1.00000
      6      -7.4045      1.00000
      7      -7.0318      1.00000
      8      -7.0317      1.00000
      9      -6.4298      1.00000
     10      -6.4298      1.00000
     11      -5.8342      1.00000
     12      -5.8342      1.00000
     13      -5.8341      1.00000
     14      -5.8341      1.00000
     15      -3.7691      1.00000
     16      -3.7691      1.00000
     17      -3.4535      1.00000
     18      -3.4534      1.00000
     19      -3.2111      1.00000
     20      -3.2111      1.00000
     21      -3.2111      1.00000
     22      -3.2111      1.00000
     23      -1.0538      1.00000
     24      -1.0538      1.00000
     25      -0.3664      1.00000
     26      -0.3664      1.00000
     27      -0.1240      1.00000
     28      -0.1240      1.00000
     29      -0.1240      1.00000
     30      -0.1240      1.00000
     31       0.3496      1.00000
     32       0.3496      1.00000
     33       1.6055      1.00000
     34       1.6055      1.00000
     35       2.0695      1.00000
     36       2.0696      1.00000
     37       2.1969      1.00000
     38       2.1969      1.00000
     39       2.1970      1.00000
     40       2.1970      1.00000
     41       2.3178      1.00000
     42       2.3179      1.00000
     43       3.0276      1.00000
     44       3.0276      1.00000
     45       3.2732      1.00000
     46       3.2732      1.00000
     47       3.3282      1.00000
     48       3.3282      1.00000
     49       3.3282      1.00000
     50       3.3282      1.00000
     51       4.5491      0.00000
     52       4.5491      0.00000
     53       4.9365      0.00000
     54       4.9365      0.00000
     55       4.9365      0.00000
     56       4.9365      0.00000
     57       5.1525      0.00000
     58       5.1525      0.00000
     59       5.8346      0.00000
     60       5.8346      0.00000

 soft charge-density along one line, spin component           1
         0         1         2         3         4         5         6         7         8         9
 total charge-density along one line

 soft charge-density along one line, spin component           2
         0         1         2         3         4         5         6         7         8         9
 total charge-density along one line

------------------------ aborting loop because EDIFF is reached ----------------------------------------

  FORCE on cell =-STRESS in cart. coord.  units (eV):
  Direction    XX          YY          ZZ          XY          YZ          ZX
  Alpha Z   202.97037   202.97037   202.97037
  Ewald    -946.79811  -946.79811  -700.63367  -286.44029     0.00026     0.00010
  Hartree    43.36851    43.36851   122.27802   -76.20009    -0.00002    -0.00001
  E(xc)    -331.28561  -331.28561  -330.54302     1.04908    -0.00000    -0.00000
  Local    -182.62895  -182.62895  -488.81469   344.29487    -0.00010    -0.00004
  n-local   476.80013   476.48764   477.85677   -16.54134     0.01389     0.04802
  augment    29.92622    29.92622    30.67230    -0.20977     0.00001     0.00000
  Kinetic   722.63282   743.20086   733.49982    19.04989     0.00027     0.00013
  Fock        0.00000     0.00000     0.00000     0.00000     0.00000     0.00000
  Total      25.11314    25.11314    47.28590   -14.99755     0.00000     0.00000
  in kB      74.18015    74.18015   139.67487   -44.30032     0.00000     0.00000

 VOLUME and BASIS-vectors are now :
  energy-cutoff  :      700.00
  volume of cell :      542.41
      direct lattice vectors                 reciprocal lattice vectors
     5.657800198  0.000000000  0.000000000     0.176747139  0.000000000  0.000000000
     0.000000000  5.657800198  0.000000000     0.000000000  0.176747139  0.000000000
     0.000000000  0.000000000 16.944499969     0.000000000  0.000000000  0.059016200

  length of vectors
     5.657800198  5.657800198 16.944499969     0.176747139  0.176747139  0.059016200

 FORCES acting on ions
    electron-ion (+dipol)            ewald-force                    non-local-force                 convergence-correction
   0.358E+01 0.358E+01 0.799E+01   -.392E+01 -.392E+01 -.810E+01   0.594E-01 0.594E-01 -.614E+00   0.133E-05 0.130E-05 0.355E-04
   0.534E-01 0.534E-01 0.870E-02   -.937E-01 -.937E-01 0.179E+00   0.690E-01 0.690E-01 0.225E+00   -.108E-06 -.996E-07 -.634E-04
   -.897E+00 -.898E+00 0.870E+01   0.905E+00 0.905E+00 -.874E+01   0.874E-02 0.874E-02 -.857E+00   -.780E-06 -.785E-06 0.914E-04
   -.897E+00 -.898E+00 -.870E+01   0.905E+00 0.905E+00 0.875E+01   0.874E-02 0.874E-02 0.857E+00   -.793E-06 -.807E-06 -.109E-03
   0.534E-01 0.534E-01 -.859E-02   -.937E-01 -.937E-01 -.179E+00   0.690E-01 0.690E-01 -.225E+00   -.120E-06 -.113E-06 0.371E-04
   0.358E+01 0.358E+01 -.799E+01   -.392E+01 -.392E+01 0.809E+01   0.594E-01 0.594E-01 0.614E+00   0.132E-05 0.128E-05 -.261E-04
   -.358E+01 -.358E+01 -.799E+01   0.392E+01 0.392E+01 0.809E+01   -.594E-01 -.594E-01 0.614E+00   -.131E-05 -.134E-05 -.411E-04
   0.535E-01 0.534E-01 0.870E-02   -.937E-01 -.937E-01 0.179E+00   0.690E-01 0.690E-01 0.225E+00   -.123E-06 -.131E-06 -.634E-04
   0.358E+01 0.358E+01 -.799E+01   -.392E+01 -.392E+01 0.809E+01   0.594E-01 0.594E-01 0.614E+00   0.127E-05 0.130E-05 -.261E-04
   0.358E+01 0.358E+01 0.799E+01   -.392E+01 -.392E+01 -.810E+01   0.594E-01 0.594E-01 -.614E+00   0.132E-05 0.135E-05 0.355E-04
   0.534E-01 0.534E-01 -.860E-02   -.937E-01 -.937E-01 -.179E+00   0.690E-01 0.690E-01 -.225E+00   -.111E-06 -.118E-06 0.371E-04
   -.358E+01 -.358E+01 0.799E+01   0.392E+01 0.392E+01 -.809E+01   -.594E-01 -.594E-01 -.614E+00   -.130E-05 -.129E-05 0.377E-04
   -.897E+00 -.897E+00 0.870E+01   0.905E+00 0.905E+00 -.874E+01   0.874E-02 0.874E-02 -.857E+00   -.808E-06 -.802E-06 0.914E-04
   -.533E-01 -.533E-01 0.867E-02   0.937E-01 0.937E-01 0.179E+00   -.690E-01 -.690E-01 0.225E+00   0.138E-06 0.129E-06 -.377E-04
   0.898E+00 0.898E+00 0.870E+01   -.905E+00 -.905E+00 -.874E+01   -.874E-02 -.874E-02 -.857E+00   0.798E-06 0.807E-06 0.102E-03
   0.898E+00 0.898E+00 -.870E+01   -.905E+00 -.905E+00 0.874E+01   -.874E-02 -.874E-02 0.857E+00   0.792E-06 0.818E-06 -.850E-04
   -.533E-01 -.534E-01 -.865E-02   0.937E-01 0.937E-01 -.179E+00   -.690E-01 -.690E-01 -.225E+00   0.117E-06 0.147E-06 0.581E-04
   -.897E+00 -.897E+00 -.870E+01   0.905E+00 0.905E+00 0.875E+01   0.874E-02 0.874E-02 0.857E+00   -.811E-06 -.795E-06 -.109E-03
   -.358E+01 -.358E+01 0.799E+01   0.392E+01 0.392E+01 -.809E+01   -.594E-01 -.594E-01 -.614E+00   -.129E-05 -.130E-05 0.377E-04
   -.532E-01 -.533E-01 0.867E-02   0.938E-01 0.937E-01 0.179E+00   -.690E-01 -.690E-01 0.225E+00   0.915E-07 0.102E-06 -.377E-04
   0.898E+00 0.898E+00 0.870E+01   -.905E+00 -.905E+00 -.874E+01   -.874E-02 -.874E-02 -.857E+00   0.802E-06 0.794E-06 0.102E-03
   0.898E+00 0.898E+00 -.870E+01   -.905E+00 -.905E+00 0.874E+01   -.874E-02 -.874E-02 0.857E+00   0.796E-06 0.772E-06 -.850E-04
   -.533E-01 -.533E-01 -.865E-02   0.937E-01 0.937E-01 -.179E+00   -.690E-01 -.690E-01 -.225E+00   0.113E-06 0.834E-07 0.581E-04
   -.358E+01 -.358E+01 -.799E+01   0.392E+01 0.392E+01 0.809E+01   -.594E-01 -.594E-01 0.614E+00   -.133E-05 -.131E-05 -.410E-04
   0.151E-02 0.102E-02 -.155E-03   0.222E-14 -.711E-14 -.853E-13   -.555E-16 -.347E-16 0.999E-15   -.130E-07 -.104E-07 0.108E-06

 POSITION                                       TOTAL-FORCE (eV/Angst)
      1.30904      4.04129     15.54450        -0.278091     -0.278091     -0.719124
      2.92555      0.00000      2.82890         0.028654      0.028654      0.412783
      0.09665      0.00000      5.65780         0.016060      0.016060     -0.905970
      1.51110      4.24335      1.41445         0.016060      0.016060      0.905970
      4.34000      4.24335      4.24335         0.028654      0.028654     -0.412783
      5.55239      5.45574      8.47225        -0.278091     -0.278091      0.719124
      2.92555      2.82890      0.00000         0.278091      0.278091      0.719124
      0.09665      2.82890      2.82890         0.028654      0.028654      0.412783
      2.72349      2.62684      8.47225        -0.278091     -0.278091      0.719124
      4.13794      1.21239     15.54450        -0.278091     -0.278091     -0.719124
      1.51110      1.41445      4.24335         0.028654      0.028654     -0.412783
      4.34000      1.41445      7.07225         0.278091      0.278091     -0.719124
      2.92555      2.82890      5.65780         0.016060      0.016060     -0.905970
      5.55239      2.62684     11.30115        -0.028654     -0.028654      0.412783
      2.72349      2.62684     14.13005        -0.016060     -0.016060     -0.905970
      4.13794      1.21239      9.88670        -0.016060     -0.016060      0.905970
      1.30904      1.21239     12.71560        -0.028654     -0.028654     -0.412783
      4.34000      1.41445      1.41445         0.016060      0.016060      0.905970
      1.51110      4.24335      7.07225         0.278091      0.278091     -0.719124
      2.72349      5.45574     11.30115        -0.028654     -0.028654      0.412783
      5.55239      5.45574     14.13005        -0.016060     -0.016060     -0.905970
      1.30904      4.04129      9.88670        -0.016060     -0.016060      0.905970
      4.13794      4.04129     12.71560        -0.028654     -0.028654     -0.412783
      0.09665      0.00000      0.00000         0.278091      0.278091      0.719124
    total drift:                                0.001509      0.001016     -0.000155

  FREE ENERGIE OF THE ION-ELECTRON SYSTEM (eV)
  free  energy   TOTEN  =       -95.56410342 eV

  energy  without entropy=      -95.56361734  energy(sigma->0) =      -95.56386038