 vasp.6.4.3 19Mar24 (build Oct 22 2024 11:23:12) complex

 executed on             LinuxIFC date 2025.06.04  00:18:25

 INCAR:
   SYSTEM = Si and Ge interface calculation
   ISTART = 0
   ICHARG = 2
   LWAVE = .FALSE.
   LREAL = AUTO
   ENCUT = 700
   ENAUG = 900
   ADDGRID = .TRUE.
   LMAXMIX = 6
   LASPH = .TRUE.
   LMIXTAU = .TRUE.
   NCORE = 16
   NELM = 100
   NBANDS = 116
   EDIFF = 1d-7
   AMIX = 0.6
   ISMEAR = 0
   SIGMA = 0.01
   NELECT = 192
   ISPIN = 2
   NUPDOWN = 1
   LVTOT = .FALSE.
   LVHAR = .TRUE.

 POTCAR:    PAW_PBE Si 05Jan2001
|           W    W    AA    RRRRR   N    N  II  N    N   GGGG   !!!           |
|           W    W   A  A   R    R  NN   N  II  NN   N  G    G  !!!           |
|           W    W  A    A  R    R  N N  N  II  N N  N  G       !!!           |
|           W WW W  AAAAAA  RRRRR   N  N N  II  N  N N  G  GGG   !            |
|           WW  WW  A    A  R   R   N   NN  II  N   NN  G    G                |
|           W    W  A    A  R    R  N    N  II  N    N   GGGG   !!!           |
|     You use a magnetic or noncollinear calculation, but did not specify     |
|     the initial magnetic moment with the MAGMOM tag. Note that a            |
|     default of 0.021 will be used for all atoms. This ferromagnetic         |
|     setup may break the symmetry of the crystal, in particular it may       |
|     rule out finding an antiferromagnetic solution. Thence, we              |
|     recommend setting the initial magnetic moment manually or verifying     |
|     carefully that this magnetic setup is desired.                          |

 POTCAR:    PAW_PBE Si 05Jan2001
   VRHFIN =Si: s2p2

   TITEL  = PAW_PBE Si 05Jan2001
   POMASS =   28.085; ZVAL   =    4.000    mass and valenz
   ENMAX  =  245.345; ENMIN  =  184.009 eV

 Optimization of the real space projectors (new method)

 maximal supplied QI-value         = 19.84
 optimisation between [QCUT,QGAM] = [ 13.49, 26.99] = [ 50.98,203.92] Ry
 Optimized for a Real-space Cutoff    1.07 Angstroem

   l    n(q)    QCUT    max X(q) W(low)/X(q) W(high)/X(q)  e(spline)
   0      9    13.493   159.560    0.22E-03    0.15E-03    0.72E-07
   0      9    13.493   115.863    0.21E-03    0.15E-03    0.71E-07
   1      8    13.493    88.339    0.15E-03    0.11E-03    0.13E-06
   1      8    13.493    48.592    0.15E-03    0.10E-03    0.13E-06
  PAW_PBE Si 05Jan2001                  :

 POSCAR: Si+Si
  positions in direct lattice

 exchange-correlation table for PE
   RHO(1)=    0.500       N(1)  =     2000
   RHO(2)=  100.500       N(2)  =     4000

 ion  position               nearest neighbor table
   1  0.018  0.000  0.000-  30 1.36  48 1.92  33 1.92   7 2.35   4 2.35
   2  0.518  0.000  0.200-   4 2.35  23 2.35   7 2.35  36 2.35
   3  0.018  0.000  0.400-  28 1.36  23 2.35   9 2.35  36 2.35  24 2.35
   4  0.143  0.875  0.100-  33 1.36   2 2.35  10 2.35   1 2.35  17 2.35
   5  0.268  0.750  0.500-  18 1.36  24 1.92  15 1.92  31 2.35  43 2.35
   6  0.643  0.375  0.500-  34 1.36  40 1.92  25 1.92  21 2.35  12 2.35
   7  0.893  0.125  0.100-  48 1.36   1 2.35  14 2.35  13 2.35   2 2.35
   8  0.643  0.375  0.000-  19 1.36  13 1.92  22 1.92  27 2.35  42 2.35
   9  0.893  0.125  0.500-  46 1.36  28 1.92  40 1.92   3 2.35  12 2.35
  10  0.268  0.750  0.000-  39 1.36  33 1.92  45 1.92   4 2.35  16 2.35
  11  0.893  0.625  0.300-  21 2.35  18 2.35  37 2.35  17 2.35
  12  0.768  0.250  0.400-  40 1.36  20 2.35   9 2.35  36 2.35   6 2.35
  13  0.768  0.250  0.000-  42 1.36   8 1.92  48 1.92  19 2.35   7 2.35
  14  0.268  0.250  0.200-   7 2.35  20 2.35  19 2.35  36 2.35
  15  0.393  0.625  0.500-  43 1.36  25 1.92   5 1.92  21 2.35  18 2.35
  16  0.393  0.625  0.100-  45 1.36  37 2.35  22 2.35  10 2.35  17 2.35
  17  0.768  0.750  0.200-  23 2.35   4 2.35  16 2.35  11 2.35
  18  0.268  0.750  0.400-   5 1.36  23 2.35  24 2.35  11 2.35  15 2.35
  19  0.643  0.375  0.100-   8 1.36  37 2.35  22 2.35  13 2.35  14 2.35
  20  0.143  0.375  0.300-  21 2.35  12 2.35  14 2.35  37 2.35
  21  0.518  0.500  0.400-  25 1.36  20 2.35  15 2.35  11 2.35   6 2.35
  22  0.518  0.500  0.000-  27 1.36  45 1.92   8 1.92  19 2.35  16 2.35
  23  0.643  0.875  0.300-   3 2.35  18 2.35   2 2.35  17 2.35
  24  0.143  0.875  0.500-  31 1.36   5 1.92  28 1.92   3 2.35  18 2.35
  25  0.518  0.500  0.500-  21 1.36  15 1.92   6 1.92  34 2.35  43 2.35
  26  0.018  0.500  0.700-  34 2.35  43 2.35  44 2.35  35 2.35
  27  0.518  0.500  0.900-  22 1.36  35 2.35  44 2.35  45 2.35   8 2.35
  28  0.018  0.000  0.500-   3 1.36   9 1.92  24 1.92  46 2.35  31 2.35
  29  0.518  0.000  0.700-  31 2.35  46 2.35  32 2.35  47 2.35
  30  0.018  0.000  0.900-   1 1.36  32 2.35  47 2.35  48 2.35  33 2.35
  31  0.143  0.875  0.600-  24 1.36  29 2.35   5 2.35  38 2.35  28 2.35
  32  0.643  0.875  0.800-  30 2.35  39 2.35  29 2.35  38 2.35
  33  0.143  0.875  0.000-   4 1.36  10 1.92   1 1.92  30 2.35  39 2.35
  34  0.643  0.375  0.600-   6 1.36  26 2.35  41 2.35  25 2.35  40 2.35
  35  0.143  0.375  0.800-  27 2.35  42 2.35  41 2.35  26 2.35
  36  0.393  0.125  0.300-   3 2.35  12 2.35   2 2.35  14 2.35
  37  0.018  0.500  0.200-  19 2.35  16 2.35  11 2.35  20 2.35
  38  0.768  0.750  0.700-  31 2.35  43 2.35  32 2.35  44 2.35
  39  0.268  0.750  0.900-  10 1.36  32 2.35  44 2.35  33 2.35  45 2.35
  40  0.768  0.250  0.500-  12 1.36   6 1.92   9 1.92  34 2.35  46 2.35
  41  0.268  0.250  0.700-  46 2.35  34 2.35  35 2.35  47 2.35
  42  0.768  0.250  0.900-  13 1.36  35 2.35  47 2.35  48 2.35   8 2.35
  43  0.393  0.625  0.600-  15 1.36  26 2.35  38 2.35  25 2.35   5 2.35
  44  0.893  0.625  0.800-  27 2.35  39 2.35  26 2.35  38 2.35
  45  0.393  0.625  0.000-  16 1.36  22 1.92  10 1.92  27 2.35  39 2.35
  46  0.893  0.125  0.600-   9 1.36  41 2.35  29 2.35  28 2.35  40 2.35
  47  0.393  0.125  0.800-  30 2.35  42 2.35  41 2.35  29 2.35
  48  0.893  0.125  0.000-   7 1.36   1 1.92  13 1.92  30 2.35  42 2.35

  LATTYP: Found a simple orthorhombic cell.
 ALAT       =     5.4310002330
 B/A-ratio  =     1.9999999998
 C/A-ratio  =     2.5000001316

  Lattice vectors:

 A1 = (   5.4310002330,   0.0000000000,   0.0000000000)
 A2 = (   0.0000000000,  10.8620004650,   0.0000000000)
 A3 = (   0.0000000000,   0.0000000000,  13.5775012970)

Analysis of symmetry for initial positions (statically):
 Subroutine PRICEL returns following result:

  LATTYP: Found a simple tetragonal cell.
 ALAT       =     3.8402964596
 C/A-ratio  =     1.7677673378

[...]

   8 primitive cells build up your supercell.

 Routine SETGRP: Setting up the symmetry group for a
 simple orthorhombic supercell.

 Subroutine GETGRP returns: Found  4 space group operations
 (whereof  1 operations were pure point group operations)
 out of a pool of  8 trial point group operations.

The static configuration has the point symmetry C_1 .
 The point group associated with its full space group is C_2h.

Analysis of symmetry for dynamics (positions and initial velocities):
 Subroutine PRICEL returns following result:

[...]

The dynamic configuration has the point symmetry C_1 .
 The point group associated with its full space group is C_2h.

Analysis of structural, dynamic, and magnetic symmetry:
 Subroutine PRICEL returns following result:

  LATTYP: Found a simple tetragonal cell.
 ALAT       =     3.8402964596
 C/A-ratio  =     1.7677673378

  Lattice vectors:

 A1 = (   2.7154998721,  -2.7154994645,   0.0000000000)
 A2 = (   2.7154993833,   2.7155020714,   0.0000000000)
 A3 = (   0.0000000000,   0.0000000000,   6.7887506485)

   8 primitive cells build up your supercell.

 Routine SETGRP: Setting up the symmetry group for a
 simple orthorhombic supercell.

 Subroutine GETGRP returns: Found  4 space group operations
 (whereof  1 operations were pure point group operations)
 out of a pool of  8 trial point group operations.

The overall configuration has the point symmetry C_1 .
 The point group associated with its full space group is C_2h.

 Subroutine INISYM returns: Found  4 space group operations
 (whereof  1 operations are pure point group operations),
 and found     8 'primitive' translations

                                     Primitive cell

  volume of cell :     100.1197

  direct lattice vectors                    reciprocal lattice vectors
     2.715499872 -2.715499465  0.000000000     0.184128267 -0.184128085  0.000000000
     2.715499383  2.715502071  0.000000000     0.184128090  0.184128118  0.000000000
     0.000000000  0.000000000  6.788750648     0.000000000  0.000000000  0.147302508

  length of vectors
     3.840296460  3.840297957  6.788750648     0.260396563  0.260396462  0.147302508

  position of ions in fractional coordinates (direct lattice)
     0.017796871  0.017796854  0.000000000
     0.517797261  0.517796764  0.400000006
     0.017796886  0.017796869  0.799999952
     0.517797523  0.017796666  0.200000002
     0.517797582  0.017796725  0.000000000
     0.017797237  0.517796860  0.600000144

  ion indices of the primitive-cell ions
   primitive index   ion index
                 1           1
                 2          17
                 3          30
                 4           7
                 5          48
                 6          32

 KPOINTS: Automatic KPOINTS generated

Automatic generation of k-mesh.
 Grid dimensions read from file:
 generate k-points for:    6    3    2

 Generating k-lattice:

  Cartesian coordinates                     Fractional coordinates (reciprocal lattice)
     0.030688024  0.015344012  0.000000000     0.166666667 -0.000000000  0.000000000
     0.000000000  0.030688024  0.000000000     0.000000000  0.333333333  0.000000000
     0.000000000  0.000000000  0.036825627     0.000000000  0.000000000  0.500000000

  Length of vectors
     0.034310254  0.030688024  0.036825627

  Shift w.r.t. Gamma in fractional coordinates (k-lattice)
     0.000000000  0.000000000  0.000000000

 Subroutine IBZKPT returns following result:

 Found     20 irreducible k-points:

 Following reciprocal coordinates:
            Coordinates               Weight
  0.000000  0.000000  0.000000      1.000000
  0.166667 -0.000000  0.000000      2.000000
  0.166667 -0.333333  0.000000      2.000000
  0.333333 -0.000000  0.000000      2.000000
  0.333333  0.333333  0.000000      2.000000
  0.500000 -0.000000  0.000000      1.000000
  0.000000  0.333333  0.000000      2.000000
  0.166667  0.333333  0.000000      2.000000
  0.500000  0.333333  0.000000      2.000000
 -0.333333  0.333333  0.000000      2.000000
  0.000000  0.000000  0.500000      1.000000
  0.166667 -0.000000  0.500000      2.000000
  0.166667 -0.333333  0.500000      2.000000
  0.333333 -0.000000  0.500000      2.000000
  0.333333  0.333333  0.500000      2.000000
  0.500000 -0.000000  0.500000      1.000000
  0.000000  0.333333  0.500000      2.000000
  0.166667  0.333333  0.500000      2.000000
  0.500000  0.333333  0.500000      2.000000
 -0.333333  0.333333  0.500000      2.000000

 Following cartesian coordinates:
            Coordinates               Weight
  0.000000  0.000000  0.000000      1.000000
  0.030688  0.015344  0.000000      2.000000
  0.030688 -0.015344  0.000000      2.000000
[...]
     42       1.3238      1.00000
     43       1.3411      1.00000
     44       1.3411      1.00000
     45       1.8300      1.00000
     46       1.8300      1.00000
     47       1.8305      1.00000
     48       1.8305      1.00000
     49       2.3855      1.00000
     50       2.3855      1.00000
     51       2.5175      1.00000
     52       2.5175      1.00000
     53       3.0741      1.00000
     54       3.0741      1.00000
     55       3.1625      1.00000
     56       3.1625      1.00000
     57       3.7488      1.00000
     58       3.7488      1.00000
     59       3.9388      1.00000
     60       3.9388      1.00000
[...]
    102       8.8047      0.00000
    103       8.9577      0.00000
    104       8.9577      0.00000
    105       9.0579      0.00000
    106       9.0579      0.00000
    107       9.3520      0.00000
    108       9.3520      0.00000
    109       9.4408      0.00000
    110       9.4408      0.00000
    111       9.7275      0.00000
    112       9.7275      0.00000
    113       9.9101      0.00000
    114       9.9135      0.00000
    115      10.0886      0.00000
    116      10.0894      0.00000
 Fermi energy:         7.7078742795

 spin component 2

[...]

 k-point    20 :      -0.3333    0.3333    0.5000
  band No.  band energies     occupation
      1      -7.3378      1.00000
      2      -7.3378      1.00000
      3      -7.2120      1.00000
      4      -7.2120      1.00000
      5      -6.4120      1.00000
      6      -6.4120      1.00000
      7      -6.1921      1.00000
      8      -6.1921      1.00000
      9      -4.9440      1.00000
     10      -4.9440      1.00000
     11      -3.9366      1.00000
     12      -3.9366      1.00000
     13      -3.7301      1.00000
     14      -3.7301      1.00000
     15      -2.8025      1.00000
     16      -2.8025      1.00000
     17      -2.0793      1.00000
     18      -2.0793      1.00000
     19      -2.0481      1.00000
     20      -2.0481      1.00000
     21      -2.0170      1.00000
     22      -2.0170      1.00000
     23      -1.8565      1.00000
     24      -1.8565      1.00000
     25      -1.1434      1.00000
     26      -1.1434      1.00000
     27      -0.9664      1.00000
     28      -0.9664      1.00000
     29      -0.6629      1.00000
     30      -0.6629      1.00000
     31      -0.6527      1.00000
     32      -0.6527      1.00000
     33      -0.0567      1.00000
     34      -0.0567      1.00000
     35       0.5168      1.00000
     36       0.5168      1.00000
     37       0.8174      1.00000
     38       0.8174      1.00000
     39       1.2887      1.00000
     40       1.2888      1.00000
     41       1.3518      1.00000
     42       1.3518      1.00000
     43       1.3636      1.00000
     44       1.3636      1.00000
     45       1.8493      1.00000
     46       1.8493      1.00000
     47       1.8611      1.00000
     48       1.8611      1.00000
     49       2.4080      1.00000
     50       2.4080      1.00000
     51       2.5419      1.00000
     52       2.5419      1.00000
     53       3.0925      1.00000
     54       3.0925      1.00000
     55       3.1943      1.00000
     56       3.1944      1.00000
     57       3.7677      1.00000
     58       3.7677      1.00000
     59       3.9639      1.00000
     60       3.9639      1.00000
[...]
    102       8.8390      0.00000
    103       8.9846      0.00000
    104       8.9846      0.00000
    105       9.0813      0.00000
    106       9.0813      0.00000
    107       9.3798      0.00000
    108       9.3798      0.00000
    109       9.4691      0.00000
    110       9.4691      0.00000
    111       9.7539      0.00000
    112       9.7539      0.00000
    113       9.9346      0.00000
    114       9.9360      0.00000
    115      10.1184      0.00000
    116      10.1196      0.00000

 soft charge-density along one line, spin component           1
         0         1         2         3         4         5         6         7         8         9
 total charge-density along one line

 soft charge-density along one line, spin component           2
         0         1         2         3         4         5         6         7         8         9
 total charge-density along one line

------------------------ aborting loop because EDIFF is reached ----------------------------------------

  FORCE on cell =-STRESS in cart. coord.  units (eV):
  Direction    XX          YY          ZZ          XY          YZ          ZX
  Alpha Z    96.83391    96.83391    96.83391
  Ewald   -2118.80746 -2118.80746  -604.31108  -957.99268     0.00032    -0.00055
  Hartree   340.12240   340.13332   164.80403  -208.37371    -0.00001     0.00001
  E(xc)    -675.42855  -675.43255  -696.48589     0.58872    -0.00000     0.00000
  Local   -1121.76837 -1121.88795 -1486.52094  1036.80422    -0.00017     0.00014
  n-local  2255.98904  2256.42306  2662.30540   -44.87634    -0.00499     0.00710
  augment  -345.52562  -345.51156  -298.49164    -3.71463     0.00000    -0.00002
  Kinetic  1697.85352  1697.16222  1697.38872    61.47912     0.00021     0.00021
  Fock        0.00000     0.00000     0.00000     0.00000     0.00000     0.00000
  Total     129.26885   128.91300  1535.52252  -116.08530     0.00000     0.00000
  in kB     258.58003   257.86821  3071.54781  -232.20862     0.00000     0.00000

 VOLUME and BASIS-vectors are now :
  energy-cutoff  :      700.00
  volume of cell :      800.96
      direct lattice vectors                 reciprocal lattice vectors
     5.431000233  0.000000000  0.000000000     0.184128145  0.092064073  0.000000000
    -5.431000233 10.862000465  0.000000000     0.000000000  0.092064073  0.000000000
     0.000000000  0.000000000 13.577501297     0.000000000  0.000000000  0.073651254

  length of vectors
     5.431000233 12.144085706 13.577501297     0.205861525  0.092064073  0.073651254

 FORCES acting on ions
    electron-ion (+dipol)            ewald-force                    non-local-force                 convergence-correction
   -.950E-06 -.335E-05 -.728E+02   -.980E-05 -.415E-04 0.870E+02   0.594E-18 -.116E-19 0.547E+02   -.132E-07 0.834E-06 0.264E-04
   -.393E-05 0.133E-05 -.195E+02   0.581E-05 0.174E-04 0.190E+02   0.857E-20 0.997E-20 0.165E+01   0.608E-08 0.826E-06 0.349E-03
   -.948E-05 -.476E-09 0.118E+03   0.180E-04 -.122E-05 -.134E+03   -.114E-18 -.106E-19 -.527E+02   -.605E-08 0.830E-06 -.461E-03
   -.502E-04 -.851E-04 -.118E+03   -.802E-05 -.400E-04 0.134E+03   0.347E-18 0.915E-20 0.527E+02   -.200E-08 0.293E-05 0.460E-03
   -.563E-04 -.450E-04 -.728E+02   0.320E-04 -.143E-03 0.870E+02   -.379E-18 0.180E-19 0.547E+02   -.251E-07 0.328E-05 0.309E-04
   -.941E-04 -.101E-03 0.728E+02   0.421E-04 0.393E-04 -.870E+02   0.975E-19 -.125E-19 -.547E+02   0.146E-07 -.288E-05 -.268E-04
   -.559E-04 0.356E-05 -.118E+03   -.387E-04 0.282E-04 0.134E+03   0.434E-18 0.828E-20 0.527E+02   0.847E-08 -.172E-05 0.460E-03
   -.941E-04 -.101E-03 0.728E+02   0.421E-04 0.393E-04 -.870E+02   -.241E-18 -.192E-19 -.547E+02   0.146E-07 -.288E-05 -.312E-04
   -.737E-04 -.850E-04 0.728E+02   -.180E-04 0.969E-04 -.870E+02   0.594E-18 -.203E-19 -.547E+02   0.275E-07 -.173E-05 -.267E-04
   -.563E-04 -.450E-04 -.728E+02   0.320E-04 -.143E-03 0.870E+02   0.545E-18 0.230E-19 0.547E+02   -.251E-07 0.328E-05 0.264E-04
   -.371E-05 0.757E-06 0.195E+02   0.932E-05 0.110E-04 -.190E+02   0.211E-18 -.112E-19 -.165E+01   -.873E-08 0.167E-05 -.350E-03
   -.903E-04 0.365E-05 0.118E+03   0.341E-04 0.176E-04 -.134E+03   -.331E-18 0.321E-20 -.527E+02   0.656E-08 -.323E-05 -.461E-03
   -.121E-04 -.126E-04 -.728E+02   -.448E-04 -.259E-04 0.870E+02   0.514E-18 0.143E-19 0.547E+02   0.385E-07 -.324E-05 0.264E-04
   -.361E-05 0.212E-05 -.195E+02   0.115E-04 0.274E-04 0.190E+02   -.211E-18 0.775E-20 0.165E+01   -.906E-08 -.322E-05 0.349E-03
   -.740E-04 -.841E-04 0.728E+02   -.239E-04 0.104E-03 -.870E+02   0.558E-18 -.188E-19 -.547E+02   -.496E-08 0.167E-05 -.268E-04
   0.421E-05 0.613E-06 -.118E+03   -.614E-04 0.117E-04 0.134E+03   0.155E-18 0.894E-20 0.527E+02   0.988E-08 0.167E-05 0.460E-03
   -.166E-05 -.350E-04 -.195E+02   0.235E-05 -.468E-04 0.190E+02   -.407E-18 -.521E-20 0.165E+01   -.439E-08 0.325E-05 0.349E-03
   -.450E-04 -.866E-04 0.118E+03   0.490E-04 -.564E-04 -.134E+03   0.267E-18 0.284E-20 -.527E+02   0.988E-08 0.327E-05 -.461E-03
   -.328E-04 -.407E-04 -.118E+03   -.240E-04 0.301E-05 0.134E+03   -.537E-19 0.993E-20 0.527E+02   -.134E-07 -.287E-05 0.460E-03
   -.280E-04 -.131E-04 0.195E+02   -.169E-04 0.122E-04 -.190E+02   -.224E-18 -.119E-19 -.165E+01   0.108E-07 -.286E-05 -.350E-03
   -.988E-05 0.823E-06 0.118E+03   0.136E-04 0.105E-04 -.134E+03   -.105E-18 0.334E-20 -.527E+02   -.858E-08 -.867E-06 -.461E-03
   -.735E-05 -.124E-04 -.728E+02   0.107E-04 -.236E-04 0.870E+02   0.540E-18 0.211E-19 0.547E+02   0.156E-08 -.871E-06 0.265E-04
   -.183E-04 -.337E-04 0.195E+02   -.115E-04 -.440E-04 -.190E+02   -.550E-19 -.109E-19 -.165E+01   0.748E-08 0.292E-05 -.350E-03
   -.122E-03 -.116E-03 0.728E+02   0.131E-04 -.800E-05 -.870E+02   0.619E-18 -.211E-19 -.547E+02   -.334E-07 0.294E-05 -.267E-04
   -.735E-05 -.124E-04 -.728E+02   0.107E-04 -.236E-04 0.870E+02   -.395E-18 0.163E-19 0.547E+02   0.156E-08 -.871E-06 0.309E-04
   -.422E-05 0.118E-05 -.195E+02   0.257E-05 0.140E-04 0.190E+02   -.385E-18 0.127E-19 0.165E+01   0.629E-08 -.864E-06 0.352E-03
   -.988E-05 0.823E-06 0.118E+03   0.136E-04 0.105E-04 -.134E+03   -.417E-18 0.338E-20 -.527E+02   -.858E-08 -.867E-06 -.464E-03
   -.950E-06 -.335E-05 -.728E+02   -.980E-05 -.415E-04 0.870E+02   -.411E-18 0.226E-19 0.547E+02   -.132E-07 0.834E-06 0.309E-04
   -.393E-05 0.133E-05 -.195E+02   0.581E-05 0.174E-04 0.190E+02   -.167E-18 0.111E-19 0.165E+01   0.608E-08 0.826E-06 0.352E-03
   -.948E-05 -.478E-09 0.118E+03   0.180E-04 -.122E-05 -.134E+03   -.417E-18 0.334E-20 -.527E+02   -.605E-08 0.830E-06 -.464E-03
   -.502E-04 -.851E-04 -.118E+03   -.802E-05 -.400E-04 0.134E+03   -.719E-18 0.883E-20 0.527E+02   -.200E-08 0.293E-05 0.465E-03
   -.183E-04 -.337E-04 0.195E+02   -.115E-04 -.440E-04 -.190E+02   -.302E-18 -.721E-20 -.165E+01   0.748E-08 0.292E-05 -.350E-03
   -.122E-03 -.116E-03 0.728E+02   0.131E-04 -.800E-05 -.870E+02   -.294E-18 -.141E-19 -.547E+02   -.334E-07 0.294E-05 -.312E-04
   -.328E-04 -.407E-04 -.118E+03   -.240E-04 0.301E-05 0.134E+03   -.657E-18 0.101E-19 0.527E+02   -.134E-07 -.287E-05 0.465E-03
   -.280E-04 -.131E-04 0.195E+02   -.169E-04 0.122E-04 -.190E+02   0.167E-18 0.388E-20 -.165E+01   0.108E-07 -.286E-05 -.350E-03
   -.361E-05 0.262E-05 0.195E+02   0.127E-04 0.368E-04 -.190E+02   0.108E-18 -.108E-19 -.165E+01   -.111E-07 -.172E-05 -.350E-03
   -.422E-05 0.118E-05 -.195E+02   0.257E-05 0.140E-04 0.190E+02   -.126E-18 0.584E-20 0.165E+01   0.629E-08 -.864E-06 0.349E-03
   -.166E-05 -.350E-04 -.195E+02   0.235E-05 -.468E-04 0.190E+02   -.389E-18 0.111E-19 0.165E+01   -.439E-08 0.325E-05 0.352E-03
   -.450E-04 -.866E-04 0.118E+03   0.490E-04 -.564E-04 -.134E+03   -.835E-18 0.665E-20 -.527E+02   0.988E-08 0.327E-05 -.464E-03
   -.121E-04 -.126E-04 -.728E+02   -.448E-04 -.259E-04 0.870E+02   -.365E-18 0.200E-19 0.547E+02   0.385E-07 -.324E-05 0.309E-04
   -.361E-05 0.212E-05 -.195E+02   0.115E-04 0.274E-04 0.190E+02   -.140E-18 0.950E-20 0.165E+01   -.906E-08 -.322E-05 0.352E-03
   -.903E-04 0.365E-05 0.118E+03   0.341E-04 0.176E-04 -.134E+03   -.421E-18 0.381E-20 -.527E+02   0.656E-08 -.323E-05 -.464E-03
   0.421E-05 0.613E-06 -.118E+03   -.614E-04 0.117E-04 0.134E+03   -.631E-19 0.814E-20 0.527E+02   0.988E-08 0.167E-05 0.465E-03
   -.371E-05 0.757E-06 0.195E+02   0.932E-05 0.110E-04 -.190E+02   -.337E-18 0.622E-20 -.165E+01   -.873E-08 0.167E-05 -.350E-03
   -.740E-04 -.841E-04 0.728E+02   -.239E-04 0.104E-03 -.870E+02   -.292E-18 -.186E-19 -.547E+02   -.496E-08 0.167E-05 -.312E-04
   -.559E-04 0.356E-05 -.118E+03   -.387E-04 0.282E-04 0.134E+03   0.131E-18 0.829E-20 0.527E+02   0.847E-08 -.172E-05 0.465E-03
   -.361E-05 0.262E-05 0.195E+02   0.127E-04 0.368E-04 -.190E+02   -.690E-19 0.413E-20 -.165E+01   -.111E-07 -.172E-05 -.350E-03
   -.737E-04 -.850E-04 0.728E+02   -.180E-04 0.969E-04 -.870E+02   -.344E-18 -.130E-19 -.547E+02   0.275E-07 -.173E-05 -.312E-04
   -.159E-02 -.148E-02 -.286E-02   -.129E-13 -.544E-13 -.114E-12   -.377E-17 0.986E-19 0.782E-13   0.149E-07 0.140E-07 -.128E-05

 POSITION                                       TOTAL-FORCE (eV/Angst)
      0.09665      0.00000      0.00000        -0.000000      0.000000     68.928876
      2.81215      0.00000      2.71550        -0.000000      0.000000      1.104047
      0.09665      0.00000      5.43100         0.000000      0.000000    -68.004663
     -3.97660      9.50425      1.35775         0.000000     -0.000000     68.004663
     -2.61885      8.14650      6.78875         0.000000      0.000000     68.928876
      1.45441      4.07325      6.78875         0.000000      0.000000    -68.928876
      4.16991      1.35775      1.35775        -0.000000     -0.000000     68.004663
      1.45441      4.07325      0.00000        -0.000000     -0.000000    -68.928876
      4.16991      1.35775      6.78875         0.000000      0.000000    -68.928876
     -2.61885      8.14650      0.00000        -0.000000      0.000000     68.928876
      1.45440      6.78875      4.07325         0.000000     -0.000000     -1.104047
      2.81216      2.71550      5.43100        -0.000000     -0.000000    -68.004663
      2.81215      2.71550      0.00000         0.000000      0.000000     68.928876
      0.09665      2.71550      2.71550         0.000000     -0.000000      1.104047
     -1.26109      6.78875      6.78875         0.000000      0.000000    -68.928876
     -1.26110      6.78875      1.35775        -0.000000      0.000000     68.004663
      0.09665      8.14650      2.71550        -0.000000     -0.000000      1.104047
     -2.61884      8.14650      5.43100        -0.000000      0.000000    -68.004663
      1.45441      4.07325      1.35775        -0.000000     -0.000000     68.004663
     -1.26109      4.07325      4.07325        -0.000000     -0.000000     -1.104047
      0.09665      5.43100      5.43100         0.000000      0.000000    -68.004663
      0.09665      5.43100      0.00000         0.000000      0.000000     68.928876
     -1.26109      9.50425      4.07325         0.000000      0.000000     -1.104047
     -3.97660      9.50425      6.78875         0.000000      0.000000    -68.928876
      0.09665      5.43100      6.78875         0.000000     -0.000000     68.928876
     -2.61885      5.43100      9.50425        -0.000000     -0.000000      1.104047
      0.09665      5.43100     12.21975         0.000000      0.000000    -68.004663
      0.09665      0.00000      6.78875         0.000000     -0.000000     68.928876
      2.81215      0.00000      9.50425        -0.000000     -0.000000      1.104047
      0.09665      0.00000     12.21975        -0.000000      0.000000    -68.004663
     -3.97660      9.50425      8.14650        -0.000000     -0.000000     68.004663
     -1.26109      9.50425     10.86200        -0.000000      0.000000     -1.104047
     -3.97660      9.50425      0.00000        -0.000000     -0.000000    -68.928876
      1.45441      4.07325      8.14650        -0.000000      0.000000     68.004663
     -1.26109      4.07325     10.86200        -0.000000      0.000000     -1.104047
      1.45440      1.35775      4.07325         0.000000      0.000000     -1.104047
     -2.61885      5.43100      2.71550         0.000000     -0.000000      1.104047
      0.09665      8.14650      9.50425         0.000000     -0.000000      1.104047
     -2.61884      8.14650     12.21975        -0.000000      0.000000    -68.004663
      2.81215      2.71550      6.78875         0.000000     -0.000000     68.928876
      0.09665      2.71550      9.50425         0.000000     -0.000000      1.104047
      2.81216      2.71550     12.21975         0.000000     -0.000000    -68.004663
     -1.26110      6.78875      8.14650        -0.000000      0.000000     68.004663
      1.45440      6.78875     10.86200        -0.000000      0.000000     -1.104047
     -1.26109      6.78875      0.00000         0.000000      0.000000    -68.928876
      4.16991      1.35775      8.14650        -0.000000      0.000000     68.004663
      1.45440      1.35775     10.86200        -0.000000      0.000000     -1.104047
      4.16991      1.35775      0.00000         0.000000     -0.000000    -68.928876
    total drift:                               -0.001594     -0.001475     -0.002857

  FREE ENERGIE OF THE ION-ELECTRON SYSTEM (eV)
  free  energy   TOTEN  =        78.26623036 eV

  energy  without entropy=       78.26737536  energy(sigma->0) =       78.26680286