 vasp.6.4.3 19Mar24 (build Oct 22 2024 11:23:12) complex

 executed on             LinuxIFC date 2025.06.04  00:06:58

 INCAR:
   SYSTEM = Si and Ge interface calculation
   ISTART = 0
   ICHARG = 2
   LWAVE = .FALSE.
   LREAL = AUTO
   ENCUT = 700
   ENAUG = 900
   ADDGRID = .TRUE.
   LMAXMIX = 6
   LASPH = .TRUE.
   LMIXTAU = .TRUE.
   NCORE = 16
   NELM = 100
   NBANDS = 116
   EDIFF = 1d-7
   AMIX = 0.6
   ISMEAR = 0
   SIGMA = 0.01
   NELECT = 192
   ISPIN = 2
   NUPDOWN = 1
   LVTOT = .FALSE.
   LVHAR = .TRUE.

 POTCAR:    PAW_PBE Ge 05Jan2001
|           W    W    AA    RRRRR   N    N  II  N    N   GGGG   !!!           |
|           W    W   A  A   R    R  NN   N  II  NN   N  G    G  !!!           |
|           W    W  A    A  R    R  N N  N  II  N N  N  G       !!!           |
|           W WW W  AAAAAA  RRRRR   N  N N  II  N  N N  G  GGG   !            |
|           WW  WW  A    A  R   R   N   NN  II  N   NN  G    G                |
|           W    W  A    A  R    R  N    N  II  N    N   GGGG   !!!           |
|     You use a magnetic or noncollinear calculation, but did not specify     |
|     the initial magnetic moment with the MAGMOM tag. Note that a            |
|     default of 0.021 will be used for all atoms. This ferromagnetic         |
|     setup may break the symmetry of the crystal, in particular it may       |
|     rule out finding an antiferromagnetic solution. Thence, we              |
|     recommend setting the initial magnetic moment manually or verifying     |
|     carefully that this magnetic setup is desired.                          |

 POTCAR:    PAW_PBE Ge 05Jan2001
   VRHFIN =Ge: s2p2

   TITEL  = PAW_PBE Ge 05Jan2001
   POMASS =   72.610; ZVAL   =    4.000    mass and valenz
   ENMAX  =  173.807; ENMIN  =  130.355 eV

 Optimization of the real space projectors (new method)

 maximal supplied QI-value         = 16.25
 optimisation between [QCUT,QGAM] = [ 13.49, 26.98] = [ 50.95,203.80] Ry
 Optimized for a Real-space Cutoff    1.25 Angstroem

   l    n(q)    QCUT    max X(q) W(low)/X(q) W(high)/X(q)  e(spline)
   0     10    13.489    65.336    0.91E-04    0.11E-03    0.34E-06
   0     10    13.489    52.220    0.89E-04    0.11E-03    0.34E-06
   1     10    13.489    36.409    0.22E-03    0.27E-03    0.14E-06
   1     10    13.489    21.334    0.21E-03    0.27E-03    0.14E-06
   2      9    13.489     4.673    0.11E-03    0.12E-03    0.19E-06
  PAW_PBE Ge 05Jan2001                  :

 POSCAR: Ge+Ge
  positions in direct lattice

 exchange-correlation table for PE
   RHO(1)=    0.500       N(1)  =     2000
   RHO(2)=  100.500       N(2)  =     4000

 ion  position               nearest neighbor table
   1  0.345  0.672  0.000-  48 1.75  13 2.45  28 2.45  42 2.53  39 2.54
   2  0.678  0.839  0.244-  14 2.45  13 2.45  34 2.45  29 2.45
   3  0.011  0.006  0.487-  35 2.45  30 2.45  15 2.45  14 2.45
   4  0.011  0.006  0.000-  10 2.45  34 2.45
   5  0.345  0.172  0.244-  31 2.45  11 2.45  10 2.45  35 2.45
   6  0.678  0.339  0.487-  32 2.45  12 2.45  11 2.45  36 2.45
   7  0.678  0.339  0.000-  16 2.45  31 2.45  41 2.58  45 2.85
   8  0.011  0.506  0.244-  32 2.45  28 2.45  16 2.45  17 2.45
   9  0.345  0.672  0.487-  29 2.45  18 2.45  17 2.45  33 2.45
  10  0.095  0.922  0.122-  23 2.45   4 2.45   5 2.45  19 2.45
  11  0.428  0.089  0.365-  24 2.45   5 2.45  20 2.45   6 2.45
  12  0.761  0.256  0.609-   6 2.45  21 2.45  41 2.45
  13  0.428  0.589  0.122-   1 2.45   2 2.45  26 2.45  22 2.45
  14  0.761  0.756  0.365-   2 2.45  23 2.45  27 2.45   3 2.45
  15  0.095  0.922  0.609-  37 2.38  40 2.39   3 2.45  24 2.45  43 2.57
  16  0.761  0.256  0.122-   7 2.45  20 2.45   8 2.45  25 2.45  45 2.58
  17  0.095  0.422  0.365-  26 2.45   9 2.45  21 2.45   8 2.45
  18  0.428  0.589  0.609-   9 2.45  27 2.45  46 2.51
  19  0.178  0.839  0.000-  28 2.45  10 2.45  38 2.58  48 2.85
  20  0.511  0.006  0.244-  16 2.45  28 2.45  29 2.45  11 2.45
  21  0.845  0.172  0.487-  29 2.45  30 2.45  17 2.45  12 2.45
  22  0.511  0.506  0.000-  13 2.45  31 2.45
  23  0.845  0.672  0.244-  14 2.45  10 2.45  31 2.45  32 2.45
  24  0.178  0.839  0.487-  11 2.45  32 2.45  33 2.45  15 2.45
  25  0.845  0.172  0.000-  45 1.75  34 2.45  16 2.45  39 2.53  42 2.54
  26  0.178  0.339  0.244-  17 2.45  13 2.45  35 2.45  34 2.45
  27  0.511  0.506  0.487-  14 2.45  35 2.45  36 2.45  18 2.45
  28  0.261  0.756  0.122-   1 2.45  19 2.45   8 2.45  20 2.45  48 2.58
  29  0.595  0.922  0.365-   9 2.45  21 2.45   2 2.45  20 2.45
  30  0.928  0.089  0.609-  21 2.45   3 2.45  43 2.51
  31  0.595  0.422  0.122-   5 2.45  23 2.45   7 2.45  22 2.45
  32  0.928  0.589  0.365-   8 2.45   6 2.45  24 2.45  23 2.45
  33  0.261  0.756  0.609-  24 2.45   9 2.45  38 2.45
  34  0.928  0.089  0.122-  25 2.45  26 2.45   2 2.45   4 2.45
  35  0.261  0.256  0.365-  26 2.45   3 2.45  27 2.45   5 2.45
  36  0.595  0.422  0.609-  40 2.38  37 2.39  27 2.45   6 2.45  46 2.57
  37  0.315  0.201  0.703-  15 2.38  36 2.39  46 2.45  47 2.45  43 2.45
  38  0.204  0.812  0.784-  47 2.45  48 2.45  44 2.45  33 2.45  19 2.58
  39  0.093  0.423  0.865-  48 2.45  45 2.45  25 2.53   1 2.54
  40  0.815  0.701  0.703-  36 2.38  15 2.39  46 2.45  43 2.45  44 2.45
  41  0.704  0.312  0.784-  45 2.45  47 2.45  44 2.45  12 2.45   7 2.58
  42  0.593  0.923  0.865-  48 2.45  45 2.45   1 2.53  25 2.54
  43  0.009  0.006  0.744-  40 2.45  37 2.45  30 2.51  15 2.57
  44  0.898  0.618  0.825-  41 2.45  40 2.45  38 2.45
  45  0.787  0.229  0.906-  25 1.75  41 2.45  42 2.45  39 2.45  16 2.58   7 2.85
  46  0.509  0.506  0.744-  37 2.45  40 2.45  18 2.51  36 2.57
  47  0.398  0.118  0.825-  41 2.45  38 2.45  37 2.45
  48  0.287  0.729  0.906-   1 1.75  39 2.45  42 2.45  38 2.45  28 2.58  19 2.85

  LATTYP: Found a base centered orthorhombic cell.
 ALAT       =     8.0013375965
 B/A-ratio  =     3.0000001508
 C/A-ratio  =     1.4512253466

  Lattice vectors:

 A1 = (  12.6512260440,   0.0000000000,   0.0000000000)
 A2 = ( -10.1209812160,   7.5907354350,   0.0000000000)
 A3 = (   0.0000000000,   0.0000000000,  11.6117439270)

Analysis of symmetry for initial positions (statically):
 Subroutine PRICEL returns following result:

  LATTYP: Found a simple orthorhombic cell.
 ALAT       =     4.0006688343
 B/A-ratio  =     2.9024506671
 C/A-ratio  =     3.0000000188

[...]

   2 primitive cells build up your supercell.

 Routine SETGRP: Setting up the symmetry group for a
 base centered orthorhombic supercell.

 Subroutine GETGRP returns: Found  1 space group operations
 (whereof  1 operations were pure point group operations)
 out of a pool of  8 trial point group operations.

The static configuration has the point symmetry C_1 .

Analysis of symmetry for dynamics (positions and initial velocities):
 Subroutine PRICEL returns following result:

[...]

The dynamic configuration has the point symmetry C_1 .

Analysis of structural, dynamic, and magnetic symmetry:
 Subroutine PRICEL returns following result:

  LATTYP: Found a simple orthorhombic cell.
 ALAT       =     4.0006688343
 B/A-ratio  =     2.9024506671
 C/A-ratio  =     3.0000000188

  Lattice vectors:

 A1 = (  -1.2651220269,  -3.7953678845,   0.0000000000)
 A2 = (   0.0000000000,   0.0000000000,  11.6117439270)
 A3 = ( -11.3861032429,   3.7953675505,   0.0000000000)

   2 primitive cells build up your supercell.

 Routine SETGRP: Setting up the symmetry group for a
 base centered orthorhombic supercell.

 Subroutine GETGRP returns: Found  1 space group operations
 (whereof  1 operations were pure point group operations)
 out of a pool of  8 trial point group operations.

The overall configuration has the point symmetry C_1 .

 Subroutine INISYM returns: Found  1 space group operations
 (whereof  1 operations are pure point group operations),
 and found     2 'primitive' translations

                                     Primitive cell

  volume of cell :     557.5501

  direct lattice vectors                    reciprocal lattice vectors
    -1.265122027 -3.795367884  0.000000000    -0.079043721 -0.237131175  0.000000000
     0.000000000  0.000000000 11.611743927     0.000000000  0.000000000  0.086119708
   -11.386103243  3.795367551  0.000000000    -0.079043728  0.026347897  0.000000000

  length of vectors
     4.000668834 11.611743927 12.002006578     0.249958205  0.086119708  0.083319401

  position of ions in fractional coordinates (direct lattice)
     0.982916600  0.000000000  0.327638840
     0.482916448  0.243624046  0.160972255
     0.982916364  0.487248123  0.994305575
     0.982916542  0.000000000  0.994305515
     0.482916450  0.243624046  0.827638870
     0.982916418  0.487248123  0.660972285
     0.982916730  0.000000000  0.660972121
     0.482916593  0.243624046  0.494305610
     0.982916302  0.487248123  0.327638900
     0.982916596  0.121812023  0.827638857
     0.482916431  0.365436077  0.660972113
     0.982916360  0.609060228  0.494305593
     0.982916482  0.121812023  0.160972208
     0.482916360  0.365436077  0.994305593
     0.982916277  0.609060228  0.827638912
     0.982916598  0.121812023  0.494305473
     0.482916387  0.365436077  0.327638828
     0.982916423  0.609060228  0.160972267
     0.484276607  0.703020036  0.886160257
     0.984276596  0.784228086  0.608382390
     0.484276843  0.865436137  0.330604691
     0.984276661  0.743624091  0.997271382
     0.484276719  0.824832141  0.719493540
     0.984276836  0.906040192  0.441715637

  ion indices of the primitive-cell ions
   primitive index   ion index
                 1           1
                 2          26
                 3          27
                 4          22
                 5           5
                 6          24
                 7          19
                 8           8
                 9           9
                10          10
                11          32
                12          33
                13          13
                14          35
                15          36
                16          28
                17          17
                18          18
                19          40
                20          38
                21          42
                22          46
                23          47
                24          48

 KPOINTS: Automatic KPOINTS generated

Automatic generation of k-mesh.
 Grid dimensions read from file:
 generate k-points for:    4    4    3

 Generating k-lattice:

  Cartesian coordinates                     Fractional coordinates (reciprocal lattice)
     0.019760931  0.026347909  0.000000000     0.250000000  0.000000000  0.000000000
     0.000000000  0.032934885  0.000000000     0.000000000  0.250000000  0.000000000
     0.000000000  0.000000000  0.028706569     0.000000000  0.000000000  0.333333333

  Length of vectors
     0.032934886  0.032934885  0.028706569

  Shift w.r.t. Gamma in fractional coordinates (k-lattice)
     0.000000000  0.000000000  0.000000000

 Subroutine IBZKPT returns following result:

 Found     26 irreducible k-points:

 Following reciprocal coordinates:
            Coordinates               Weight
  0.000000  0.000000  0.000000      1.000000
  0.250000  0.000000  0.000000      2.000000
[...]
     42      -2.7077      1.00000
     43      -2.3575      1.00000
     44      -2.0058      1.00000
     45      -1.9092      1.00000
     46      -1.5467      1.00000
     47      -1.1398      1.00000
     48      -0.9400      1.00000
     49      -0.6905      1.00000
     50      -0.6787      1.00000
     51      -0.6103      1.00000
     52      -0.5412      1.00000
     53      -0.4482      1.00000
     54      -0.4110      1.00000
     55      -0.4034      1.00000
     56      -0.3288      1.00000
     57      -0.2103      1.00000
     58      -0.1690      1.00000
     59      -0.1665      1.00000
     60       0.0523      1.00000
[...]
    102       4.2654      0.00000
    103       4.2975      0.00000
    104       4.4448      0.00000
    105       4.4968      0.00000
    106       4.6350      0.00000
    107       4.6504      0.00000
    108       4.6798      0.00000
    109       4.7072      0.00000
    110       4.8311      0.00000
    111       4.9953      0.00000
    112       5.0410      0.00000
    113       5.1269      0.00000
    114       5.1572      0.00000
    115       5.2147      0.00000
    116       5.3606      0.00000
 Fermi energy:         3.4626756086

 spin component 2

[...]

 k-point    26 :       0.5000    0.5000    0.3333
  band No.  band energies     occupation
      1     -11.2715      1.00000
      2     -10.4500      1.00000
      3      -9.8274      1.00000
      4      -8.7457      1.00000
      5      -8.6584      1.00000
      6      -8.2850      1.00000
      7      -8.2616      1.00000
      8      -7.5413      1.00000
      9      -7.4037      1.00000
     10      -7.3727      1.00000
     11      -7.3095      1.00000
     12      -7.2861      1.00000
     13      -7.1455      1.00000
     14      -6.9684      1.00000
     15      -6.8655      1.00000
     16      -6.5035      1.00000
     17      -6.4109      1.00000
     18      -6.3637      1.00000
     19      -6.3422      1.00000
     20      -6.1463      1.00000
     21      -6.0880      1.00000
     22      -5.9436      1.00000
     23      -5.9257      1.00000
     24      -5.4633      1.00000
     25      -5.4585      1.00000
     26      -5.0956      1.00000
     27      -4.9224      1.00000
     28      -4.8346      1.00000
     29      -4.4374      1.00000
     30      -4.3141      1.00000
     31      -4.2770      1.00000
     32      -4.2083      1.00000
     33      -4.0938      1.00000
     34      -3.9945      1.00000
     35      -3.8613      1.00000
     36      -3.6798      1.00000
     37      -3.5978      1.00000
     38      -3.5581      1.00000
     39      -3.2394      1.00000
     40      -3.1682      1.00000
     41      -2.7395      1.00000
     42      -2.6925      1.00000
     43      -2.3427      1.00000
     44      -1.9877      1.00000
     45      -1.8931      1.00000
     46      -1.5259      1.00000
     47      -1.1220      1.00000
     48      -0.9270      1.00000
     49      -0.6658      1.00000
     50      -0.6578      1.00000
     51      -0.5954      1.00000
     52      -0.5218      1.00000
     53      -0.4293      1.00000
     54      -0.3946      1.00000
     55      -0.3672      1.00000
     56      -0.3111      1.00000
     57      -0.1880      1.00000
     58      -0.1550      1.00000
     59      -0.1516      1.00000
     60       0.0699      1.00000
[...]
    102       4.2942      0.00000
    103       4.3332      0.00000
    104       4.4622      0.00000
    105       4.5167      0.00000
    106       4.6654      0.00000
    107       4.6749      0.00000
    108       4.6992      0.00000
    109       4.7212      0.00000
    110       4.8461      0.00000
    111       5.0083      0.00000
    112       5.0613      0.00000
    113       5.1733      0.00000
    114       5.1753      0.00000
    115       5.2328      0.00000
    116       5.3727      0.00000

 soft charge-density along one line, spin component           1
         0         1         2         3         4         5         6         7         8         9
 total charge-density along one line

 soft charge-density along one line, spin component           2
         0         1         2         3         4         5         6         7         8         9
 total charge-density along one line

------------------------ aborting loop because EDIFF is reached ----------------------------------------

  FORCE on cell =-STRESS in cart. coord.  units (eV):
  Direction    XX          YY          ZZ          XY          YZ          ZX
  Alpha Z   394.91413   394.91413   394.91413
  Ewald   -1593.30925 -1662.82393 -1672.76041   -26.00038   -76.73931   230.84009
  Hartree   160.78158   276.82470   173.60877    43.51822   -43.44703   130.33906
  E(xc)    -666.31827  -662.78809  -663.29746     1.32171     0.44657    -1.35574
  Local    -709.30692  -782.02978  -648.71921   -27.22752   114.07373  -342.35165
  n-local   986.85353   953.30328   962.97388   -12.54993    -4.65380    14.06294
  augment    62.20649    60.40825    62.15154    -0.65830    -0.73737     2.26454
  Kinetic  1464.37922  1472.01812  1478.53295     2.97189     2.60134    -7.81636
  Fock        0.00000     0.00000     0.00000     0.00000     0.00000     0.00000
  Total     100.20053    49.82667    87.40419   -18.62430    -8.45586    25.98288
  in kB     143.96823    71.59102   125.58244   -26.75942   -12.14939    37.33223

 VOLUME and BASIS-vectors are now :
  energy-cutoff  :      700.00
  volume of cell :     1115.10
      direct lattice vectors                 reciprocal lattice vectors
    12.651226044  0.000000000  0.000000000     0.079043722  0.105391637  0.000000000
   -10.120981216  7.590735435  0.000000000     0.000000000  0.131739541  0.000000000
     0.000000000  0.000000000 11.611743927     0.000000000  0.000000000  0.086119708

  length of vectors
    12.651226044 12.651226234 11.611743927     0.131739543  0.131739541  0.086119708

 FORCES acting on ions
    electron-ion (+dipol)            ewald-force                    non-local-force                 convergence-correction
   -.628E+02 0.210E+02 -.114E+02   0.719E+02 -.240E+02 0.183E+02   0.917E+01 -.303E+01 0.846E+01   0.202E-03 -.681E-04 -.292E-04
   -.385E+01 0.128E+01 0.607E+01   0.375E+01 -.125E+01 -.591E+01   -.396E-01 0.147E-01 -.817E-01   -.936E-05 0.784E-05 -.108E-03
   0.189E+02 -.631E+01 0.104E+02   -.195E+02 0.650E+01 -.104E+02   0.151E+00 -.528E-01 -.693E+00   -.249E-03 0.801E-04 -.164E-03
   0.132E+02 -.440E+01 0.271E+02   -.130E+02 0.435E+01 -.287E+02   -.212E+00 0.633E-01 0.306E+00   -.187E-03 0.623E-04 0.307E-04
   0.738E+01 -.246E+01 0.103E+02   -.744E+01 0.248E+01 -.102E+02   0.399E-01 -.102E-01 -.120E+00   -.113E-03 0.358E-04 -.162E-03
   -.107E+02 0.358E+01 0.285E+01   0.115E+02 -.382E+01 -.263E+01   -.225E+00 0.719E-01 -.398E+00   0.220E-03 -.707E-04 -.179E-05
   0.226E+02 -.751E+01 -.111E+02   -.239E+02 0.795E+01 0.106E+02   0.555E-01 -.144E-01 0.626E+00   -.462E-04 0.155E-04 -.164E-03
   -.335E+01 0.112E+01 -.825E+01   0.341E+01 -.114E+01 0.902E+01   0.247E-01 -.325E-02 -.593E+00   0.112E-03 -.381E-04 -.664E-04
   -.574E+01 0.191E+01 -.225E+02   0.565E+01 -.188E+01 0.225E+02   -.650E-01 0.192E-01 0.126E+00   0.467E-04 -.134E-04 0.334E-04
   0.146E+02 -.488E+01 0.121E+02   -.147E+02 0.489E+01 -.121E+02   -.225E+00 0.788E-01 0.235E+00   -.895E-04 0.285E-04 -.152E-03
   -.439E+01 0.146E+01 -.351E+00   0.379E+01 -.126E+01 0.412E+00   0.349E+00 -.114E+00 -.154E+00   0.727E-04 -.240E-04 -.105E-03
   -.323E+02 0.107E+02 -.434E+01   0.321E+02 -.107E+02 0.482E+01   0.384E+00 -.129E+00 -.793E+00   0.125E-03 -.415E-04 0.112E-03
   -.119E+02 0.397E+01 0.181E+02   0.131E+02 -.438E+01 -.178E+02   -.945E+00 0.320E+00 -.178E+00   0.534E-04 -.191E-04 -.739E-04
   0.968E+01 -.323E+01 0.726E+01   -.928E+01 0.309E+01 -.719E+01   -.244E+00 0.827E-01 -.179E+00   -.193E-03 0.678E-04 -.224E-03
   -.141E+02 0.492E+01 0.105E+02   0.149E+02 -.518E+01 -.110E+02   0.102E+01 -.370E+00 -.138E+01   0.204E-04 -.119E-04 0.724E-04
   0.152E+01 -.533E+00 -.207E+02   -.241E+01 0.834E+00 0.222E+02   0.154E+00 -.460E-01 0.445E-01   0.230E-04 -.830E-05 -.642E-05
   -.488E+01 0.163E+01 -.135E+02   0.515E+01 -.172E+01 0.134E+02   -.194E+00 0.640E-01 0.138E+00   0.123E-03 -.457E-04 -.343E-04
   0.319E+02 -.106E+02 -.334E+02   -.320E+02 0.107E+02 0.342E+02   -.829E-01 0.209E-01 -.300E+00   -.160E-03 0.544E-04 0.813E-04
   0.226E+02 -.751E+01 -.111E+02   -.239E+02 0.795E+01 0.106E+02   0.555E-01 -.144E-01 0.626E+00   -.484E-04 0.160E-04 -.161E-03
   -.335E+01 0.112E+01 -.825E+01   0.341E+01 -.114E+01 0.902E+01   0.247E-01 -.325E-02 -.593E+00   0.116E-03 -.381E-04 -.658E-04
   -.574E+01 0.191E+01 -.225E+02   0.565E+01 -.188E+01 0.225E+02   -.650E-01 0.192E-01 0.126E+00   0.460E-04 -.178E-04 0.373E-04
   0.132E+02 -.440E+01 0.271E+02   -.130E+02 0.435E+01 -.287E+02   -.212E+00 0.633E-01 0.306E+00   -.185E-03 0.617E-04 0.294E-04
   0.738E+01 -.246E+01 0.103E+02   -.744E+01 0.248E+01 -.102E+02   0.399E-01 -.102E-01 -.120E+00   -.110E-03 0.388E-04 -.160E-03
   -.107E+02 0.358E+01 0.285E+01   0.115E+02 -.382E+01 -.263E+01   -.225E+00 0.719E-01 -.398E+00   0.214E-03 -.744E-04 -.383E-05
   -.628E+02 0.210E+02 -.114E+02   0.719E+02 -.240E+02 0.183E+02   0.917E+01 -.303E+01 0.846E+01   0.205E-03 -.671E-04 -.326E-04
   -.385E+01 0.128E+01 0.607E+01   0.375E+01 -.125E+01 -.591E+01   -.396E-01 0.147E-01 -.817E-01   -.103E-04 -.125E-05 -.110E-03
   0.189E+02 -.631E+01 0.104E+02   -.195E+02 0.650E+01 -.104E+02   0.151E+00 -.528E-01 -.693E+00   -.244E-03 0.837E-04 -.167E-03
   0.152E+01 -.533E+00 -.207E+02   -.241E+01 0.834E+00 0.222E+02   0.154E+00 -.460E-01 0.445E-01   0.204E-04 -.584E-05 -.580E-05
   -.488E+01 0.163E+01 -.135E+02   0.515E+01 -.172E+01 0.134E+02   -.194E+00 0.640E-01 0.138E+00   0.124E-03 -.367E-04 -.337E-04
   0.319E+02 -.106E+02 -.334E+02   -.320E+02 0.107E+02 0.342E+02   -.829E-01 0.209E-01 -.300E+00   -.163E-03 0.525E-04 0.817E-04
   0.146E+02 -.488E+01 0.121E+02   -.147E+02 0.489E+01 -.121E+02   -.225E+00 0.788E-01 0.235E+00   -.869E-04 0.301E-04 -.150E-03
   -.439E+01 0.146E+01 -.351E+00   0.379E+01 -.126E+01 0.412E+00   0.349E+00 -.114E+00 -.154E+00   0.702E-04 -.232E-04 -.104E-03
   -.323E+02 0.107E+02 -.434E+01   0.321E+02 -.107E+02 0.482E+01   0.384E+00 -.129E+00 -.793E+00   0.121E-03 -.413E-04 0.109E-03
   -.119E+02 0.397E+01 0.181E+02   0.131E+02 -.438E+01 -.178E+02   -.945E+00 0.320E+00 -.178E+00   0.544E-04 -.165E-04 -.752E-04
   0.968E+01 -.323E+01 0.726E+01   -.928E+01 0.309E+01 -.719E+01   -.244E+00 0.827E-01 -.179E+00   -.198E-03 0.633E-04 -.226E-03
   -.141E+02 0.492E+01 0.105E+02   0.149E+02 -.518E+01 -.110E+02   0.102E+01 -.370E+00 -.138E+01   0.285E-04 -.114E-05 0.742E-04
   0.249E+02 -.858E+01 -.241E+02   -.251E+02 0.864E+01 0.243E+02   0.255E+00 -.355E-01 0.701E+00   0.398E-04 -.175E-04 0.338E-03
   -.115E+02 0.393E+01 0.206E+02   0.109E+02 -.373E+01 -.218E+02   0.825E+00 -.283E+00 0.288E+00   0.369E-04 -.132E-04 0.197E-03
   -.508E+02 0.167E+02 0.496E+02   0.534E+02 -.176E+02 -.528E+02   -.905E+00 0.309E+00 0.116E+01   0.195E-03 -.721E-04 -.126E-03
   0.249E+02 -.859E+01 -.241E+02   -.251E+02 0.864E+01 0.243E+02   0.255E+00 -.355E-01 0.701E+00   0.409E-04 -.136E-04 0.336E-03
   -.115E+02 0.393E+01 0.206E+02   0.109E+02 -.373E+01 -.218E+02   0.825E+00 -.283E+00 0.288E+00   0.426E-04 -.132E-04 0.194E-03
   -.508E+02 0.167E+02 0.496E+02   0.534E+02 -.176E+02 -.528E+02   -.905E+00 0.309E+00 0.116E+01   0.200E-03 -.590E-04 -.126E-03
   0.520E+02 -.172E+02 -.519E+02   -.529E+02 0.175E+02 0.529E+02   -.138E+01 0.429E+00 0.164E+01   -.303E-03 0.969E-04 0.279E-03
   0.157E+02 -.533E+01 -.199E+02   -.160E+02 0.545E+01 0.197E+02   0.586E+00 -.199E+00 0.146E+01   0.129E-03 -.447E-04 0.185E-03
   0.494E+01 -.144E+01 0.435E+02   -.134E+02 0.421E+01 -.518E+02   -.954E+01 0.315E+01 -.692E+01   0.198E-04 -.508E-05 -.106E-03
   0.520E+02 -.172E+02 -.519E+02   -.529E+02 0.175E+02 0.529E+02   -.138E+01 0.429E+00 0.164E+01   -.296E-03 0.105E-03 0.281E-03
   0.157E+02 -.533E+01 -.199E+02   -.160E+02 0.545E+01 0.197E+02   0.586E+00 -.199E+00 0.146E+01   0.134E-03 -.429E-04 0.188E-03
   0.494E+01 -.144E+01 0.435E+02   -.134E+02 0.421E+01 -.518E+02   -.954E+01 0.315E+01 -.692E+01   0.156E-04 -.644E-05 -.100E-03
   0.193E+01 -.558E+00 -.671E+01   -.231E-13 0.187E-13 -.121E-12   -.208E+01 0.670E+00 0.679E+01   0.156E-03 -.519E-04 -.386E-03

 POSITION                                       TOTAL-FORCE (eV/Angst)
     -2.44380      5.10372      0.00000        18.293102     -6.036619     15.362095
      0.08645      6.36884      2.82890        -0.137262      0.048817      0.075669
      0.08645      0.04323      5.65780        -0.442019      0.141711     -0.704761
      0.08645      0.04323      0.00000        -0.048916      0.011282     -1.326946
      2.61670      1.30835      2.82890        -0.017943      0.009013     -0.068832
      5.14694      2.57347      5.65780         0.506302     -0.172025     -0.185986
      5.14694      2.57347      0.00000        -1.273800      0.421631      0.142238
     -4.97404      3.83859      2.82890         0.086221     -0.025849      0.173519
     -2.44380      5.10372      5.65780        -0.157770      0.045619      0.121501
     -8.13685      7.00140      1.41445        -0.261017      0.088599      0.241128
      4.51438      0.67579      4.24335        -0.239805      0.080186     -0.094375
      7.04462      1.94091      7.07225         0.248551     -0.079645     -0.309145
     -0.54611      4.47115      1.41445         0.284201     -0.095098      0.102258
      1.98413      5.73628      4.24335         0.159153     -0.052707     -0.116712
     -8.13685      7.00140      7.07225         1.785354     -0.638499     -1.948010
      7.04462      1.94091      1.41445        -0.736180      0.253434      1.585476
     -3.07636      3.20603      4.24335         0.083736     -0.026700     -0.008190
     -0.54611      4.47116      7.07225        -0.174137      0.064796      0.555815
     -6.23916      6.36884      0.00000        -1.273800      0.421631      0.142238
      6.41206      0.04323      2.82890         0.086221     -0.025849      0.173519
      8.94231      1.30835      5.65780        -0.157770      0.045619      0.121501
      1.35157      3.83859      0.00000        -0.048916      0.011282     -1.326946
      3.88182      5.10372      2.82890        -0.017943      0.009013     -0.068832
     -6.23916      6.36884      5.65780         0.506302     -0.172025     -0.185986
      8.94231      1.30835      0.00000        18.293102     -6.036619     15.362095
     -1.17867      2.57347      2.82890        -0.137262      0.048817      0.075669
      1.35157      3.83859      5.65780        -0.442019      0.141711     -0.704761
     -4.34148      5.73628      1.41445        -0.736180      0.253434      1.585476
     -1.81123      7.00140      4.24335         0.083736     -0.026700     -0.008190
     10.83999      0.67579      7.07225        -0.174137      0.064796      0.555815
      3.24926      3.20603      1.41445        -0.261017      0.088599      0.241128
      5.77950      4.47115      4.24335        -0.239805      0.080186     -0.094375
     -4.34148      5.73628      7.07225         0.248551     -0.079645     -0.309145
     10.83999      0.67579      1.41445         0.284201     -0.095098      0.102258
      0.71901      1.94091      4.24335         0.159153     -0.052707     -0.116712
      3.24926      3.20603      7.07225         1.785354     -0.638499     -1.948010
      1.94864      1.52530      8.16329         0.120395      0.020518      0.847729
     -5.64209      6.16408      9.10626         0.228843     -0.087231     -0.910457
     -3.11185      3.21213     10.04922         1.716974     -0.545774     -2.092755
      3.21377      5.32066      8.16329         0.120395      0.020518      0.847729
      5.74401      2.36871      9.10626         0.228843     -0.087231     -0.910457
     -1.84672      7.00749     10.04922         1.716974     -0.545774     -2.092755
      0.05096      0.04932      8.63477        -2.301307      0.738778      2.597767
      5.11145      4.68810      9.57774         0.251938     -0.084280      1.180785
      7.64169      1.73615     10.52071       -17.974613      5.920041    -15.219811
      1.31608      3.84469      8.63477        -2.301307      0.738778      2.597767
      3.84633      0.89273      9.57774         0.251938     -0.084280      1.180785
     -3.74441      5.53152     10.52071       -17.974613      5.920041    -15.219811
    total drift:                               -0.143821      0.111275      0.085037

  FREE ENERGIE OF THE ION-ELECTRON SYSTEM (eV)
  free  energy   TOTEN  =      -184.62413569 eV

  energy  without entropy=     -184.62323165  energy(sigma->0) =     -184.62368367