 vasp.6.4.3 19Mar24 (build Oct 22 2024 11:23:12) complex

 executed on             LinuxIFC date 2025.06.07  18:52:06

 INCAR:
   SYSTEM = Si and Ge interface calculation
   ISTART = 0
   ICHARG = 2
   LWAVE = .FALSE.
   LREAL = AUTO
   ENCUT = 700
   ENAUG = 900
   ADDGRID = .TRUE.
   LMAXMIX = 6
   LASPH = .TRUE.
   LMIXTAU = .TRUE.
   NCORE = 16
   NELM = 100
   NBANDS = 288
   EDIFF = 1d-7
   AMIX = 0.6
   ISMEAR = 0
   SIGMA = 0.01
   NELECT = 480
   ISPIN = 2
   NUPDOWN = 1
   LVTOT = .FALSE.
   LVHAR = .TRUE.

 POTCAR:    PAW_PBE Si 05Jan2001
 POTCAR:    PAW_PBE C 08Apr2002
|           W    W    AA    RRRRR   N    N  II  N    N   GGGG   !!!           |
|           W    W   A  A   R    R  NN   N  II  NN   N  G    G  !!!           |
|           W    W  A    A  R    R  N N  N  II  N N  N  G       !!!           |
|           W WW W  AAAAAA  RRRRR   N  N N  II  N  N N  G  GGG   !            |
|           WW  WW  A    A  R   R   N   NN  II  N   NN  G    G                |
|           W    W  A    A  R    R  N    N  II  N    N   GGGG   !!!           |
|     You use a magnetic or noncollinear calculation, but did not specify     |
|     the initial magnetic moment with the MAGMOM tag. Note that a            |
|     default of 8.333e-3 will be used for all atoms. This ferromagnetic      |
|     setup may break the symmetry of the crystal, in particular it may       |
|     rule out finding an antiferromagnetic solution. Thence, we              |
|     recommend setting the initial magnetic moment manually or verifying     |
|     carefully that this magnetic setup is desired.                          |

 POTCAR:    PAW_PBE Si 05Jan2001
   VRHFIN =Si: s2p2

   TITEL  = PAW_PBE Si 05Jan2001
   POMASS =   28.085; ZVAL   =    4.000    mass and valenz
   ENMAX  =  245.345; ENMIN  =  184.009 eV

 POTCAR:    PAW_PBE C 08Apr2002
   VRHFIN =C: s2p2

   TITEL  = PAW_PBE C 08Apr2002
   POMASS =   12.011; ZVAL   =    4.000    mass and valenz
   ENMAX  =  400.000; ENMIN  =  300.000 eV

 Optimization of the real space projectors (new method)

 maximal supplied QI-value         = 19.84
 optimisation between [QCUT,QGAM] = [ 13.49, 26.99] = [ 50.98,203.92] Ry
 Optimized for a Real-space Cutoff    1.07 Angstroem

   l    n(q)    QCUT    max X(q) W(low)/X(q) W(high)/X(q)  e(spline)
   0      9    13.493   159.560    0.22E-03    0.15E-03    0.72E-07
   0      9    13.493   115.863    0.21E-03    0.15E-03    0.71E-07
   1      8    13.493    88.339    0.15E-03    0.11E-03    0.13E-06
   1      8    13.493    48.592    0.15E-03    0.10E-03    0.13E-06
 Optimization of the real space projectors (new method)

 maximal supplied QI-value         = 25.13
 optimisation between [QCUT,QGAM] = [ 13.32, 26.89] = [ 49.69,202.52] Ry
 Optimized for a Real-space Cutoff    1.01 Angstroem

   l    n(q)    QCUT    max X(q) W(low)/X(q) W(high)/X(q)  e(spline)
   0      8    13.321   115.676    0.29E-03    0.42E-03    0.11E-06
   0      8    13.321    87.132    0.29E-03    0.42E-03    0.11E-06
   1      8    13.321     4.429    0.39E-03    0.33E-03    0.98E-07
   1      8    13.321     2.733    0.30E-03    0.26E-03    0.97E-07
  PAW_PBE Si 05Jan2001                  :
  PAW_PBE C 08Apr2002                   :

 POSCAR: Si+C
  positions in direct lattice

 exchange-correlation table for PE
   RHO(1)=    0.500       N(1)  =     2000
   RHO(2)=  100.500       N(2)  =     4000

 ion  position               nearest neighbor table
   1  0.983  0.658  0.000-  67 1.71  28 2.35  29 2.35
   2  0.783  0.558  0.148-  29 2.35  10 2.35  30 2.35
   3  0.583  0.458  0.296-  13 2.35  11 2.35  30 2.35
   4  0.983  0.325  0.000-  31 2.35  32 2.35 115 2.37  49 2.44
   5  0.783  0.225  0.148-  32 2.35  13 2.35  33 2.35
   6  0.583  0.125  0.296-  16 2.35  14 2.35  33 2.35
   7  0.983  0.991  0.000- 103 2.11  34 2.35  35 2.35  97 2.56
   8  0.783  0.891  0.148-  35 2.35  16 2.35  36 2.35
   9  0.583  0.791  0.296-  10 2.35  17 2.35  36 2.35  44 2.58 107 2.59
  10  0.633  0.691  0.074-  19 2.35   9 2.35   2 2.35
  11  0.433  0.591  0.222-  20 2.35   3 2.35  19 2.35
  12  0.233  0.491  0.371-  50 2.11 113 2.16  21 2.35  20 2.35  48 2.58
  13  0.633  0.358  0.074-  73 2.25   3 2.35  22 2.35   5 2.35
  14  0.433  0.258  0.222-  23 2.35   6 2.35  22 2.35
  15  0.233  0.158  0.371-  98 1.71  77 2.29  24 2.35  23 2.35
  16  0.633  0.025  0.074-   6 2.35  25 2.35   8 2.35 100 2.38
  17  0.433  0.925  0.222-  26 2.35   9 2.35  25 2.35
  18  0.233  0.825  0.371-  27 2.35  26 2.35  41 2.37  84 2.46
  19  0.483  0.658  0.000- 109 1.71  10 2.35  11 2.35
  20  0.283  0.558  0.148-  11 2.35  28 2.35  12 2.35
  21  0.083  0.458  0.296-  31 2.35  29 2.35  12 2.35
  22  0.483  0.325  0.000-  13 2.35  14 2.35  73 2.37  91 2.44
  23  0.283  0.225  0.148-  14 2.35  15 2.35  31 2.35
  24  0.083  0.125  0.296-  34 2.35  15 2.35  32 2.35
  25  0.483  0.991  0.000-  61 2.11  16 2.35  17 2.35  55 2.56
  26  0.283  0.891  0.148-  17 2.35  34 2.35  18 2.35
  27  0.083  0.791  0.296-  28 2.35  18 2.35  35 2.35  86 2.58  65 2.59
  28  0.133  0.691  0.074-  27 2.35   1 2.35  20 2.35
  29  0.933  0.591  0.222-   2 2.35  21 2.35   1 2.35
  30  0.733  0.491  0.371-  92 2.11  71 2.16   3 2.35   2 2.35  90 2.58
  31  0.133  0.358  0.074- 115 2.25  21 2.35   4 2.35  23 2.35
  32  0.933  0.258  0.222-   5 2.35  24 2.35   4 2.35
  33  0.733  0.158  0.371-  56 1.71 119 2.29   6 2.35   5 2.35
  34  0.133  0.025  0.074-  24 2.35   7 2.35  26 2.35  58 2.38
  35  0.933  0.925  0.222-   8 2.35  27 2.35   7 2.35
  36  0.733  0.825  0.371-   9 2.35   8 2.35  83 2.37  42 2.46
  37  0.726  0.957  0.758- 105 1.54 100 1.54  62 1.54
  38  0.069  0.985  0.564- 101 1.54  63 1.54
  39  0.398  0.971  0.661- 104 1.54 102 1.54  61 1.54
  40  0.012  0.814  0.758- 108 1.54 103 1.54  65 1.54
  41  0.355  0.842  0.564- 104 1.54  66 1.54  18 2.37
  42  0.684  0.828  0.661- 107 1.54 105 1.54  64 1.54  36 2.46
  43  0.298  0.671  0.758- 106 1.54 111 1.54  68 1.54
  44  0.641  0.700  0.564- 107 1.54  69 1.54   9 2.58
  45  0.969  0.685  0.661- 108 1.54 110 1.54  67 1.54
  46  0.584  0.528  0.758- 114 1.54 109 1.54  71 1.54
  47  0.926  0.557  0.564- 110 1.54  72 1.54
  48  0.255  0.542  0.661- 111 1.54 113 1.54  70 1.54  12 2.58
  49  0.869  0.385  0.758- 112 1.54 117 1.54  74 1.54   4 2.44
  50  0.212  0.414  0.564- 113 1.54  75 1.54  12 2.11
  51  0.541  0.400  0.661- 116 1.54 114 1.54  73 1.54
  52  0.155  0.242  0.758- 115 1.54 120 1.54  77 1.54
  53  0.498  0.271  0.564- 116 1.54  78 1.54
  54  0.826  0.257  0.661- 117 1.54 119 1.54  76 1.54
  55  0.441  0.100  0.758- 118 1.54 102 1.54  59 1.54  25 2.56
  56  0.784  0.128  0.564- 119 1.54  60 1.54  33 1.71
  57  0.112  0.114  0.661- 120 1.54 101 1.54  58 1.54
  58  0.176  0.057  0.807-  79 1.54  57 1.54  34 2.38
  59  0.519  0.085  0.612-  80 1.54  99 1.54  55 1.54
  60  0.848  0.071  0.710-  81 1.54  97 1.54  56 1.54
[...]
 106  0.248  0.771  0.807-  43 1.54  84 1.54
 107  0.591  0.800  0.612-  42 1.54  44 1.54  82 1.54   9 2.59
 108  0.919  0.785  0.710-  45 1.54  40 1.54  83 1.54
 109  0.534  0.628  0.807-  46 1.54  87 1.54  19 1.71
 110  0.876  0.657  0.612-  47 1.54  45 1.54  85 1.54
 111  0.205  0.642  0.710-  48 1.54  43 1.54  86 1.54
 112  0.819  0.485  0.807-  49 1.54  90 1.54
 113  0.162  0.514  0.612-  50 1.54  48 1.54  88 1.54  12 2.16
 114  0.491  0.500  0.710-  46 1.54  51 1.54  89 1.54
 115  0.105  0.342  0.807-  52 1.54  93 1.54  31 2.25   4 2.37
 116  0.448  0.371  0.612-  53 1.54  51 1.54  91 1.54
 117  0.776  0.357  0.710-  54 1.54  49 1.54  92 1.54
 118  0.391  0.200  0.807-  55 1.54  96 1.54
 119  0.734  0.228  0.612-  54 1.54  56 1.54  94 1.54  33 2.29
 120  0.062  0.214  0.710-  57 1.54  52 1.54  95 1.54

  LATTYP: Found a base centered orthorhombic cell.
 ALAT       =    13.3031797410
 B/A-ratio  =     2.2360678724
 C/A-ratio  =     0.6158231235

  Lattice vectors:

 A1 = (   6.6515903470, -14.8734064100,   0.0000000000)
 A2 = (   6.6515893940,  14.8734064100,   0.0000000000)
 A3 = (   0.0000000000,   0.0000000000,   8.1924057010)

Analysis of symmetry for initial positions (statically):
 Subroutine PRICEL returns following result:

  LATTYP: Found a simple orthorhombic cell.
 ALAT       =     6.6515898705
 B/A-ratio  =     1.2316462471
 C/A-ratio  =     2.2360678724

[...]

   2 primitive cells build up your supercell.

 Routine SETGRP: Setting up the symmetry group for a
 base centered orthorhombic supercell.

 Subroutine GETGRP returns: Found  1 space group operations
 (whereof  1 operations were pure point group operations)
 out of a pool of  8 trial point group operations.

The static configuration has the point symmetry C_1 .

Analysis of symmetry for dynamics (positions and initial velocities):
 Subroutine PRICEL returns following result:

[...]

The dynamic configuration has the point symmetry C_1 .

Analysis of structural, dynamic, and magnetic symmetry:
 Subroutine PRICEL returns following result:

  LATTYP: Found a simple orthorhombic cell.
 ALAT       =     6.6515898705
 B/A-ratio  =     1.2316462471
 C/A-ratio  =     2.2360678724

  Lattice vectors:

 A1 = (  -6.6515898705,   0.0000000000,   0.0000000000)
 A2 = (   0.0000000000,   0.0000000000,   8.1924057010)
 A3 = (  -0.0000004765,  14.8734064100,   0.0000000000)

   2 primitive cells build up your supercell.

 Routine SETGRP: Setting up the symmetry group for a
 base centered orthorhombic supercell.

 Subroutine GETGRP returns: Found  1 space group operations
 (whereof  1 operations were pure point group operations)
 out of a pool of  8 trial point group operations.

The overall configuration has the point symmetry C_1 .

 Subroutine INISYM returns: Found  1 space group operations
 (whereof  1 operations are pure point group operations),
 and found     2 'primitive' translations

                                     Primitive cell

  volume of cell :     810.4894

  direct lattice vectors                    reciprocal lattice vectors
    -6.651589870  0.000000000  0.000000000    -0.150339997 -0.000000005  0.000000000
     0.000000000  0.000000000  8.192405701     0.000000000  0.000000000  0.122064267
    -0.000000476 14.873406410  0.000000000     0.000000000  0.067234094  0.000000000

  length of vectors
     6.651589870  8.192405701 14.873406410     0.150339997  0.122064267  0.067234094

  position of ions in fractional coordinates (direct lattice)
     0.376069248  0.000000005  0.658119500
     0.876069545  0.148235962  0.558119297
     0.376070022  0.296471924  0.458119094
     0.709402621  0.000000005  0.324786127
     0.209402873  0.148235962  0.224785969
     0.709403305  0.296471924  0.124785811
     0.042735935  0.000000005  0.991452813
     0.542736172  0.148235962  0.891452670
     0.042736589  0.296471924  0.791452527
     0.042735904  0.074117839  0.691452742
     0.542736411  0.222353801  0.591452479
     0.042736530  0.370589733  0.491452426
     0.376069158  0.074117839  0.358119488
     0.876069605  0.222353801  0.258119285
     0.376069814  0.370589733  0.158119142
     0.709402509  0.074117839  0.024786137
     0.209402918  0.222353801  0.924785972
     0.709403127  0.370589733  0.824785829
     0.590398730  0.758310199  0.956741154
[...]
     0.000000000  0.000000000  8.192405701     0.000000000  0.000000000  0.122064267

  length of vectors
    13.303179741 16.293000328  8.192405701     0.082344607  0.067234094  0.122064267

 FORCES acting on ions
    electron-ion (+dipol)            ewald-force                    non-local-force                 convergence-correction
   0.304E+02 -.256E+02 -.171E+03   -.275E+02 0.228E+02 0.168E+03   -.312E+01 0.409E+01 0.587E+01   0.220E-04 0.149E-03 0.849E-04
   -.134E+01 0.174E+02 -.115E+02   0.239E+01 -.161E+02 0.136E+02   -.412E+00 -.157E+01 -.278E+01   -.166E-03 0.452E-03 0.144E-03
   0.184E+02 0.141E+02 0.754E+02   -.168E+02 -.124E+02 -.775E+02   -.152E+01 -.128E+01 0.224E+01   -.273E-03 0.101E-03 0.104E-03
   0.235E+02 -.212E+01 -.134E+03   -.232E+02 0.171E+01 0.137E+03   -.121E+01 0.506E+00 -.456E+01   0.190E-03 0.336E-03 0.207E-03
   -.235E+00 0.181E+02 -.118E+02   0.154E+01 -.171E+02 0.131E+02   -.740E+00 -.116E+01 -.157E+01   -.651E-03 0.301E-04 0.258E-03
   0.118E+02 0.114E+02 0.734E+02   -.110E+02 -.103E+02 -.750E+02   -.115E+01 -.830E+00 0.181E+01   -.373E-03 -.135E-03 0.354E-03
   0.670E+01 -.146E+02 -.136E+03   -.592E+01 0.147E+02 0.139E+03   -.128E+01 -.644E+00 -.530E+01   -.453E-03 -.384E-03 0.204E-03
   -.677E+00 0.198E+02 -.785E+01   0.180E+01 -.186E+02 0.101E+02   -.483E+00 -.128E+01 -.210E+01   -.432E-03 0.832E-05 0.799E-04
   0.151E+02 0.647E+01 0.792E+02   -.139E+02 -.561E+01 -.830E+02   -.104E+01 -.141E+01 0.483E+01   0.231E-03 0.474E-04 0.128E-03
   -.146E+02 -.114E+02 -.696E+02   0.128E+02 0.110E+02 0.717E+02   0.172E+01 0.977E+00 -.227E+01   0.334E-04 0.295E-03 0.593E-04
   0.120E+01 -.195E+02 0.152E+02   -.172E+01 0.181E+02 -.165E+02   -.103E+00 0.129E+01 0.174E+01   -.690E-06 -.719E-04 0.930E-04
   -.341E+02 -.679E+00 0.152E+03   0.314E+02 0.124E+01 -.155E+03   0.189E+01 -.133E+01 0.409E+01   0.345E-03 -.169E-05 0.138E-03
   -.199E+02 -.159E+02 -.823E+02   0.185E+02 0.152E+02 0.858E+02   0.104E+01 0.543E+00 -.525E+01   -.479E-03 0.164E-03 0.125E-03
   0.321E+01 -.183E+02 0.116E+02   -.392E+01 0.169E+02 -.136E+02   0.490E+00 0.127E+01 0.232E+01   0.153E-03 -.114E-03 0.257E-03
   0.202E+01 0.175E+01 0.176E+03   -.193E+01 -.320E+01 -.174E+03   -.108E+01 0.212E+01 -.430E+01   0.765E-03 -.145E-03 0.527E-04
   -.843E+01 -.101E+02 -.813E+02   0.661E+01 0.914E+01 0.840E+02   0.238E+01 0.132E+01 -.437E+01   -.412E-03 -.232E-04 0.162E-03
   -.194E+00 -.194E+02 0.830E+01   -.109E+01 0.187E+02 -.970E+01   0.510E+00 0.913E+00 0.146E+01   0.700E-03 0.485E-05 -.321E-05
   -.140E+02 0.132E+02 0.130E+03   0.116E+02 -.117E+02 -.135E+03   0.397E+01 -.119E+01 0.634E+01   -.963E-04 -.404E-03 -.184E-03
   0.304E+02 -.256E+02 -.171E+03   -.275E+02 0.228E+02 0.168E+03   -.312E+01 0.409E+01 0.587E+01   0.323E-03 0.283E-04 0.770E-04
   -.134E+01 0.174E+02 -.115E+02   0.239E+01 -.161E+02 0.136E+02   -.412E+00 -.157E+01 -.278E+01   -.263E-04 -.119E-03 0.150E-03
   0.184E+02 0.141E+02 0.754E+02   -.168E+02 -.124E+02 -.775E+02   -.152E+01 -.128E+01 0.224E+01   0.310E-03 0.197E-03 0.859E-04
   0.235E+02 -.212E+01 -.134E+03   -.232E+02 0.171E+01 0.137E+03   -.121E+01 0.506E+00 -.456E+01   -.206E-03 -.808E-04 0.598E-05
   -.237E+00 0.181E+02 -.118E+02   0.154E+01 -.171E+02 0.131E+02   -.740E+00 -.116E+01 -.157E+01   0.599E-03 -.168E-03 0.161E-03
   0.118E+02 0.114E+02 0.734E+02   -.110E+02 -.103E+02 -.750E+02   -.115E+01 -.830E+00 0.181E+01   0.301E-03 -.117E-03 -.192E-04
   0.670E+01 -.146E+02 -.136E+03   -.592E+01 0.147E+02 0.139E+03   -.128E+01 -.644E+00 -.530E+01   0.254E-03 -.170E-03 -.664E-04
   -.678E+00 0.198E+02 -.785E+01   0.180E+01 -.186E+02 0.101E+02   -.483E+00 -.128E+01 -.210E+01   0.458E-03 -.206E-03 0.964E-04
   0.151E+02 0.647E+01 0.792E+02   -.139E+02 -.561E+01 -.830E+02   -.104E+01 -.141E+01 0.483E+01   -.150E-03 -.398E-03 0.258E-04
   -.146E+02 -.114E+02 -.696E+02   0.128E+02 0.110E+02 0.717E+02   0.172E+01 0.977E+00 -.227E+01   -.127E-03 -.148E-03 0.145E-03
   0.120E+01 -.195E+02 0.152E+02   -.172E+01 0.181E+02 -.165E+02   -.103E+00 0.129E+01 0.174E+01   -.344E-04 0.291E-03 0.711E-04
   -.341E+02 -.679E+00 0.152E+03   0.314E+02 0.124E+01 -.155E+03   0.189E+01 -.133E+01 0.409E+01   -.826E-04 0.486E-03 0.476E-04
   -.199E+02 -.159E+02 -.823E+02   0.185E+02 0.152E+02 0.858E+02   0.104E+01 0.543E+00 -.525E+01   0.500E-03 0.141E-03 0.158E-03
   0.321E+01 -.183E+02 0.116E+02   -.392E+01 0.169E+02 -.136E+02   0.490E+00 0.127E+01 0.232E+01   -.797E-04 0.161E-03 0.168E-03
   0.202E+01 0.175E+01 0.176E+03   -.193E+01 -.320E+01 -.174E+03   -.108E+01 0.212E+01 -.430E+01   -.728E-03 -.658E-04 0.158E-03
   -.843E+01 -.101E+02 -.813E+02   0.661E+01 0.914E+01 0.840E+02   0.238E+01 0.132E+01 -.437E+01   0.187E-03 -.208E-03 0.328E-03
   -.193E+00 -.194E+02 0.830E+01   -.109E+01 0.187E+02 -.970E+01   0.510E+00 0.913E+00 0.146E+01   -.325E-03 -.159E-03 -.585E-04
   -.140E+02 0.132E+02 0.130E+03   0.116E+02 -.117E+02 -.135E+03   0.397E+01 -.119E+01 0.634E+01   -.554E-03 0.169E-03 0.331E-04
   -.232E+02 0.366E+02 -.142E+03   0.256E+02 -.386E+02 0.144E+03   -.322E+01 0.562E+01 -.542E+01   -.840E-03 0.117E-03 -.295E-03
   0.288E+02 0.215E+02 0.206E+03   -.300E+02 -.256E+02 -.213E+03   0.114E+01 0.513E+01 0.100E+02   -.287E-03 -.288E-03 -.251E-03
   -.342E+02 0.677E+01 0.872E+02   0.377E+02 -.496E+01 -.885E+02   -.462E+01 -.517E-01 0.520E+01   0.135E-02 -.533E-04 0.364E-04
   -.131E+02 0.295E+02 -.146E+03   0.161E+02 -.323E+02 0.148E+03   -.402E+01 0.620E+01 -.454E+01   -.174E-03 -.303E-03 0.532E-04
   0.106E+02 0.279E+02 0.192E+03   -.966E+01 -.311E+02 -.197E+03   -.180E+01 0.456E+01 0.753E+01   0.738E-03 -.302E-03 0.929E-04
   -.372E+02 0.651E+01 0.590E+02   0.404E+02 -.543E+01 -.594E+02   -.470E+01 0.642E+00 0.402E+01   -.711E-03 0.303E-03 -.277E-03
   -.149E+02 0.329E+02 -.146E+03   0.173E+02 -.350E+02 0.149E+03   -.304E+01 0.607E+01 -.507E+01   -.276E-03 -.670E-03 -.345E-03
   0.278E+02 0.363E+02 0.195E+03   -.285E+02 -.411E+02 -.201E+03   0.156E+00 0.643E+01 0.889E+01   0.863E-04 0.208E-03 -.108E-03
   -.360E+02 0.377E+01 0.944E+02   0.393E+02 -.174E+01 -.966E+02   -.420E+01 0.193E+00 0.503E+01   0.148E-03 0.715E-04 -.374E-04
   -.172E+02 0.401E+02 -.147E+03   0.191E+02 -.434E+02 0.149E+03   -.305E+01 0.668E+01 -.502E+01   -.140E-03 0.254E-03 -.694E-04
   0.280E+02 0.233E+02 0.195E+03   -.294E+02 -.278E+02 -.202E+03   0.132E+01 0.583E+01 0.985E+01   -.249E-03 0.307E-03 -.895E-04
   -.452E+02 0.195E+01 0.674E+02   0.489E+02 -.869E+00 -.674E+02   -.452E+01 0.397E+00 0.426E+01   0.294E-03 -.123E-03 -.251E-03
   -.657E+01 0.261E+02 -.139E+03   0.801E+01 -.275E+02 0.141E+03   -.176E+01 0.421E+01 -.234E+01   -.195E-03 0.661E-03 -.299E-03
   0.286E+02 0.512E+02 0.178E+03   -.286E+02 -.556E+02 -.181E+03   0.716E+00 0.575E+01 0.540E+01   0.643E-03 -.105E-03 -.343E-04
   -.362E+02 0.476E+01 0.861E+02   0.391E+02 -.288E+01 -.876E+02   -.431E+01 0.482E-02 0.541E+01   -.712E-03 -.124E-03 -.289E-03
   -.215E+02 0.408E+02 -.144E+03   0.240E+02 -.436E+02 0.146E+03   -.342E+01 0.600E+01 -.483E+01   0.684E-03 0.939E-05 -.232E-03
   0.290E+02 0.181E+02 0.202E+03   -.288E+02 -.217E+02 -.208E+03   -.402E+00 0.571E+01 0.938E+01   -.247E-03 -.566E-04 -.595E-04
   -.404E+02 0.484E+01 0.795E+02   0.441E+02 -.374E+01 -.805E+02   -.479E+01 0.974E+00 0.556E+01   -.610E-03 0.402E-03 -.477E-03
   -.138E+02 0.214E+02 -.137E+03   0.156E+02 -.227E+02 0.140E+03   -.347E+01 0.425E+01 -.292E+01   0.635E-03 -.266E-03 -.550E-03
   0.354E+01 0.453E+02 0.158E+03   -.229E+01 -.505E+02 -.158E+03   -.357E+00 0.522E+01 0.436E+01   -.935E-03 -.115E-03 -.222E-03
   -.351E+02 0.803E+01 0.705E+02   0.385E+02 -.660E+01 -.717E+02   -.477E+01 0.328E+00 0.536E+01   0.385E-03 0.147E-03 -.368E-03
   -.363E+02 -.350E+02 -.193E+03   0.377E+02 0.384E+02 0.198E+03   -.147E+01 -.547E+01 -.508E+01   0.603E-03 0.370E-04 0.281E-04
   0.233E+02 -.324E+02 0.148E+03   -.247E+02 0.340E+02 -.151E+03   0.318E+01 -.521E+01 0.354E+01   0.438E-04 -.340E-03 -.448E-03
   0.406E+02 -.786E+01 -.798E+02   -.439E+02 0.607E+01 0.814E+02   0.395E+01 0.454E-01 -.577E+01   -.909E-03 -.178E-03 -.277E-03
[...]
   0.239E+02 -.321E+02 0.131E+03   -.262E+02 0.339E+02 -.133E+03   0.278E+01 -.514E+01 0.444E+01   0.178E-03 -.186E-04 0.829E-04
   0.392E+02 -.115E+02 -.768E+02   -.427E+02 0.986E+01 0.781E+02   0.467E+01 -.492E+00 -.559E+01   0.128E-03 -.117E-03 0.309E-03
   -.346E+02 -.126E+02 -.152E+03   0.354E+02 0.131E+02 0.153E+03   -.101E+01 -.335E+01 -.526E+01   0.377E-03 0.279E-03 -.114E-04
   0.162E+02 -.322E+02 0.152E+03   -.185E+02 0.338E+02 -.154E+03   0.347E+01 -.535E+01 0.429E+01   -.425E-03 0.149E-03 -.186E-03
   0.320E+02 -.409E+01 -.771E+02   -.360E+02 0.357E+01 0.778E+02   0.521E+01 -.113E+01 -.494E+01   -.198E-03 -.223E-03 -.491E-03
   -.229E+02 -.282E+02 -.205E+03   0.228E+02 0.327E+02 0.211E+03   0.293E+00 -.515E+01 -.916E+01   -.145E-03 0.762E-03 -.163E-03
   0.220E+02 -.389E+02 0.119E+03   -.251E+02 0.415E+02 -.120E+03   0.379E+01 -.498E+01 0.257E+01   0.603E-03 0.940E-04 -.201E-03
   0.418E+02 -.617E+01 -.801E+02   -.456E+02 0.543E+01 0.816E+02   0.481E+01 -.108E+01 -.516E+01   -.490E-03 -.206E-03 -.192E-03
   -.352E+02 -.310E+02 -.173E+03   0.371E+02 0.332E+02 0.175E+03   -.139E+01 -.375E+01 -.318E+01   0.610E-03 0.257E-03 -.170E-03
   0.167E+02 -.340E+02 0.157E+03   -.186E+02 0.358E+02 -.160E+03   0.322E+01 -.555E+01 0.416E+01   -.187E-03 -.131E-03 -.492E-03
   0.364E+02 -.448E+01 -.823E+02   -.405E+02 0.257E+01 0.834E+02   0.529E+01 -.301E+00 -.550E+01   -.582E-03 0.452E-03 -.204E-03
   -.213E+02 -.258E+02 -.199E+03   0.218E+02 0.301E+02 0.207E+03   -.776E+00 -.578E+01 -.106E+02   0.570E-03 -.180E-03 -.260E-03
   0.806E+01 -.435E+02 0.130E+03   -.974E+01 0.470E+02 -.131E+03   0.258E+01 -.630E+01 0.274E+01   -.917E-03 -.236E-04 -.340E-03
   0.407E+02 -.204E+01 -.787E+02   -.438E+02 0.487E+00 0.801E+02   0.441E+01 -.294E+00 -.514E+01   0.397E-03 0.138E-03 -.283E-03
   0.373E+01 -.159E+02 0.192E+01   -.256E-12 -.211E-12 -.568E-13   -.373E+01 0.158E+02 -.191E+01   -.187E-02 0.329E-03 -.126E-01

 POSITION                                       TOTAL-FORCE (eV/Angst)
     17.45331      9.78848      0.00000        -0.154395      1.269275      3.096501
     14.12751      8.30114      1.21441         0.635490     -0.272010     -0.688338
     10.80172      6.81379      2.42882         0.094044      0.438792      0.117903
     15.23611      4.83068      0.00000        -0.879914      0.097288     -1.181019
     11.91032      3.34333      1.21441         0.562029     -0.153453     -0.235068
      8.58452      1.85599      2.42882        -0.385917      0.236886      0.211402
     19.67051     14.74628      0.00000        -0.503297     -0.522123     -2.212457
     16.34471     13.25894      1.21441         0.644224     -0.089686      0.153168
     13.01891     11.77160      2.42882         0.139225     -0.550138      1.089369
     13.01892     10.28426      0.60720        -0.083377      0.539844     -0.201169
      9.69312      8.79691      1.82161        -0.626337     -0.095710      0.382938
      6.36732      7.30957      3.03602        -0.828166     -0.761659      1.059859
     10.80172      5.32646      0.60720        -0.344017     -0.230530     -1.748757
      7.47592      3.83911      1.82161        -0.218054     -0.120230      0.277848
      4.15013      2.35177      3.03602        -0.988495      0.679450     -2.065179
      8.58452      0.36865      0.60720         0.559541      0.322387     -1.681580
     11.91032     13.75472      1.82161        -0.770380      0.215480      0.058775
      8.58452     12.26737      3.03602         1.598649      0.280575      1.504443
     10.80172      9.78848      0.00000        -0.154395      1.269275      3.096501
      7.47592      8.30114      1.21441         0.635490     -0.272010     -0.688338
      4.15013      6.81379      2.42882         0.094044      0.438792      0.117903
      8.58452      4.83068      0.00000        -0.879914      0.097288     -1.181019
      5.25873      3.34333      1.21441         0.562029     -0.153453     -0.235068
      1.93293      1.85599      2.42882        -0.385917      0.236886      0.211402
     13.01892     14.74628      0.00000        -0.503297     -0.522123     -2.212457
      9.69312     13.25894      1.21441         0.644224     -0.089686      0.153168
      6.36732     11.77160      2.42882         0.139225     -0.550138      1.089369
      6.36733     10.28426      0.60720        -0.083377      0.539844     -0.201169
     16.34471      8.79691      1.82161        -0.626337     -0.095710      0.382938
     13.01891      7.30957      3.03602        -0.828166     -0.761659      1.059859
      4.15013      5.32646      0.60720        -0.344017     -0.230530     -1.748757
     14.12751      3.83911      1.82161        -0.218054     -0.120230      0.277848
     10.80172      2.35177      3.03602        -0.988495      0.679450     -2.065179
      1.93294      0.36865      0.60720         0.559541      0.322387     -1.681580
     18.56191     13.75472      1.82161        -0.770380      0.215480      0.058775
     15.23611     12.26737      3.03602         1.598649      0.280575      1.504443
     16.02768     14.23000      6.21239        -0.748599      3.607514     -3.323316
      7.47564     14.65496      4.61726        -0.070841      1.077555      2.900115
     11.75166     14.44248      5.41482        -1.168900      1.757365      3.879642
      5.57518     12.10523      6.21239        -0.945032      3.414513     -2.007946
     10.32632     12.53018      4.61726        -0.842390      1.307610      1.803667
     14.60234     12.31771      5.41482        -1.458740      1.726254      3.555876
      8.42586      9.98046      6.21239        -0.691337      3.948670     -2.781834
     13.17700     10.40541      4.61726        -0.563627      1.606247      2.764509
     17.45302     10.19293      5.41482        -0.889842      2.218466      2.813449
     11.27654      7.85568      6.21238        -1.085158      3.401786     -2.515461
     16.02768      8.28064      4.61726        -0.089702      1.363024      2.763989
      7.00052      8.06816      5.41482        -0.818660      1.477581      4.226501
     14.12723      5.73091      6.21238        -0.319792      2.905130     -0.296631
      5.57518      6.15587      4.61726         0.739551      1.375375      1.693695
      9.85120      5.94339      5.41482        -1.378648      1.887195      3.903501
      3.67473      3.60614      6.21238        -0.872277      3.153831     -2.335913
      8.42586      4.03110      4.61726        -0.186346      2.057121      2.974988
     12.70189      3.81862      5.41482        -1.086950      2.079595      4.540787
      6.52541      1.48137      6.21239        -1.661551      3.018117     -0.352884
     11.27654      1.90632      4.61726         0.889478      0.075569      5.005631
      2.24939      1.69385      5.41482        -1.405739      1.756967      4.153226
      2.72450      0.84393      6.61117        -0.108040     -2.079466     -0.855885
      7.47563      1.26889      5.01604         1.754658     -3.648027      1.287714
     11.75166      1.05641      5.81360         0.660721     -1.745287     -4.237771
[...]
      8.42586     11.46780      6.61117         0.058148     -1.863189     -2.362724
     13.17700     11.89275      5.01604         0.478505     -3.363354      2.550616
     17.45302     11.68027      5.81360         1.192651     -2.111860     -4.302524
     11.27654      9.34302      6.61116        -0.174401     -2.788854     -5.014746
     16.02768      9.76798      5.01604         1.129209     -3.689546      2.205768
      7.00052      9.55550      5.81360         1.242075     -1.653655     -4.248488
     14.12723      7.21825      6.61116         0.234977     -0.634101     -2.851590
      5.57518      7.64321      5.01604         0.682722     -2.434792      1.980376
      9.85121      7.43073      5.81360         1.006052     -1.825285     -3.651448
      3.67472      5.09348      6.61117         0.469284     -1.537883     -0.819395
      8.42586      5.51844      5.01604         1.243197     -3.753549      1.318485
     12.70188      5.30596      5.81360         1.184958     -2.207271     -4.375554
      6.52541      2.96871      6.61116        -0.283280     -1.448965     -3.069198
     11.27655      3.39366      5.01604         0.903684     -2.786539      1.862940
      2.24939      3.18119      5.81360         1.271097     -1.846973     -3.761825
    total drift:                                0.006675     -0.134708     -0.004244

  FREE ENERGIE OF THE ION-ELECTRON SYSTEM (eV)
  free  energy   TOTEN  =      -795.00004582 eV

  energy  without entropy=     -794.99803370  energy(sigma->0) =     -794.99903976