 vasp.6.4.3 19Mar24 (build Oct 22 2024 11:23:12) complex

 executed on             LinuxIFC date 2025.06.04  07:17:55

 INCAR:
   SYSTEM = Si and Ge interface calculation
   ISTART = 0
   ICHARG = 2
   LWAVE = .FALSE.
   LREAL = AUTO
   ENCUT = 700
   ENAUG = 900
   ADDGRID = .TRUE.
   LMAXMIX = 6
   LASPH = .TRUE.
   LMIXTAU = .TRUE.
   NCORE = 16
   NELM = 100
   NBANDS = 231
   EDIFF = 1d-7
   AMIX = 0.6
   ISMEAR = 0
   SIGMA = 0.01
   NELECT = 384
   ISPIN = 2
   NUPDOWN = 1
   LVTOT = .FALSE.
   LVHAR = .TRUE.

 POTCAR:    PAW_PBE Ge 05Jan2001
|           W    W    AA    RRRRR   N    N  II  N    N   GGGG   !!!           |
|           W    W   A  A   R    R  NN   N  II  NN   N  G    G  !!!           |
|           W    W  A    A  R    R  N N  N  II  N N  N  G       !!!           |
|           W WW W  AAAAAA  RRRRR   N  N N  II  N  N N  G  GGG   !            |
|           WW  WW  A    A  R   R   N   NN  II  N   NN  G    G                |
|           W    W  A    A  R    R  N    N  II  N    N   GGGG   !!!           |
|     You use a magnetic or noncollinear calculation, but did not specify     |
|     the initial magnetic moment with the MAGMOM tag. Note that a            |
|     default of 0.01 will be used for all atoms. This ferromagnetic          |
|     setup may break the symmetry of the crystal, in particular it may       |
|     rule out finding an antiferromagnetic solution. Thence, we              |
|     recommend setting the initial magnetic moment manually or verifying     |
|     carefully that this magnetic setup is desired.                          |

 POTCAR:    PAW_PBE Ge 05Jan2001
   VRHFIN =Ge: s2p2

   TITEL  = PAW_PBE Ge 05Jan2001
   POMASS =   72.610; ZVAL   =    4.000    mass and valenz
   ENMAX  =  173.807; ENMIN  =  130.355 eV

 Optimization of the real space projectors (new method)

 maximal supplied QI-value         = 16.25
 optimisation between [QCUT,QGAM] = [ 13.49, 26.98] = [ 50.95,203.80] Ry
 Optimized for a Real-space Cutoff    1.25 Angstroem

   l    n(q)    QCUT    max X(q) W(low)/X(q) W(high)/X(q)  e(spline)
   0     10    13.489    65.336    0.91E-04    0.11E-03    0.34E-06
   0     10    13.489    52.220    0.89E-04    0.11E-03    0.34E-06
   1     10    13.489    36.409    0.22E-03    0.27E-03    0.14E-06
   1     10    13.489    21.334    0.21E-03    0.27E-03    0.14E-06
   2      9    13.489     4.673    0.11E-03    0.12E-03    0.19E-06
  PAW_PBE Ge 05Jan2001                  :

 POSCAR: Ge+Ge
  positions in direct lattice

 exchange-correlation table for PE
   RHO(1)=    0.500       N(1)  =     2000
   RHO(2)=  100.500       N(2)  =     4000

 ion  position               nearest neighbor table
   1  0.784  0.490  0.420-  23 2.45  37 2.45  75 2.46
   2  0.993  0.948  0.000-  49 2.05  38 2.45  21 2.45  39 2.45  79 2.86
   3  0.951  0.656  0.084-  22 2.45  39 2.45  40 2.45
   4  0.909  0.365  0.168-  20 2.45  41 2.45  23 2.45  40 2.45
   5  0.868  0.073  0.252-  21 2.45  41 2.45  24 2.45  42 2.45
   6  0.826  0.781  0.336-  22 2.45  42 2.45  19 2.45  37 2.45  56 2.46
   7  0.284  0.990  0.420-  17 2.45  43 2.45  81 2.46
   8  0.493  0.448  0.000-  55 2.05  45 2.45  15 2.45  44 2.45  73 2.86
   9  0.451  0.156  0.084-  45 2.45  16 2.45  46 2.45
  10  0.409  0.865  0.168-  14 2.45  47 2.45  17 2.45  46 2.45
  11  0.368  0.573  0.252-  15 2.45  47 2.45  18 2.45  48 2.45
  12  0.326  0.281  0.336-  16 2.45  43 2.45  48 2.45  13 2.45  50 2.46
  13  0.159  0.365  0.420-  25 2.45  12 2.45  30 2.45  87 2.46  74 2.50  51 2.80
  14  0.368  0.823  0.000-  67 2.05  10 2.45  26 2.45  79 2.45  84 2.85  91 2.86
  15  0.326  0.531  0.084-  11 2.45  27 2.45   8 2.45  26 2.45  55 2.85
  16  0.284  0.240  0.168-  12 2.45  28 2.45   9 2.45  27 2.45
  17  0.243  0.948  0.252-  28 2.45   7 2.45  10 2.45  29 2.45
  18  0.201  0.656  0.336-  11 2.45  29 2.45  30 2.45  62 2.46  74 2.80
  19  0.659  0.865  0.420-  31 2.45   6 2.45  36 2.45  93 2.46  80 2.50  57 2.80
  20  0.868  0.323  0.000-  61 2.05   4 2.45  32 2.45  73 2.45  78 2.85  85 2.86
  21  0.826  0.031  0.084-   5 2.45   2 2.45  32 2.45  33 2.45  49 2.85
  22  0.784  0.740  0.168-   6 2.45   3 2.45  34 2.45  33 2.45
  23  0.743  0.448  0.252-  35 2.45  34 2.45   1 2.45   4 2.45
  24  0.701  0.156  0.336-  36 2.45   5 2.45  35 2.45  68 2.46  80 2.80
  25  0.034  0.240  0.420-  41 2.45  13 2.45  51 2.46
  26  0.243  0.698  0.000-  79 2.05  14 2.45  39 2.45  15 2.45  55 2.86
  27  0.201  0.406  0.084-  15 2.45  40 2.45  16 2.45
  28  0.159  0.115  0.168-  17 2.45  38 2.45  16 2.45  41 2.45
  29  0.118  0.823  0.252-  39 2.45  42 2.45  17 2.45  18 2.45
  30  0.076  0.531  0.336-  40 2.45  37 2.45  18 2.45  13 2.45  74 2.46
  31  0.534  0.740  0.420-  19 2.45  47 2.45  57 2.46
  32  0.743  0.198  0.000-  73 2.05  21 2.45  20 2.45  45 2.45  49 2.86
  33  0.701  0.906  0.084-  46 2.45  21 2.45  22 2.45
  34  0.659  0.615  0.168-  23 2.45  44 2.45  22 2.45  47 2.45
  35  0.618  0.323  0.252-  23 2.45  45 2.45  24 2.45  48 2.45
  36  0.576  0.031  0.336-  46 2.45  24 2.45  19 2.45  43 2.45  80 2.46
  37  0.909  0.615  0.420-   1 2.45   6 2.45  30 2.45  63 2.46  56 2.50  75 2.80
  38  0.118  0.073  0.000-  85 2.05   2 2.45  28 2.45  49 2.45  54 2.85  67 2.86
  39  0.076  0.781  0.084-  29 2.45   3 2.45  26 2.45   2 2.45  79 2.85
  40  0.034  0.490  0.168-  30 2.45  27 2.45   4 2.45   3 2.45
  41  0.993  0.198  0.252-   5 2.45   4 2.45  25 2.45  28 2.45
  42  0.951  0.906  0.336-  29 2.45   5 2.45   6 2.45  92 2.46  56 2.80
  43  0.409  0.115  0.420-  12 2.45   7 2.45  36 2.45  69 2.46  50 2.50  81 2.80
  44  0.618  0.573  0.000-  91 2.05  34 2.45   8 2.45  55 2.45  60 2.85  61 2.86
  45  0.576  0.281  0.084-   8 2.45   9 2.45  35 2.45  32 2.45  73 2.85
  46  0.534  0.990  0.168-  36 2.45  33 2.45  10 2.45   9 2.45
  47  0.493  0.698  0.252-  31 2.45  11 2.45  10 2.45  34 2.45
  48  0.451  0.406  0.336-  12 2.45  11 2.45  35 2.45  86 2.46  50 2.80
  49  0.942  0.086  0.920-   2 2.05  71 2.45  85 2.45  38 2.45  21 2.85  32 2.86
  50  0.401  0.294  0.500-  69 2.45  87 2.45  86 2.45  12 2.46  43 2.50  48 2.80
  51  0.109  0.253  0.584-  87 2.45  88 2.45  70 2.45  25 2.46  13 2.80
  52  0.817  0.211  0.668-  68 2.45  71 2.45  89 2.45  88 2.45
  53  0.526  0.169  0.752-  89 2.45  69 2.45  90 2.45  72 2.45
  54  0.234  0.128  0.836-  90 2.45  67 2.45  85 2.45  70 2.45  38 2.85
  55  0.442  0.586  0.920-   8 2.05  65 2.45  91 2.45  44 2.45  15 2.85  26 2.86
  56  0.901  0.794  0.500-  93 2.45  63 2.45  92 2.45   6 2.46  37 2.50  42 2.80
  57  0.609  0.753  0.584-  94 2.45  93 2.45  64 2.45  31 2.46  19 2.80
  58  0.317  0.711  0.668-  62 2.45  95 2.45  94 2.45  65 2.45
  59  0.026  0.669  0.752-  63 2.45  96 2.45  95 2.45  66 2.45
  60  0.734  0.628  0.836-  61 2.45  91 2.45  64 2.45  96 2.45  44 2.85
[...]
  82  0.067  0.961  0.668-  92 2.45  95 2.45  70 2.45  71 2.45
  83  0.776  0.919  0.752-  71 2.45  72 2.45  96 2.45  93 2.45
  84  0.484  0.878  0.836-  72 2.45  67 2.45  94 2.45  91 2.45  14 2.85
  85  0.067  0.211  0.920-  38 2.05  49 2.45  54 2.45  78 2.45  20 2.86
  86  0.526  0.419  0.500-  76 2.45  50 2.45  48 2.46
  87  0.234  0.378  0.584-  51 2.45  74 2.45  50 2.45  77 2.45  13 2.46
  88  0.942  0.336  0.668-  78 2.45  51 2.45  75 2.45  52 2.45
  89  0.651  0.294  0.752-  53 2.45  76 2.45  52 2.45  73 2.45
  90  0.359  0.253  0.836-  54 2.45  53 2.45  77 2.45
  91  0.567  0.711  0.920-  44 2.05  60 2.45  84 2.45  55 2.45  14 2.86
  92  0.026  0.919  0.500-  82 2.45  56 2.45  42 2.46
  93  0.734  0.878  0.584-  57 2.45  56 2.45  83 2.45  80 2.45  19 2.46
  94  0.442  0.836  0.668-  57 2.45  84 2.45  81 2.45  58 2.45
  95  0.151  0.794  0.752-  82 2.45  79 2.45  59 2.45  58 2.45
  96  0.859  0.753  0.836-  59 2.45  83 2.45  60 2.45

  LATTYP: Found a base centered orthorhombic cell.
 ALAT       =    16.0026764918
 B/A-ratio  =     1.2247448613
 C/A-ratio  =     0.8583040932

  Lattice vectors:

 A1 = (  -2.5302453040, -12.3956203460,   0.0000000000)
 A2 = (  12.6512260440,   0.0000000000,   0.0000000000)
 A3 = (   0.0000000000,   0.0000000000,  13.7351627350)

Analysis of symmetry for initial positions (statically):
 Subroutine PRICEL returns following result:

  LATTYP: Found a simple orthorhombic cell.
 ALAT       =     4.0006680508
 B/A-ratio  =     2.4494908887
 C/A-ratio  =     3.4332172929

[...]

   4 primitive cells build up your supercell.

 Routine SETGRP: Setting up the symmetry group for a
 base centered orthorhombic supercell.

 Subroutine GETGRP returns: Found  2 space group operations
 (whereof  1 operations were pure point group operations)
 out of a pool of  8 trial point group operations.

The static configuration has the point symmetry C_1 .
 The point group associated with its full space group is S_2 .

Analysis of symmetry for dynamics (positions and initial velocities):
 Subroutine PRICEL returns following result:

[...]

The dynamic configuration has the point symmetry C_1 .
 The point group associated with its full space group is S_2 .

Analysis of structural, dynamic, and magnetic symmetry:
 Subroutine PRICEL returns following result:

  LATTYP: Found a simple orthorhombic cell.
 ALAT       =     4.0006680508
 B/A-ratio  =     2.4494908887
 C/A-ratio  =     3.4332172929

  Lattice vectors:

 A1 = (   2.5302452963,  -3.0989036114,   0.0000000000)
 A2 = (   7.5907358967,   6.1978131232,   0.0000000000)
 A3 = (   0.0000000000,   0.0000000000,  13.7351627350)

   4 primitive cells build up your supercell.

 Routine SETGRP: Setting up the symmetry group for a
 base centered orthorhombic supercell.

 Subroutine GETGRP returns: Found  2 space group operations
 (whereof  1 operations were pure point group operations)
 out of a pool of  8 trial point group operations.

The overall configuration has the point symmetry C_1 .
 The point group associated with its full space group is S_2 .

 Subroutine INISYM returns: Found  2 space group operations
 (whereof  1 operations are pure point group operations),
 and found     4 'primitive' translations

                                     Primitive cell

  volume of cell :     538.4863

  direct lattice vectors                    reciprocal lattice vectors
     2.530245296 -3.098903611  0.000000000     0.158087530 -0.193616791  0.000000000
     7.590735897  6.197813123  0.000000000     0.079043690  0.064538930  0.000000000
     0.000000000  0.000000000 13.735162735     0.000000000  0.000000000  0.072805836

  length of vectors
     4.000668051  9.799599939 13.735162735     0.249958254  0.102044982  0.072805836

  position of ions in fractional coordinates (direct lattice)
     0.588916665  0.274054916  0.420415282
     0.088916620  0.940722633  0.000000021
     0.588916605  0.607388935  0.084083088
     0.088916653  0.274055505  0.168166161
     0.588916488  0.940722328  0.252249181
     0.088915699  0.607388837  0.336332172
     0.588916561  0.524054983  0.420415312
     0.088916486  0.190722805  0.000000012
     0.588916205  0.857389210  0.084083080
     0.088916787  0.524055453  0.168166161
     0.588916382  0.190722156  0.252249181
     0.088916309  0.857388785  0.336332262
     0.712672320  0.028023283  0.920415342
[...]
     0.000000000  0.000000000 13.735162735     0.000000000  0.000000000  0.072805836

  length of vectors
    12.651226044 12.651227018 13.735162735     0.080673661  0.080673655  0.072805836

 FORCES acting on ions
    electron-ion (+dipol)            ewald-force                    non-local-force                 convergence-correction
   0.315E+02 0.238E+02 0.124E+01   -.326E+02 -.235E+02 -.857E+00   0.403E+00 -.345E+00 -.134E+00   -.565E-04 -.445E-04 -.557E-04
   0.229E+02 0.418E+02 -.520E+01   -.234E+02 -.440E+02 0.588E+01   0.853E+00 -.396E+01 0.257E+01   -.306E-04 -.206E-04 -.112E-04
   0.640E+01 0.558E+01 0.293E+02   -.695E+01 -.617E+01 -.307E+02   0.804E-01 0.319E+00 0.569E+00   -.242E-04 -.178E-04 -.754E-04
   -.570E+01 -.373E+01 -.980E+01   0.563E+01 0.369E+01 0.935E+01   0.282E+00 0.825E-01 0.896E+00   0.653E-05 0.786E-05 -.155E-04
   -.566E+01 -.382E+01 -.680E+01   0.563E+01 0.369E+01 0.651E+01   0.956E-01 0.247E+00 0.237E+00   0.429E-04 0.312E-04 -.527E-04
   0.964E+01 0.405E+01 0.321E+02   -.101E+02 -.406E+01 -.334E+02   0.281E-01 0.373E+00 -.259E+00   -.139E-04 0.889E-06 -.154E-03
   0.315E+02 0.238E+02 0.124E+01   -.326E+02 -.235E+02 -.857E+00   0.403E+00 -.345E+00 -.134E+00   -.562E-04 -.387E-04 -.538E-04
   0.229E+02 0.418E+02 -.520E+01   -.234E+02 -.440E+02 0.588E+01   0.853E+00 -.396E+01 0.257E+01   -.243E-04 -.276E-04 -.105E-04
   0.640E+01 0.558E+01 0.293E+02   -.695E+01 -.617E+01 -.307E+02   0.804E-01 0.319E+00 0.569E+00   -.181E-04 -.227E-04 -.760E-04
   -.570E+01 -.373E+01 -.980E+01   0.563E+01 0.369E+01 0.935E+01   0.282E+00 0.825E-01 0.896E+00   0.117E-04 0.133E-04 -.167E-04
   -.566E+01 -.382E+01 -.680E+01   0.563E+01 0.369E+01 0.651E+01   0.956E-01 0.247E+00 0.237E+00   0.467E-04 0.287E-04 -.510E-04
   0.964E+01 0.405E+01 0.321E+02   -.101E+02 -.406E+01 -.334E+02   0.281E-01 0.373E+00 -.259E+00   -.118E-04 -.443E-05 -.151E-03
   0.163E+02 0.145E+02 0.215E+02   -.172E+02 -.158E+02 -.232E+02   0.772E-01 0.462E+00 -.509E+00   -.846E-04 -.761E-04 -.534E-04
   -.278E+02 0.484E+01 -.267E+02   0.294E+02 -.713E+01 0.286E+02   0.113E+01 -.301E+01 0.301E+01   0.104E-05 0.962E-05 -.141E-04
   0.197E+02 0.124E+02 -.518E+01   -.197E+02 -.137E+02 0.591E+01   -.672E+00 0.104E+01 0.125E+00   -.305E-04 -.347E-04 -.424E-04
   0.208E-01 0.190E+00 0.137E+02   0.217E+00 0.150E+00 -.143E+02   -.191E+00 -.217E+00 0.156E+00   0.517E-05 0.685E-05 -.133E-03
   -.266E+00 -.232E+00 -.153E+02   0.217E+00 0.150E+00 0.148E+02   0.855E-01 -.270E-01 0.470E+00   -.833E-05 -.437E-05 -.506E-05
   -.149E+02 -.193E+02 0.575E+01   0.150E+02 0.195E+02 -.652E+01   0.261E+00 0.509E+00 0.230E-01   0.700E-04 0.578E-04 -.566E-04
   0.163E+02 0.145E+02 0.215E+02   -.172E+02 -.158E+02 -.232E+02   0.772E-01 0.462E+00 -.509E+00   -.802E-04 -.703E-04 -.553E-04
   -.278E+02 0.484E+01 -.267E+02   0.294E+02 -.713E+01 0.286E+02   0.113E+01 -.301E+01 0.301E+01   -.103E-05 0.193E-05 -.128E-04
   0.197E+02 0.124E+02 -.518E+01   -.197E+02 -.137E+02 0.591E+01   -.672E+00 0.104E+01 0.125E+00   -.311E-04 -.326E-04 -.431E-04
   0.208E-01 0.190E+00 0.137E+02   0.217E+00 0.150E+00 -.143E+02   -.191E+00 -.217E+00 0.156E+00   0.598E-05 0.120E-04 -.133E-03
   -.266E+00 -.232E+00 -.153E+02   0.217E+00 0.150E+00 0.148E+02   0.855E-01 -.270E-01 0.470E+00   -.591E-05 -.103E-04 -.380E-05
   -.149E+02 -.193E+02 0.575E+01   0.150E+02 0.195E+02 -.652E+01   0.261E+00 0.509E+00 0.230E-01   0.737E-04 0.564E-04 -.567E-04
   0.315E+02 0.238E+02 0.124E+01   -.326E+02 -.235E+02 -.857E+00   0.403E+00 -.345E+00 -.134E+00   -.592E-04 -.432E-04 -.542E-04
   0.229E+02 0.418E+02 -.520E+01   -.234E+02 -.440E+02 0.588E+01   0.853E+00 -.396E+01 0.257E+01   -.293E-04 -.208E-04 -.113E-04
   0.640E+01 0.558E+01 0.293E+02   -.695E+01 -.617E+01 -.307E+02   0.804E-01 0.319E+00 0.569E+00   -.233E-04 -.233E-04 -.757E-04
   -.570E+01 -.373E+01 -.980E+01   0.563E+01 0.369E+01 0.935E+01   0.282E+00 0.825E-01 0.896E+00   0.599E-05 0.106E-04 -.169E-04
   -.566E+01 -.382E+01 -.680E+01   0.563E+01 0.369E+01 0.651E+01   0.956E-01 0.247E+00 0.237E+00   0.409E-04 0.342E-04 -.530E-04
   0.964E+01 0.405E+01 0.321E+02   -.101E+02 -.406E+01 -.334E+02   0.281E-01 0.373E+00 -.259E+00   -.165E-04 -.303E-05 -.152E-03
   0.315E+02 0.238E+02 0.124E+01   -.326E+02 -.235E+02 -.857E+00   0.403E+00 -.345E+00 -.134E+00   -.527E-04 -.410E-04 -.552E-04
   0.229E+02 0.418E+02 -.520E+01   -.234E+02 -.440E+02 0.588E+01   0.853E+00 -.396E+01 0.257E+01   -.257E-04 -.273E-04 -.105E-04
   0.640E+01 0.558E+01 0.293E+02   -.695E+01 -.617E+01 -.307E+02   0.804E-01 0.319E+00 0.569E+00   -.183E-04 -.180E-04 -.757E-04
   -.570E+01 -.373E+01 -.980E+01   0.563E+01 0.369E+01 0.935E+01   0.282E+00 0.825E-01 0.896E+00   0.125E-04 0.103E-04 -.153E-04
   -.566E+01 -.382E+01 -.680E+01   0.563E+01 0.369E+01 0.651E+01   0.956E-01 0.247E+00 0.237E+00   0.480E-04 0.267E-04 -.508E-04
   0.964E+01 0.405E+01 0.321E+02   -.101E+02 -.406E+01 -.334E+02   0.281E-01 0.373E+00 -.259E+00   -.932E-05 -.408E-06 -.152E-03
   0.163E+02 0.145E+02 0.215E+02   -.172E+02 -.158E+02 -.232E+02   0.772E-01 0.462E+00 -.509E+00   -.852E-04 -.731E-04 -.555E-04
   -.278E+02 0.484E+01 -.267E+02   0.294E+02 -.713E+01 0.286E+02   0.113E+01 -.301E+01 0.301E+01   -.342E-05 0.617E-05 -.146E-04
   0.197E+02 0.124E+02 -.518E+01   -.197E+02 -.137E+02 0.591E+01   -.672E+00 0.104E+01 0.125E+00   -.351E-04 -.289E-04 -.435E-04
   0.208E-01 0.190E+00 0.137E+02   0.217E+00 0.150E+00 -.143E+02   -.191E+00 -.217E+00 0.156E+00   0.141E-05 0.842E-05 -.133E-03
   -.266E+00 -.232E+00 -.153E+02   0.217E+00 0.150E+00 0.148E+02   0.855E-01 -.270E-01 0.470E+00   -.106E-04 -.858E-05 -.453E-05
   -.149E+02 -.193E+02 0.575E+01   0.150E+02 0.195E+02 -.652E+01   0.261E+00 0.509E+00 0.230E-01   0.687E-04 0.609E-04 -.579E-04
   0.163E+02 0.145E+02 0.215E+02   -.172E+02 -.158E+02 -.232E+02   0.772E-01 0.462E+00 -.509E+00   -.804E-04 -.723E-04 -.533E-04
   -.278E+02 0.484E+01 -.267E+02   0.294E+02 -.713E+01 0.286E+02   0.113E+01 -.301E+01 0.301E+01   0.361E-05 0.506E-05 -.123E-04
   0.197E+02 0.124E+02 -.518E+01   -.197E+02 -.137E+02 0.591E+01   -.672E+00 0.104E+01 0.125E+00   -.272E-04 -.375E-04 -.420E-04
   0.207E-01 0.189E+00 0.137E+02   0.217E+00 0.150E+00 -.143E+02   -.191E+00 -.217E+00 0.156E+00   0.960E-05 0.106E-04 -.133E-03
   -.266E+00 -.232E+00 -.153E+02   0.217E+00 0.150E+00 0.148E+02   0.855E-01 -.270E-01 0.470E+00   -.286E-05 -.702E-05 -.423E-05
   -.149E+02 -.193E+02 0.575E+01   0.150E+02 0.195E+02 -.652E+01   0.261E+00 0.509E+00 0.230E-01   0.751E-04 0.532E-04 -.553E-04
   0.278E+02 -.484E+01 0.267E+02   -.294E+02 0.713E+01 -.286E+02   -.113E+01 0.301E+01 -.301E+01   -.861E-06 -.500E-05 0.229E-04
   -.163E+02 -.145E+02 -.215E+02   0.172E+02 0.158E+02 0.232E+02   -.772E-01 -.462E+00 0.509E+00   0.833E-04 0.688E-04 0.458E-04
   0.149E+02 0.193E+02 -.575E+01   -.150E+02 -.195E+02 0.652E+01   -.261E+00 -.509E+00 -.230E-01   -.738E-04 -.594E-04 0.502E-04
   0.266E+00 0.232E+00 0.153E+02   -.217E+00 -.150E+00 -.148E+02   -.855E-01 0.270E-01 -.470E+00   0.787E-05 0.621E-05 0.176E-05
   -.208E-01 -.189E+00 -.137E+02   -.217E+00 -.150E+00 0.143E+02   0.191E+00 0.217E+00 -.156E+00   -.457E-05 -.123E-04 0.135E-03
   -.197E+02 -.124E+02 0.518E+01   0.197E+02 0.137E+02 -.591E+01   0.672E+00 -.104E+01 -.125E+00   0.294E-04 0.327E-04 0.487E-04
   0.278E+02 -.484E+01 0.267E+02   -.294E+02 0.713E+01 -.286E+02   -.113E+01 0.301E+01 -.301E+01   0.322E-05 -.511E-05 0.225E-04
   -.163E+02 -.145E+02 -.215E+02   0.172E+02 0.158E+02 0.232E+02   -.772E-01 -.462E+00 0.509E+00   0.795E-04 0.754E-04 0.445E-04
   0.149E+02 0.193E+02 -.575E+01   -.150E+02 -.195E+02 0.652E+01   -.261E+00 -.509E+00 -.230E-01   -.695E-04 -.552E-04 0.493E-04
   0.266E+00 0.232E+00 0.153E+02   -.217E+00 -.150E+00 -.148E+02   -.855E-01 0.270E-01 -.470E+00   0.820E-05 0.105E-04 0.216E-05
   -.208E-01 -.189E+00 -.137E+02   -.217E+00 -.150E+00 0.143E+02   0.191E+00 0.217E+00 -.156E+00   -.909E-05 -.799E-05 0.136E-03
   -.197E+02 -.124E+02 0.518E+01   0.197E+02 0.137E+02 -.591E+01   0.672E+00 -.104E+01 -.125E+00   0.325E-04 0.343E-04 0.503E-04
[...]
   -.209E-01 -.190E+00 -.137E+02   -.217E+00 -.150E+00 0.143E+02   0.191E+00 0.217E+00 -.156E+00   -.580E-05 -.667E-05 0.137E-03
   -.197E+02 -.124E+02 0.518E+01   0.197E+02 0.137E+02 -.591E+01   0.672E+00 -.104E+01 -.125E+00   0.333E-04 0.373E-04 0.498E-04
   -.229E+02 -.418E+02 0.520E+01   0.234E+02 0.440E+02 -.588E+01   -.853E+00 0.396E+01 -.257E+01   0.251E-04 0.217E-04 0.195E-04
   -.315E+02 -.238E+02 -.124E+01   0.326E+02 0.235E+02 0.857E+00   -.403E+00 0.345E+00 0.134E+00   0.595E-04 0.381E-04 0.450E-04
   -.964E+01 -.405E+01 -.321E+02   0.101E+02 0.406E+01 0.334E+02   -.281E-01 -.373E+00 0.259E+00   0.110E-04 -.337E-05 0.145E-03
   0.566E+01 0.382E+01 0.680E+01   -.563E+01 -.369E+01 -.651E+01   -.956E-01 -.247E+00 -.237E+00   -.456E-04 -.334E-04 0.489E-04
   0.570E+01 0.373E+01 0.980E+01   -.563E+01 -.369E+01 -.935E+01   -.282E+00 -.825E-01 -.896E+00   -.673E-05 -.144E-04 0.178E-04
   -.640E+01 -.558E+01 -.293E+02   0.695E+01 0.617E+01 0.307E+02   -.804E-01 -.319E+00 -.569E+00   0.202E-04 0.156E-04 0.810E-04
   -.229E+02 -.418E+02 0.520E+01   0.234E+02 0.440E+02 -.588E+01   -.853E+00 0.396E+01 -.257E+01   0.314E-04 0.270E-04 0.208E-04
   -.315E+02 -.238E+02 -.124E+01   0.326E+02 0.235E+02 0.857E+00   -.403E+00 0.345E+00 0.134E+00   0.540E-04 0.467E-04 0.459E-04
   -.964E+01 -.405E+01 -.321E+02   0.101E+02 0.406E+01 0.334E+02   -.281E-01 -.373E+00 0.259E+00   0.126E-04 0.429E-05 0.145E-03
   0.566E+01 0.382E+01 0.680E+01   -.563E+01 -.369E+01 -.651E+01   -.956E-01 -.247E+00 -.237E+00   -.421E-04 -.259E-04 0.499E-04
   0.570E+01 0.373E+01 0.980E+01   -.563E+01 -.369E+01 -.935E+01   -.282E+00 -.825E-01 -.896E+00   -.109E-04 -.533E-05 0.196E-04
   -.640E+01 -.558E+01 -.293E+02   0.695E+01 0.617E+01 0.307E+02   -.804E-01 -.319E+00 -.569E+00   0.192E-04 0.234E-04 0.838E-04
   -.343E-02 -.176E-02 0.140E-03   -.213E-13 -.231E-13 -.675E-13   0.513E-15 -.666E-15 -.555E-15   -.159E-06 -.120E-06 0.382E-06

 POSITION                                       TOTAL-FORCE (eV/Angst)
     11.16112      6.07136      5.77447        -0.721963     -0.038735      0.251810
     14.95649     11.75269      0.00000         0.304791     -6.201484      3.257499
     13.69137      8.13730      1.15489        -0.469760     -0.271114     -0.864118
     12.42624      4.52191      2.30979         0.214826      0.034925      0.445498
     11.16112      0.90652      3.46468         0.065813      0.108833     -0.054041
     12.42624      9.68675      4.61958        -0.424581      0.372003     -1.524533
      6.10063     12.26917      5.77447        -0.721963     -0.038735      0.251810
      7.36576      5.55488      0.00000         0.304791     -6.201484      3.257499
      6.10063      1.93949      1.15489        -0.469760     -0.271114     -0.864118
      7.36575     10.71972      2.30979         0.214826      0.034925      0.445498
      6.10063      7.10433      3.46468         0.065813      0.108833     -0.054041
      4.83551      3.48894      4.61958        -0.424581      0.372003     -1.524533
      2.93782      4.52191      5.77447        -0.821293     -0.802774     -2.222249
      6.73320     10.20324      0.00000         2.791516     -5.300084      4.901274
      5.46807      6.58785      1.15489        -0.617994     -0.194714      0.852164
      4.20295      2.97246      2.30979         0.047347      0.122271     -0.461557
      5.46807     11.75269      3.46468         0.037090     -0.108659     -0.030304
      4.20295      8.13730      4.61958         0.282226      0.787691     -0.750199
     10.52856     10.71972      5.77447        -0.821293     -0.802774     -2.222249
     11.79369      4.00543      0.00000         2.791516     -5.300084      4.901274
     10.52856      0.39004      1.15489        -0.617994     -0.194714      0.852164
     11.79368      9.17027      2.30979         0.047347      0.122271     -0.461557
     10.52856      5.55488      3.46468         0.037090     -0.108659     -0.030304
      9.26344      1.93949      4.61958         0.282226      0.787691     -0.750199
      1.04014      2.97245      5.77447        -0.721963     -0.038735      0.251810
      4.83551      8.65379      0.00000         0.304791     -6.201484      3.257499
      3.57039      5.03840      1.15489        -0.469760     -0.271114     -0.864118
      2.30526      1.42300      2.30979         0.214826      0.034925      0.445498
      3.57039     10.20324      3.46468         0.065813      0.108833     -0.054041
      2.30526      6.58784      4.61958        -0.424581      0.372003     -1.524533
      8.63087      9.17026      5.77447        -0.721963     -0.038735      0.251810
      9.89600      2.45598      0.00000         0.304791     -6.201484      3.257499
     11.16112     11.23620      1.15489        -0.469760     -0.271114     -0.864118
      9.89600      7.62081      2.30979         0.214826      0.034925      0.445498
      8.63088      4.00543      3.46468         0.065813      0.108833     -0.054041
      7.36575      0.39003      4.61958        -0.424581      0.372003     -1.524533
     13.05880      7.62081      5.77447        -0.821293     -0.802774     -2.222249
      1.67271      0.90652      0.00000         2.791516     -5.300084      4.901274
      2.93783      9.68675      1.15489        -0.617994     -0.194714      0.852164
      1.67270      6.07136      2.30979         0.047347      0.122271     -0.461557
     13.05880      2.45597      3.46468         0.037090     -0.108659     -0.030304
     14.32393     11.23620      4.61958         0.282226      0.787691     -0.750199
      5.46807      1.42300      5.77447        -0.821293     -0.802774     -2.222249
      9.26344      7.10433      0.00000         2.791516     -5.300084      4.901274
      7.99832      3.48894      1.15489        -0.617994     -0.194714      0.852164
      9.26344     12.26917      2.30979         0.047347      0.122271     -0.461557
      7.99832      8.65378      3.46468         0.037090     -0.108659     -0.030304
      6.73319      5.03839      4.61958         0.282226      0.787691     -0.750199
     12.13693      1.06409     12.64205        -2.791516      5.300084     -4.901274
      5.81133      3.64651      6.86758         0.821293      0.802774      2.222249
      2.01596      3.13003      8.02248        -0.282226     -0.787691      0.750199
     10.87182      2.61354      9.17737        -0.037090      0.108659      0.030304
      7.07645      2.09706     10.33227        -0.047347     -0.122271      0.461557
      3.28108      1.58057     11.48716         0.617994      0.194714     -0.852164
      7.07644      7.26190     12.64205        -2.791516      5.300084     -4.901274
     13.40206      9.84432      6.86758         0.821293      0.802774      2.222249
      9.60669      9.32784      8.02248        -0.282226     -0.787691      0.750199
      5.81133      8.81136      9.17737        -0.037090      0.108659      0.030304
      2.01596      8.29487     10.33227        -0.047347     -0.122271      0.461557
     10.87181      7.77838     11.48716         0.617994      0.194714     -0.852164
[...]
      3.28108     11.91026      9.17737        -0.037090      0.108659      0.030304
     12.13694     11.39378     10.33227        -0.047347     -0.122271      0.461557
      8.34157     10.87729     11.48716         0.617994      0.194714     -0.852164
      1.38339      2.61354     12.64205        -0.304791      6.201484     -3.257499
      7.70901      5.19597      6.86758         0.721963      0.038735     -0.251810
      3.91364      4.67948      8.02248         0.424581     -0.372003      1.524533
     12.76950      4.16300      9.17737        -0.065813     -0.108833      0.054041
      8.97413      3.64651     10.33226        -0.214826     -0.034925     -0.445498
      5.17876      3.13003     11.48716         0.469760      0.271114      0.864118
      8.97413      8.81135     12.64205        -0.304791      6.201484     -3.257499
      2.64852     11.39378      6.86758         0.721963      0.038735     -0.251810
     11.50438     10.87729      8.02248         0.424581     -0.372003      1.524533
      7.70901     10.36081      9.17737        -0.065813     -0.108833      0.054041
      3.91364      9.84432     10.33227        -0.214826     -0.034925     -0.445498
     12.76950      9.32784     11.48716         0.469760      0.271114      0.864118
    total drift:                               -0.003428     -0.001759      0.000140

  FREE ENERGIE OF THE ION-ELECTRON SYSTEM (eV)
  free  energy   TOTEN  =      -379.75588573 eV

  energy  without entropy=     -379.75366939  energy(sigma->0) =     -379.75477756