 vasp.6.4.3 19Mar24 (build Oct 22 2024 11:23:12) complex

 executed on             LinuxIFC date 2025.06.14  13:27:55

 INCAR:
   SYSTEM = Si and Ge interface calculation
   ISTART = 0
   ICHARG = 2
   LWAVE = .FALSE.
   LREAL = AUTO
   ENCUT = 700
   ENAUG = 900
   ADDGRID = .TRUE.
   LMAXMIX = 6
   LASPH = .TRUE.
   LMIXTAU = .TRUE.
   NCORE = 16
   NELM = 100
   NBANDS = 20
   EDIFF = 1d-7
   AMIX = 0.6
   ISMEAR = 0
   SIGMA = 0.01
   NELECT = 32
   ISPIN = 2
   NUPDOWN = 1
   LVTOT = .FALSE.
   LVHAR = .TRUE.

 POTCAR:    PAW_PBE Si 05Jan2001
 POTCAR:    PAW_PBE Sn 08Apr2002
 POTCAR:    PAW_PBE Si 05Jan2001
 POTCAR:    PAW_PBE Sn 08Apr2002
 POTCAR:    PAW_PBE Si 05Jan2001
 POTCAR:    PAW_PBE Sn 08Apr2002
 POTCAR:    PAW_PBE Si 05Jan2001
 POTCAR:    PAW_PBE Sn 08Apr2002
|           W    W    AA    RRRRR   N    N  II  N    N   GGGG   !!!           |
|           W    W   A  A   R    R  NN   N  II  NN   N  G    G  !!!           |
|           W    W  A    A  R    R  N N  N  II  N N  N  G       !!!           |
|           W WW W  AAAAAA  RRRRR   N  N N  II  N  N N  G  GGG   !            |
|           WW  WW  A    A  R   R   N   NN  II  N   NN  G    G                |
|           W    W  A    A  R    R  N    N  II  N    N   GGGG   !!!           |
|     You use a magnetic or noncollinear calculation, but did not specify     |
|     the initial magnetic moment with the MAGMOM tag. Note that a            |
|     default of 0.125 will be used for all atoms. This ferromagnetic         |
|     setup may break the symmetry of the crystal, in particular it may       |
|     rule out finding an antiferromagnetic solution. Thence, we              |
|     recommend setting the initial magnetic moment manually or verifying     |
|     carefully that this magnetic setup is desired.                          |

 POTCAR:    PAW_PBE Si 05Jan2001
   VRHFIN =Si: s2p2

   TITEL  = PAW_PBE Si 05Jan2001
   POMASS =   28.085; ZVAL   =    4.000    mass and valenz
   ENMAX  =  245.345; ENMIN  =  184.009 eV

 POTCAR:    PAW_PBE Sn 08Apr2002
   VRHFIN =Sn: s2p2

   TITEL  = PAW_PBE Sn 08Apr2002
   POMASS =  118.710; ZVAL   =    4.000    mass and valenz
   ENMAX  =  103.236; ENMIN  =   77.427 eV

[...]

 POTCAR:    PAW_PBE Si 05Jan2001
   VRHFIN =Si: s2p2

   TITEL  = PAW_PBE Si 05Jan2001
   POMASS =   28.085; ZVAL   =    4.000    mass and valenz
   ENMAX  =  245.345; ENMIN  =  184.009 eV

 POTCAR:    PAW_PBE Sn 08Apr2002
   VRHFIN =Sn: s2p2

   TITEL  = PAW_PBE Sn 08Apr2002
   POMASS =  118.710; ZVAL   =    4.000    mass and valenz
   ENMAX  =  103.236; ENMIN  =   77.427 eV

 Optimization of the real space projectors (new method)

 maximal supplied QI-value         = 19.84
 optimisation between [QCUT,QGAM] = [ 13.49, 26.99] = [ 50.98,203.92] Ry
 Optimized for a Real-space Cutoff    1.07 Angstroem

   l    n(q)    QCUT    max X(q) W(low)/X(q) W(high)/X(q)  e(spline)
   0      9    13.493   159.560    0.22E-03    0.15E-03    0.72E-07
   0      9    13.493   115.863    0.21E-03    0.15E-03    0.71E-07
   1      8    13.493    88.339    0.15E-03    0.11E-03    0.13E-06
   1      8    13.493    48.592    0.15E-03    0.10E-03    0.13E-06
 Optimization of the real space projectors (new method)

[...]

   l    n(q)    QCUT    max X(q) W(low)/X(q) W(high)/X(q)  e(spline)
   0     13    12.472    14.688    0.45E-04    0.45E-04    0.25E-05
   0     13    12.472     7.308    0.94E-04    0.11E-03    0.61E-05
   1     12    12.472    45.102    0.34E-03    0.14E-03    0.21E-05
   1     12    12.472    30.691    0.31E-03    0.13E-03    0.20E-05
   2     12    12.472     7.156    0.86E-04    0.11E-03    0.17E-05
 WARNING: PSMAXN for non-local potential too small
          PSMAXN should be >   13.5545592237991       NTYP=           2
 Optimization of the real space projectors (new method)

[...]

   l    n(q)    QCUT    max X(q) W(low)/X(q) W(high)/X(q)  e(spline)
   0     13    12.472    14.688    0.45E-04    0.45E-04    0.25E-05
   0     13    12.472     7.308    0.94E-04    0.11E-03    0.61E-05
   1     12    12.472    45.102    0.34E-03    0.14E-03    0.21E-05
   1     12    12.472    30.691    0.31E-03    0.13E-03    0.20E-05
   2     12    12.472     7.156    0.86E-04    0.11E-03    0.17E-05
 WARNING: PSMAXN for non-local potential too small
          PSMAXN should be >   13.5545592237991       NTYP=           6
 Optimization of the real space projectors (new method)

[...]

   l    n(q)    QCUT    max X(q) W(low)/X(q) W(high)/X(q)  e(spline)
   0      9    13.493   159.560    0.22E-03    0.15E-03    0.72E-07
   0      9    13.493   115.863    0.21E-03    0.15E-03    0.71E-07
   1      8    13.493    88.339    0.15E-03    0.11E-03    0.13E-06
   1      8    13.493    48.592    0.15E-03    0.10E-03    0.13E-06
 Optimization of the real space projectors (new method)

 maximal supplied QI-value         = 12.47
 optimisation between [QCUT,QGAM] = [ 12.47, 27.06] = [ 43.56,205.12] Ry
 Optimized for a Real-space Cutoff    1.58 Angstroem

   l    n(q)    QCUT    max X(q) W(low)/X(q) W(high)/X(q)  e(spline)
   0     13    12.472    14.688    0.45E-04    0.45E-04    0.25E-05
   0     13    12.472     7.308    0.94E-04    0.11E-03    0.61E-05
   1     12    12.472    45.102    0.34E-03    0.14E-03    0.21E-05
   1     12    12.472    30.691    0.31E-03    0.13E-03    0.20E-05
   2     12    12.472     7.156    0.86E-04    0.11E-03    0.17E-05
 WARNING: PSMAXN for non-local potential too small
          PSMAXN should be >   13.5545592237991       NTYP=           8
  PAW_PBE Si 05Jan2001                  :
  PAW_PBE Sn 08Apr2002                  :
  PAW_PBE Si 05Jan2001                  :
  PAW_PBE Sn 08Apr2002                  :
  PAW_PBE Si 05Jan2001                  :
  PAW_PBE Sn 08Apr2002                  :
  PAW_PBE Si 05Jan2001                  :
  PAW_PBE Sn 08Apr2002                  :

 POSCAR: Si Sn Si Sn Si Sn Si Sn
  positions in direct lattice

 exchange-correlation table for PE
   RHO(1)=    0.500       N(1)  =     2000
   RHO(2)=  100.500       N(2)  =     4000

 ion  position               nearest neighbor table
   1  0.000  0.000  0.000-   2 2.58   4 2.58   6 2.58   8 2.58
   2  0.250  0.250  0.250-   1 2.58   3 2.58   5 2.58   7 2.58
   3  0.000  0.500  0.500-   2 2.58   4 2.58   6 2.58   8 2.58
   4  0.250  0.750  0.750-   1 2.58   3 2.58   5 2.58   7 2.58
   5  0.500  0.000  0.500-   2 2.58   4 2.58   6 2.58   8 2.58
   6  0.750  0.250  0.750-   1 2.58   3 2.58   5 2.58   7 2.58
   7  0.500  0.500  0.000-   2 2.58   4 2.58   6 2.58   8 2.58
   8  0.750  0.750  0.250-   1 2.58   3 2.58   5 2.58   7 2.58

  LATTYP: Found a simple cubic cell.
 ALAT       =     5.9600000000

  Lattice vectors:

 A1 = (   5.9600000000,   0.0000000000,   0.0000000000)
 A2 = (   0.0000000000,   5.9600000000,   0.0000000000)
 A3 = (   0.0000000000,   0.0000000000,   5.9600000000)

Analysis of symmetry for initial positions (statically):
 Subroutine PRICEL returns:
 Original cell was already a primitive cell.

 Routine SETGRP: Setting up the symmetry group for a
 simple cubic supercell.

 Subroutine GETGRP returns: Found  1 space group operations
 (whereof  1 operations were pure point group operations)
 out of a pool of 48 trial point group operations.

The static configuration has the point symmetry C_1 .

Analysis of symmetry for dynamics (positions and initial velocities):
 Subroutine PRICEL returns:
 Original cell was already a primitive cell.

[...]

The dynamic configuration has the point symmetry C_1 .

Analysis of structural, dynamic, and magnetic symmetry:
 Subroutine PRICEL returns:
 Original cell was already a primitive cell.

 Routine SETGRP: Setting up the symmetry group for a
 simple cubic supercell.

 Subroutine GETGRP returns: Found  1 space group operations
 (whereof  1 operations were pure point group operations)
 out of a pool of 48 trial point group operations.

The overall configuration has the point symmetry C_1 .

 Subroutine INISYM returns: Found  1 space group operations
 (whereof  1 operations are pure point group operations),
 and found     1 'primitive' translations

                                     Primitive cell

  volume of cell :     211.7087

  direct lattice vectors                    reciprocal lattice vectors
     5.960000000  0.000000000  0.000000000     0.167785235  0.000000000  0.000000000
     0.000000000  5.960000000  0.000000000     0.000000000  0.167785235  0.000000000
     0.000000000  0.000000000  5.960000000     0.000000000  0.000000000  0.167785235

  length of vectors
     5.960000000  5.960000000  5.960000000     0.167785235  0.167785235  0.167785235

  position of ions in fractional coordinates (direct lattice)
     0.000000000  0.000000000  0.000000000
     0.250000000  0.250000000  0.250000000
     0.000000000  0.500000000  0.500000000
     0.250000000  0.750000000  0.750000000
     0.500000000  0.000000000  0.500000000
     0.750000000  0.250000000  0.750000000
     0.500000000  0.500000000  0.000000000
     0.750000000  0.750000000  0.250000000

  ion indices of the primitive-cell ions
   primitive index   ion index
                 1           1
                 2           2
                 3           3
                 4           4
                 5           5
                 6           6
                 7           7
                 8           8

 KPOINTS: Automatic KPOINTS generated

Automatic generation of k-mesh.
 Grid dimensions read from file:
 generate k-points for:    5    5    5

 Generating k-lattice:

  Cartesian coordinates                     Fractional coordinates (reciprocal lattice)
     0.033557047  0.000000000  0.000000000     0.200000000  0.000000000  0.000000000
     0.000000000  0.033557047  0.000000000     0.000000000  0.200000000  0.000000000
     0.000000000  0.000000000  0.033557047     0.000000000  0.000000000  0.200000000

  Length of vectors
     0.033557047  0.033557047  0.033557047

  Shift w.r.t. Gamma in fractional coordinates (k-lattice)
     0.000000000  0.000000000  0.000000000

 Subroutine IBZKPT returns following result:

 Found     63 irreducible k-points:

 Following reciprocal coordinates:
            Coordinates               Weight
  0.000000  0.000000  0.000000      1.000000
  0.200000  0.000000  0.000000      2.000000
  0.000000  0.200000  0.000000      2.000000
  0.000000  0.000000  0.200000      2.000000
  0.400000  0.000000  0.000000      2.000000
  0.000000  0.400000  0.000000      2.000000
  0.000000  0.000000  0.400000      2.000000
  0.200000  0.200000  0.000000      2.000000
  0.000000  0.200000  0.200000      2.000000
  0.200000  0.000000  0.200000      2.000000
 -0.200000  0.200000  0.000000      2.000000
 -0.200000  0.000000  0.200000      2.000000
  0.000000 -0.200000  0.200000      2.000000
  0.400000  0.200000  0.000000      2.000000
  0.000000  0.400000  0.200000      2.000000
  0.200000  0.000000  0.400000      2.000000
 -0.200000  0.400000  0.000000      2.000000
 -0.400000  0.000000  0.200000      2.000000
  0.000000  0.200000  0.400000      2.000000
  0.000000 -0.400000  0.200000      2.000000
 -0.200000  0.000000  0.400000      2.000000
  0.400000  0.000000  0.200000      2.000000
[...]
   0.40000000 -0.40000000  0.20000000       0.016
   0.40000000 -0.20000000  0.40000000       0.016
   0.20000000 -0.40000000  0.40000000       0.016
   0.40000000  0.40000000  0.40000000       0.016
  -0.40000000  0.40000000  0.40000000       0.016
  -0.40000000 -0.40000000  0.40000000       0.016
   0.40000000 -0.40000000  0.40000000       0.016

 position of ions in fractional coordinates (direct lattice)
   0.00000000  0.00000000  0.00000000
   0.25000000  0.25000000  0.25000000
   0.00000000  0.50000000  0.50000000
   0.25000000  0.75000000  0.75000000
   0.50000000  0.00000000  0.50000000
   0.75000000  0.25000000  0.75000000
   0.50000000  0.50000000  0.00000000
   0.75000000  0.75000000  0.25000000

 position of ions in cartesian coordinates  (Angst):
   0.00000000  0.00000000  0.00000000
   1.49000000  1.49000000  1.49000000
   0.00000000  2.98000000  2.98000000
   1.49000000  4.47000000  4.47000000
   2.98000000  0.00000000  2.98000000
   4.47000000  1.49000000  4.47000000
   2.98000000  2.98000000  0.00000000
   4.47000000  4.47000000  1.49000000

 k-point     1 :   0.0000 0.0000 0.0000  plane waves:    8925
 k-point     2 :   0.2000 0.0000 0.0000  plane waves:    8902
 k-point     3 :   0.0000 0.2000 0.0000  plane waves:    8902
 k-point     4 :   0.0000 0.0000 0.2000  plane waves:    8902
 k-point     5 :   0.4000 0.0000 0.0000  plane waves:    8886
 k-point     6 :   0.0000 0.4000 0.0000  plane waves:    8886
 k-point     7 :   0.0000 0.0000 0.4000  plane waves:    8886
 k-point     8 :   0.2000 0.2000 0.0000  plane waves:    8880
 k-point     9 :   0.0000 0.2000 0.2000  plane waves:    8880
 k-point    10 :   0.2000 0.0000 0.2000  plane waves:    8880
 k-point    11 :  -0.2000 0.2000 0.0000  plane waves:    8880
 k-point    12 :  -0.2000 0.0000 0.2000  plane waves:    8880
 k-point    13 :   0.0000-0.2000 0.2000  plane waves:    8880
 k-point    14 :   0.4000 0.2000 0.0000  plane waves:    8917
 k-point    15 :   0.0000 0.4000 0.2000  plane waves:    8917
 k-point    16 :   0.2000 0.0000 0.4000  plane waves:    8917
 k-point    17 :  -0.2000 0.4000 0.0000  plane waves:    8917
 k-point    18 :  -0.4000 0.0000 0.2000  plane waves:    8917
 k-point    19 :   0.0000 0.2000 0.4000  plane waves:    8917
 k-point    20 :   0.0000-0.4000 0.2000  plane waves:    8917
 k-point    21 :  -0.2000 0.0000 0.4000  plane waves:    8917
 k-point    22 :   0.4000 0.0000 0.2000  plane waves:    8917
 k-point    23 :   0.0000-0.2000 0.4000  plane waves:    8917
 k-point    24 :   0.4000-0.2000 0.0000  plane waves:    8917
 k-point    25 :   0.2000 0.4000 0.0000  plane waves:    8917
 k-point    26 :   0.4000 0.4000 0.0000  plane waves:    8894
 k-point    27 :   0.0000 0.4000 0.4000  plane waves:    8894
 k-point    28 :   0.4000 0.0000 0.4000  plane waves:    8894
 k-point    29 :  -0.4000 0.4000 0.0000  plane waves:    8894
 k-point    30 :  -0.4000 0.0000 0.4000  plane waves:    8894
 k-point    31 :   0.0000-0.4000 0.4000  plane waves:    8894
 k-point    32 :   0.2000 0.2000 0.2000  plane waves:    8880
 k-point    33 :  -0.2000 0.2000 0.2000  plane waves:    8880
 k-point    34 :  -0.2000-0.2000 0.2000  plane waves:    8880
 k-point    35 :   0.2000-0.2000 0.2000  plane waves:    8880
 k-point    36 :   0.4000 0.2000 0.2000  plane waves:    8920
 k-point    37 :   0.2000 0.4000 0.2000  plane waves:    8920
 k-point    38 :   0.2000 0.2000 0.4000  plane waves:    8920
 k-point    39 :  -0.2000 0.4000 0.2000  plane waves:    8920
 k-point    40 :  -0.4000 0.2000 0.2000  plane waves:    8920
 k-point    41 :  -0.2000 0.2000 0.4000  plane waves:    8920
 k-point    42 :  -0.4000-0.2000 0.2000  plane waves:    8920
 k-point    43 :  -0.2000-0.4000 0.2000  plane waves:    8920
 k-point    44 :  -0.2000-0.2000 0.4000  plane waves:    8920
 k-point    45 :   0.2000-0.4000 0.2000  plane waves:    8920
 k-point    46 :   0.4000-0.2000 0.2000  plane waves:    8920
 k-point    47 :   0.2000-0.2000 0.4000  plane waves:    8920
 k-point    48 :   0.4000 0.4000 0.2000  plane waves:    8889
 k-point    49 :   0.2000 0.4000 0.4000  plane waves:    8889
 k-point    50 :   0.4000 0.2000 0.4000  plane waves:    8889
 k-point    51 :  -0.4000 0.4000 0.2000  plane waves:    8889
 k-point    52 :  -0.4000 0.2000 0.4000  plane waves:    8889
 k-point    53 :  -0.2000 0.4000 0.4000  plane waves:    8889
 k-point    54 :  -0.4000-0.4000 0.2000  plane waves:    8889
 k-point    55 :  -0.2000-0.4000 0.4000  plane waves:    8889
 k-point    56 :  -0.4000-0.2000 0.4000  plane waves:    8889
 k-point    57 :   0.4000-0.4000 0.2000  plane waves:    8889
 k-point    58 :   0.4000-0.2000 0.4000  plane waves:    8889
 k-point    59 :   0.2000-0.4000 0.4000  plane waves:    8889
 k-point    60 :   0.4000 0.4000 0.4000  plane waves:    8898
 k-point    61 :  -0.4000 0.4000 0.4000  plane waves:    8898
 k-point    62 :  -0.4000-0.4000 0.4000  plane waves:    8898
 k-point    63 :   0.4000-0.4000 0.4000  plane waves:    8898

 maximum and minimum number of plane-waves per node :       589      532

 maximum number of plane-waves:      8925
 maximum index in each direction:
   IXMAX=   13   IYMAX=   13   IZMAX=   12
   IXMIN=  -13   IYMIN=  -13   IZMIN=  -13

 real space projection operators:
  max/ min on nodes  :        167.00        131.84

 parallel 3D FFT for wavefunctions:
    minimum data exchange during FFTs selected (reduces bandwidth)
 parallel 3D FFT for charge:
    minimum data exchange during FFTs selected (reduces bandwidth)

 Broyden mixing: mesh for mixing (old mesh)
   NGX = 25   NGY = 25   NGZ = 25
  (NGX  = 80   NGY  = 80   NGZ  = 80)
  gives a total of  15625 points

 initial charge density was supplied:
 charge density of overlapping atoms calculated
 number of electron      32.0000000 magnetization       1.0000000
 keeping initial charge density in first step

 Maximum index for non-local projection operator          378
 Maximum index for augmentation-charges         4281 (set IRDMAX)

 First call to EWALD:  gamma=   0.297
 Maximum number of real-space cells 3x 3x 3
 Maximum number of reciprocal cells 3x 3x 3

--------------------------------------- Ionic step        1  -------------------------------------------

--------------------------------------- Iteration      1(   1)  ---------------------------------------

 eigenvalue-minimisations  :  5040
 total energy-change (2. order) : 0.1299980E+03  (-0.1328532E+04)
 number of electron      32.0000000 magnetization       1.0000000
 augmentation part       32.0000000 magnetization       1.0000000

 Free energy of the ion-electron system (eV)
  alpha Z        PSCENC =        23.99601729
  Ewald energy   TEWEN  =      -832.95301002
  -Hartree energ DENC   =       -47.89415062
  -exchange      EXHF   =         0.00000000
  -V(xc)+E(xc)   XCENC  =      -510.85267709
  PAW double counting   =      1110.14539826     -544.35665203
  entropy T*S    EENTRO =        -0.00013417
  eigenvalues    EBANDS =       143.30274247
  atomic energy  EATOM  =       788.61042659
  Solvation  Ediel_sol  =         0.00000000
  free energy    TOTEN  =       129.99796068 eV

  energy without entropy =      129.99809485  energy(sigma->0) =      129.99802776

[...]

 eigenvalue-minimisations  :  6632
 total energy-change (2. order) :-0.1549512E+03  (-0.1495497E+03)
 number of electron      32.0000000 magnetization       1.0000000
 augmentation part       32.0000000 magnetization       1.0000000

[...]

 Broyden mixing:
  rms(total) = 0.79274E+00    rms(broyden)= 0.79274E+00
  rms(prec ) = 0.11064E+01
  weight for this iteration     100.00

[...]

 eigenvalues of (default mixing * dielectric matrix)
  average eigenvalue GAMMA=   1.7115
  1.7115

[...]

 eigenvalue-minimisations  :  5860
 total energy-change (2. order) : 0.7258787E-01  (-0.1264896E-01)
 number of electron      32.0000000 magnetization       1.0000000
 augmentation part       -5.2280318 magnetization      -0.0876921

[...]

 Broyden mixing:
  rms(total) = 0.70619E-04    rms(broyden)= 0.70618E-04
  rms(prec ) = 0.12430E-03
  weight for this iteration     100.00

 eigenvalues of (default mixing * dielectric matrix)
  average eigenvalue GAMMA=   0.9691
  6.6375  2.1926  1.9465  1.6468  1.2137  1.2137  1.1884  1.1884  1.1326  1.1326
  0.6909  0.6909  0.7834  0.5976  0.5287  0.4264  0.4264  0.4902  0.4563  0.4348
  0.2922  0.2922  0.3513  0.2473  0.2473  0.2670  0.2481  0.1713

[...]

--------------------------------------- Iteration      1(  34)  ---------------------------------------

 eigenvalue-minimisations  :  2924
 total energy-change (2. order) :-0.9868631E-07  (-0.9613183E-07)
 number of electron      32.0000000 magnetization       1.0000000
 augmentation part       -5.2215254 magnetization      -0.0813046

 Free energy of the ion-electron system (eV)
  alpha Z        PSCENC =        23.99601729
  Ewald energy   TEWEN  =      -832.95301002
  -Hartree energ DENC   =       -59.77039656
  -exchange      EXHF   =         0.00000000
  -V(xc)+E(xc)   XCENC  =      -508.01776916
  PAW double counting   =      2691.12834343    -2127.59536794
  entropy T*S    EENTRO =        -0.00094193
  eigenvalues    EBANDS =       -10.25273348
  atomic energy  EATOM  =       788.61042659
  Solvation  Ediel_sol  =         0.00000000
  free energy    TOTEN  =       -34.85543180 eV

  energy without entropy =      -34.85448986  energy(sigma->0) =      -34.85496083

 average (electrostatic) potential at core
  the test charge radii are     0.9892  1.4072  0.9892  1.4072  0.9892  1.4072  0.9892  1.4072
  (the norm of the test charge is              1.0000)
       1 -84.9794       2 -44.5327       3 -84.9794       4 -44.5324       5 -84.9794
       6 -44.5332       7 -84.9794       8 -44.5319

 E-fermi :   3.6991     XC(G=0):  -9.1696     alpha+bet : -9.9804

 val. band max:        5.7120734080   @ k =   0.2000   0.2000   0.2000
 cond. band min:       3.7684611601   @ k =  -0.4000   0.0000   0.4000
 fundamental gap:     -1.9436122480
 Fermi energy:         5.7187150754

 spin component 1

 k-point     1 :       0.0000    0.0000    0.0000
  band No.  band energies     occupation
      1      -6.7912      1.00000
      2      -3.2910      1.00000
      3      -3.2910      1.00000
      4      -3.2910      1.00000
      5      -3.0972      1.00000
      6      -3.0969      1.00000
      7      -3.0967      1.00000
      8       1.7894      1.00000
      9       1.7895      1.00000
     10       1.7895      1.00000
     11       1.7896      1.00000
     12       1.7896      1.00000
     13       1.7896      1.00000
     14       4.5402      1.00000
     15       4.5402      1.00000
     16       4.5402      1.00000
     17       5.2276      1.00000
     18       5.2276      1.00000
     19       5.2276      1.00000
     20       5.3872      1.00000

[...]

 k-point    63 :       0.4000   -0.4000    0.4000
  band No.  band energies     occupation
      1      -5.2007      1.00000
      2      -4.7901      1.00000
      3      -4.7900      1.00000
      4      -4.7899      1.00000
      5      -2.0171      1.00000
      6      -2.0171      1.00000
      7      -2.0171      1.00000
      8      -1.5275      1.00000
      9       2.5227      1.00000
     10       2.5229      1.00000
     11       2.5230      1.00000
     12       3.0779      1.00000
     13       3.0780      1.00000
     14       3.0780      1.00000
     15       3.3677      1.00000
     16       3.3677      1.00000
     17       5.2064      1.00000
     18       5.8850      0.00000
     19       5.8850      0.00000
     20       5.8851      0.00000
 Fermi energy:         3.6991258446

 spin component 2

[...]

 k-point    63 :       0.4000   -0.4000    0.4000
  band No.  band energies     occupation
      1      -5.0918      1.00000
      2      -4.6824      1.00000
      3      -4.6822      1.00000
      4      -4.6820      1.00000
      5      -1.9034      1.00000
      6      -1.9034      1.00000
      7      -1.9033      1.00000
      8      -1.4139      1.00000
      9       2.6381      1.00000
     10       2.6382      1.00000
     11       2.6383      1.00000
     12       3.1914      1.00000
     13       3.1914      1.00000
     14       3.1915      1.00000
     15       3.4808      1.00000
     16       3.4808      1.00000
     17       5.3238      0.00000
     18       6.0022      0.00000
     19       6.0022      0.00000
     20       6.0023      0.00000

 soft charge-density along one line, spin component           1
         0         1         2         3         4         5         6         7         8         9
 total charge-density along one line

 soft charge-density along one line, spin component           2
         0         1         2         3         4         5         6         7         8         9
 total charge-density along one line

------------------------ aborting loop because EDIFF is reached ----------------------------------------

  FORCE on cell =-STRESS in cart. coord.  units (eV):
  Direction    XX          YY          ZZ          XY          YZ          ZX
  Alpha Z    23.99602    23.99602    23.99602
  Ewald    -277.65148  -277.65148  -277.65148     0.00000     0.00000     0.00000
  Hartree    19.92365    19.92363    19.92364    -0.00005    -0.00004     0.00002
  E(xc)    -121.98050  -121.98051  -121.98050    -0.00001    -0.00000     0.00000
  Local    -117.69403  -117.69454  -117.69424     0.00011     0.00015    -0.00008
  n-local   334.14396   334.14450   334.14418     0.00000    -0.00005     0.00002
  augment   -70.03838   -70.03853   -70.03844     0.00000     0.00001    -0.00000
  Kinetic   215.19554   215.19482   215.19524     0.00004     0.00012    -0.00002
  Fock        0.00000     0.00000     0.00000     0.00000     0.00000     0.00000
  Total       5.89479     5.89391     5.89441     0.00011     0.00019    -0.00007
  in kB      44.61080    44.60412    44.60795     0.00080     0.00141    -0.00053

 VOLUME and BASIS-vectors are now :
  energy-cutoff  :      700.00
  volume of cell :      211.71
      direct lattice vectors                 reciprocal lattice vectors
     5.960000000  0.000000000  0.000000000     0.167785235  0.000000000  0.000000000
     0.000000000  5.960000000  0.000000000     0.000000000  0.167785235  0.000000000
     0.000000000  0.000000000  5.960000000     0.000000000  0.000000000  0.167785235

  length of vectors
     5.960000000  5.960000000  5.960000000     0.167785235  0.167785235  0.167785235

 FORCES acting on ions
    electron-ion (+dipol)            ewald-force                    non-local-force                 convergence-correction
   -.104E-03 -.302E-02 0.167E-02   -.711E-14 0.000E+00 0.355E-14   0.738E-04 0.333E-02 -.192E-02   0.149E-03 -.636E-03 0.460E-03
   0.446E-04 0.255E-04 0.983E-04   -.319E-14 0.202E-16 -.355E-14   -.312E-04 -.423E-05 -.667E-04   -.216E-04 -.186E-04 -.391E-04
   -.746E-04 0.307E-02 -.197E-02   0.000E+00 -.355E-14 0.000E+00   0.480E-04 -.337E-02 0.213E-02   0.144E-03 0.624E-03 -.357E-03
   0.496E-04 -.173E-04 0.642E-04   0.345E-14 -.356E-14 -.708E-14   -.357E-04 0.688E-05 -.570E-04   -.222E-04 0.121E-04 -.169E-04
   -.600E-04 -.299E-02 -.187E-02   -.355E-14 0.355E-14 0.711E-14   0.341E-04 0.332E-02 0.206E-02   -.864E-04 -.649E-03 -.386E-03
   0.366E-04 -.386E-04 0.379E-04   -.212E-16 0.360E-14 0.299E-16   -.260E-04 0.303E-04 -.442E-04   -.206E-04 0.107E-04 -.137E-05
   -.518E-04 0.312E-02 0.177E-02   0.355E-14 0.000E+00 0.355E-14   0.178E-04 -.339E-02 -.198E-02   -.785E-04 0.597E-03 0.419E-03
   0.419E-04 -.790E-04 0.667E-04   0.706E-14 0.157E-16 -.359E-14   -.381E-04 0.456E-04 -.501E-04   -.129E-04 0.345E-04 -.254E-04
   -.118E-03 0.731E-04 -.145E-03   0.195E-15 0.768E-16 0.288E-16   0.427E-04 -.378E-04 0.658E-04   0.510E-04 -.245E-04 0.537E-04

 POSITION                                       TOTAL-FORCE (eV/Angst)
      0.00000      0.00000      0.00000         0.000122     -0.000322      0.000207
      1.49000      1.49000      1.49000        -0.000005      0.000001     -0.000004
      0.00000      2.98000      2.98000         0.000121      0.000320     -0.000198
      1.49000      4.47000      4.47000        -0.000005      0.000000     -0.000006
      2.98000      0.00000      2.98000        -0.000109     -0.000321     -0.000196
      4.47000      1.49000      4.47000        -0.000007      0.000001     -0.000004
      2.98000      2.98000      0.00000        -0.000110      0.000322      0.000207
      4.47000      4.47000      1.49000        -0.000006     -0.000000     -0.000006
    total drift:                               -0.000024      0.000011     -0.000026

  FREE ENERGIE OF THE ION-ELECTRON SYSTEM (eV)
  free  energy   TOTEN  =       -34.85543180 eV

  energy  without entropy=      -34.85448986  energy(sigma->0) =      -34.85496083