 vasp.6.4.3 19Mar24 (build Oct 22 2024 11:23:12) complex

 executed on             LinuxIFC date 2025.06.04  10:09:54

 INCAR:
   SYSTEM = Si and Ge interface calculation
   ISTART = 0
   ICHARG = 2
   LWAVE = .FALSE.
   LREAL = AUTO
   ENCUT = 700
   ENAUG = 900
   ADDGRID = .TRUE.
   LMAXMIX = 6
   LASPH = .TRUE.
   LMIXTAU = .TRUE.
   NCORE = 16
   NELM = 100
   NBANDS = 231
   EDIFF = 1d-7
   AMIX = 0.6
   ISMEAR = 0
   SIGMA = 0.01
   NELECT = 384
   ISPIN = 2
   NUPDOWN = 1
   LVTOT = .FALSE.
   LVHAR = .TRUE.

 POTCAR:    PAW_PBE Ge 05Jan2001
|           W    W    AA    RRRRR   N    N  II  N    N   GGGG   !!!           |
|           W    W   A  A   R    R  NN   N  II  NN   N  G    G  !!!           |
|           W    W  A    A  R    R  N N  N  II  N N  N  G       !!!           |
|           W WW W  AAAAAA  RRRRR   N  N N  II  N  N N  G  GGG   !            |
|           WW  WW  A    A  R   R   N   NN  II  N   NN  G    G                |
|           W    W  A    A  R    R  N    N  II  N    N   GGGG   !!!           |
|     You use a magnetic or noncollinear calculation, but did not specify     |
|     the initial magnetic moment with the MAGMOM tag. Note that a            |
|     default of 0.01 will be used for all atoms. This ferromagnetic          |
|     setup may break the symmetry of the crystal, in particular it may       |
|     rule out finding an antiferromagnetic solution. Thence, we              |
|     recommend setting the initial magnetic moment manually or verifying     |
|     carefully that this magnetic setup is desired.                          |

 POTCAR:    PAW_PBE Ge 05Jan2001
   VRHFIN =Ge: s2p2

   TITEL  = PAW_PBE Ge 05Jan2001
   POMASS =   72.610; ZVAL   =    4.000    mass and valenz
   ENMAX  =  173.807; ENMIN  =  130.355 eV

 Optimization of the real space projectors (new method)

 maximal supplied QI-value         = 16.25
 optimisation between [QCUT,QGAM] = [ 13.49, 26.98] = [ 50.95,203.80] Ry
 Optimized for a Real-space Cutoff    1.25 Angstroem

   l    n(q)    QCUT    max X(q) W(low)/X(q) W(high)/X(q)  e(spline)
   0     10    13.489    65.336    0.91E-04    0.11E-03    0.34E-06
   0     10    13.489    52.220    0.89E-04    0.11E-03    0.34E-06
   1     10    13.489    36.409    0.22E-03    0.27E-03    0.14E-06
   1     10    13.489    21.334    0.21E-03    0.27E-03    0.14E-06
   2      9    13.489     4.673    0.11E-03    0.12E-03    0.19E-06
  PAW_PBE Ge 05Jan2001                  :

 POSCAR: Ge+Ge
  positions in direct lattice

 exchange-correlation table for PE
   RHO(1)=    0.500       N(1)  =     2000
   RHO(2)=  100.500       N(2)  =     4000

 ion  position               nearest neighbor table
   1  0.413  0.390  0.522-  76 2.45  64 2.45  92 2.45  19 2.48
   2  0.023  0.977  0.000-  73 1.27  55 1.68  21 2.45  44 2.45  32 2.45
   3  0.181  0.819  0.088-  22 2.45  45 2.45  33 2.45
   4  0.339  0.661  0.175-   7 2.45  46 2.45  34 2.45   8 2.45
   5  0.496  0.504  0.263-  24 2.45  47 2.45   9 2.45  35 2.45
   6  0.654  0.346  0.350-  25 2.45  10 2.45  74 2.45  36 2.45
   7  0.286  0.714  0.284-   4 2.45  41 2.45  29 2.45
   8  0.312  0.688  0.022-  79 1.27  38 2.45  26 2.45   4 2.45  61 2.48
   9  0.470  0.530  0.109-  14 2.45  39 2.45  27 2.45   5 2.45
  10  0.628  0.372  0.197-  15 2.45  40 2.45   6 2.45  28 2.45
  11  0.786  0.214  0.284-  16 2.45  80 2.45  41 2.45  29 2.45
  12  0.571  0.232  0.609-  86 2.45  77 2.45  42 2.45  63 2.45
  13  0.102  0.398  0.460-  75 0.00  30 2.45  80 2.45  43 2.46
  14  0.523  0.477  0.000-  85 1.27  67 1.68   9 2.45  44 2.45  32 2.45
  15  0.681  0.319  0.088-  10 2.45  45 2.45  33 2.45
  16  0.839  0.161  0.175-  11 2.45  20 2.45  46 2.45  34 2.45
  17  0.071  0.232  0.609-  64 2.45  65 2.45  43 2.45  87 2.45
  18  0.229  0.074  0.697-  42 2.45  76 2.45  66 2.45  88 2.45
  19  0.312  0.188  0.438-  35 2.45  23 2.45  25 2.45   1 2.48
  20  0.812  0.188  0.022-  91 1.27  16 2.45  38 2.45  26 2.45  49 2.48
  21  0.970  0.030  0.109-   2 2.45  39 2.45  27 2.45  69 2.45
  22  0.128  0.872  0.197-   3 2.45  70 2.45  40 2.45  28 2.45
  23  0.102  0.898  0.460-  70 2.45  19 2.45  56 2.45  42 2.46
  24  0.444  0.556  0.372-   5 2.45  51 2.45  30 2.45  92 2.46
  25  0.602  0.398  0.460-   6 2.45  56 2.45  19 2.45  63 2.46
  26  0.523  0.977  0.000-  61 1.27  91 1.68  45 2.45   8 2.45  20 2.45
  27  0.681  0.819  0.088-  46 2.45  21 2.45   9 2.45
  28  0.839  0.661  0.175-  47 2.45  32 2.45  22 2.45  10 2.45
  29  0.996  0.504  0.263-  74 2.45  33 2.45   7 2.45  11 2.45
  30  0.154  0.346  0.350-  13 2.45  75 2.45  34 2.45  24 2.45  81 2.45
  31  0.602  0.898  0.460-  51 2.45  80 2.45  87 2.46
  32  0.812  0.688  0.022-  67 1.27  28 2.45   2 2.45  14 2.45  73 2.48
  33  0.970  0.530  0.109-  38 2.45  29 2.45   3 2.45  15 2.45
  34  0.128  0.372  0.197-  39 2.45  30 2.45   4 2.45  16 2.45
  35  0.286  0.214  0.284-  40 2.45  19 2.45   5 2.45  69 2.45
  36  0.444  0.056  0.372-  41 2.45   6 2.45  70 2.45  86 2.46
  37  0.413  0.890  0.522-  48 2.45  68 2.45  86 2.45  52 2.45
  38  0.023  0.477  0.000-  49 1.27  79 1.68  33 2.45   8 2.45  20 2.45
  39  0.181  0.319  0.088-  34 2.45  21 2.45   9 2.45
  40  0.339  0.161  0.175-  35 2.45  10 2.45  22 2.45  44 2.45
  41  0.496  0.004  0.263-  36 2.45  45 2.45  11 2.45   7 2.45
  42  0.282  0.022  0.588-  18 2.45  12 2.45  93 2.45  23 2.46
  43  0.282  0.522  0.588-  94 2.45  57 2.45  17 2.45  75 2.46  13 2.46
  44  0.312  0.188  0.022-  55 1.27  40 2.45   2 2.45  14 2.45  85 2.48
  45  0.470  0.030  0.109-  26 2.45  41 2.45   3 2.45  15 2.45
  46  0.628  0.872  0.197-  27 2.45  51 2.45   4 2.45  16 2.45
  47  0.786  0.714  0.284-  28 2.45  69 2.45  56 2.45   5 2.45
  48  0.124  0.679  0.500-  68 0.00  93 2.45  37 2.45  74 2.46
  49  0.913  0.390  0.938-  38 1.27  59 2.45  79 2.45  91 2.45  20 2.48
  50  0.940  0.364  0.675-  59 2.45  82 2.45  94 2.45
  51  0.654  0.846  0.350-  31 2.45  46 2.45  24 2.45  81 2.45
  52  0.440  0.864  0.675-  71 2.45  82 2.45  37 2.45  94 2.45
  53  0.598  0.706  0.763-  72 2.45  83 2.45  95 2.45  57 2.45
  54  0.756  0.548  0.850-  67 2.45  84 2.45  58 2.45  96 2.45
  55  0.203  0.100  0.960-  44 1.27   2 1.68  66 2.45  73 2.45  85 2.45
  56  0.812  0.688  0.438-  25 2.45  23 2.45  47 2.45  62 2.48
  57  0.571  0.732  0.609-  92 2.45  43 2.45  87 2.45  53 2.45
  58  0.729  0.574  0.697-  63 2.45  76 2.45  88 2.45  54 2.45
  59  0.887  0.416  0.784-  50 2.45  77 2.45  49 2.45  89 2.45
  60  0.045  0.258  0.872-  65 2.45  78 2.45  90 2.45
[...]
  82  0.729  0.074  0.697-  87 2.45  52 2.45  78 2.45  50 2.45
  83  0.887  0.916  0.784-  88 2.45  73 2.45  53 2.45  65 2.45
  84  0.045  0.758  0.872-  89 2.45  66 2.45  54 2.45
  85  0.413  0.390  0.938-  14 1.27  95 2.45  67 2.45  55 2.45  44 2.48
  86  0.624  0.179  0.500-  12 2.45  37 2.45  36 2.46
  87  0.782  0.022  0.588-  82 2.45  57 2.45  17 2.45  31 2.46
  88  0.940  0.864  0.675-  62 2.45  83 2.45  58 2.45  18 2.45
  89  0.098  0.706  0.763-  84 2.45  93 2.45  71 2.45  59 2.45
  90  0.256  0.548  0.850-  79 2.45  94 2.45  60 2.45  72 2.45
  91  0.703  0.100  0.960-  20 1.27  26 1.68  78 2.45  49 2.45  61 2.45
  92  0.624  0.679  0.500-  57 2.45   1 2.45  62 2.45  24 2.46
  93  0.071  0.732  0.609-  48 2.45  68 2.45  89 2.45  42 2.45  63 2.45
  94  0.229  0.574  0.697-  43 2.45  90 2.45  52 2.45  50 2.45
  95  0.387  0.416  0.784-  76 2.45  85 2.45  53 2.45  65 2.45
  96  0.545  0.258  0.872-  77 2.45  54 2.45  66 2.45

  LATTYP: Found a base centered orthorhombic cell.
 ALAT       =     8.0013379485
 B/A-ratio  =     4.3588986951
 C/A-ratio  =     1.8532600386

  Lattice vectors:

 A1 = (  17.8915348050,   0.0000000000,   0.0000000000)
 A2 = ( -16.1023807530,   7.7987394330,   0.0000000000)
 A3 = (   0.0000003040,  -0.0000000700,  14.8285598750)

Analysis of symmetry for initial positions (statically):
 Subroutine PRICEL returns:
 Original cell was already a primitive cell.

 Routine SETGRP: Setting up the symmetry group for a
 base centered orthorhombic supercell.

 Subroutine GETGRP returns: Found  2 space group operations
 (whereof  1 operations were pure point group operations)
 out of a pool of  8 trial point group operations.

The static configuration has the point symmetry C_1 .
 The point group associated with its full space group is S_2 .

Analysis of symmetry for dynamics (positions and initial velocities):
 Subroutine PRICEL returns:
 Original cell was already a primitive cell.

[...]

The dynamic configuration has the point symmetry C_1 .
 The point group associated with its full space group is S_2 .

Analysis of structural, dynamic, and magnetic symmetry:
 Subroutine PRICEL returns:
 Original cell was already a primitive cell.

 Routine SETGRP: Setting up the symmetry group for a
 base centered orthorhombic supercell.

 Subroutine GETGRP returns: Found  2 space group operations
 (whereof  1 operations were pure point group operations)
 out of a pool of  8 trial point group operations.

The overall configuration has the point symmetry C_1 .
 The point group associated with its full space group is S_2 .

 Subroutine INISYM returns: Found  2 space group operations
 (whereof  1 operations are pure point group operations),
 and found     1 'primitive' translations

                                     Primitive cell

  volume of cell :    2069.0500

  direct lattice vectors                    reciprocal lattice vectors
    17.891534805  0.000000000  0.000000000     0.055892354  0.115403262 -0.000000001
   -16.102380753  7.798739433  0.000000000     0.000000000  0.128225851  0.000000001
     0.000000304 -0.000000070 14.828559875     0.000000000  0.000000000  0.067437432

  length of vectors
    17.891534805 17.891534385 14.828559875     0.128225848  0.128225851  0.067437432

  position of ions in fractional coordinates (direct lattice)
     0.413410664  0.389960051  0.521883428
     0.022813324  0.977186680  0.000000009
     0.180708155  0.819291830  0.087533057
     0.338602990  0.661396980  0.175066113
     0.496497810  0.503502190  0.262599170
     0.654392600  0.345607400  0.350132227
     0.285971522  0.714028358  0.284482598
     0.312287062  0.687712908  0.021883292
     0.470181882  0.529818058  0.109416328
     0.628076732  0.371923268  0.196949422
     0.785971582  0.214028403  0.284482479
     0.571305454  0.232065260  0.609416485
     0.101761222  0.398238778  0.459548652
     0.522813261  0.477186650  0.000000000
     0.680708110  0.319291830  0.087533049
     0.838602960  0.161397010  0.175066084
     0.071305394  0.232065260  0.609416485
     0.229200274  0.074170470  0.696949482
     0.312287450  0.187712491  0.437665313
     0.812287092  0.187712908  0.021883449
     0.970181823  0.029818127  0.109416448
     0.128076673  0.871923268  0.196949586
     0.101761222  0.898238838  0.459548503
     0.443866372  0.556133628  0.372015655
     0.601761222  0.398238838  0.459548652
     0.522813261  0.977186680  0.000000010
     0.680708110  0.819291890  0.087533049
     0.838602960  0.661397040  0.175066084
     0.996497750  0.503502250  0.262599140
     0.154392600  0.345607400  0.350132227
     0.601761460  0.898238719  0.459548622
     0.812287271  0.687712848  0.021883423
[...]
     0.000000304 -0.000000070 14.828559875     0.000000000  0.000000000  0.067437432

  length of vectors
    17.891534805 17.891534385 14.828559875     0.128225848  0.128225851  0.067437432

 FORCES acting on ions
    electron-ion (+dipol)            ewald-force                    non-local-force                 convergence-correction
   0.929E+00 -.633E+01 -.524E+01   -.474E+00 0.631E+01 0.563E+01   -.156E+00 -.375E+00 -.815E-01   -.644E-04 -.701E-04 0.140E-04
   0.343E+02 -.733E+01 -.435E+02   -.143E+02 0.394E+02 0.105E+03   0.574E+01 0.136E+02 0.335E+02   -.621E-05 0.378E-04 -.403E-04
   0.205E+02 -.546E+01 0.241E+02   -.210E+02 0.504E+01 -.246E+02   0.577E-01 0.136E+00 -.707E+00   -.207E-03 -.247E-05 0.967E-04
   -.147E+02 0.461E+00 -.133E+02   0.141E+02 -.603E+00 0.134E+02   0.634E+00 0.227E+00 0.373E+00   0.627E-04 -.110E-03 0.136E-03
   0.490E+01 -.160E+01 0.207E+01   -.505E+01 0.144E+01 -.235E+01   0.177E+00 0.354E-01 0.297E+00   -.220E-05 -.564E-04 -.196E-04
   -.314E+00 0.970E-01 0.126E+02   0.502E-01 -.536E+00 -.128E+02   -.826E-01 0.452E+00 -.148E+00   0.593E-04 0.374E-04 0.415E-04
   -.144E+02 -.121E+00 -.227E+02   0.148E+02 -.312E-01 0.236E+02   -.167E+00 0.104E+00 -.185E+00   -.783E-04 -.128E-03 0.307E-03
   -.643E+02 -.684E+01 -.510E+02   0.102E+03 0.481E+02 0.107E+03   0.167E+02 0.197E+02 0.307E+02   -.129E-03 -.154E-03 -.104E-03
   0.318E+02 -.801E+01 -.768E+01   -.320E+02 0.887E+01 0.877E+01   -.154E+00 0.648E-01 0.353E-01   0.114E-03 -.648E-04 -.298E-04
   -.983E+01 0.260E+01 0.772E+01   0.998E+01 -.259E+01 -.715E+01   -.174E+00 0.778E-01 -.662E+00   -.962E-04 0.227E-04 -.816E-05
   0.160E+01 0.224E+01 -.557E+01   -.136E+01 -.239E+01 0.614E+01   -.352E+00 0.204E+00 -.549E+00   0.376E-04 0.130E-03 0.244E-03
   -.102E+02 0.553E-01 -.125E+02   0.111E+02 0.478E+00 0.122E+02   -.608E+00 -.582E+00 0.438E+00   -.440E-04 -.653E-05 -.589E-04
   0.232E+02 -.224E+02 0.725E+01   -.261E+02 0.229E+02 -.673E+01   0.196E+01 -.984E-01 -.563E+00   0.569E-04 0.128E-04 0.598E-04
   0.343E+02 -.746E+01 -.435E+02   -.143E+02 0.394E+02 0.105E+03   0.576E+01 0.136E+02 0.335E+02   0.463E-04 -.825E-04 -.106E-04
   0.206E+02 -.520E+01 0.236E+02   -.211E+02 0.480E+01 -.242E+02   0.702E-01 0.107E+00 -.621E+00   -.165E-03 0.876E-04 0.797E-04
   -.144E+02 0.414E+01 -.869E+01   0.139E+02 -.446E+01 0.851E+01   0.395E+00 0.386E+00 0.420E+00   0.137E-03 0.785E-04 0.206E-03
   -.642E+01 0.487E+01 -.206E+02   0.679E+01 -.504E+01 0.207E+02   -.163E+00 -.292E+00 0.401E+00   -.112E-03 0.860E-04 -.154E-03
   -.481E+01 0.379E+00 -.226E+01   0.501E+01 -.422E+00 0.253E+01   -.262E+00 -.316E-01 -.269E+00   -.329E-04 -.542E-04 0.687E-04
   -.199E+01 0.528E+01 0.511E+01   0.151E+01 -.531E+01 -.557E+01   0.113E+00 0.441E+00 0.901E-01   -.211E-04 -.961E-04 -.280E-04
   -.639E+02 -.636E+01 -.503E+02   0.101E+03 0.477E+02 0.107E+03   0.167E+02 0.197E+02 0.311E+02   -.596E-04 0.978E-04 -.558E-04
   0.318E+02 -.766E+01 -.759E+01   -.319E+02 0.834E+01 0.859E+01   -.148E+00 0.128E+00 0.122E+00   0.219E-03 -.133E-04 -.113E-03
   -.937E+01 0.207E+01 0.849E+01   0.944E+01 -.202E+01 -.819E+01   -.916E-01 -.784E-02 -.351E+00   -.782E-04 0.171E-04 0.295E-04
   0.379E+01 0.373E+01 0.659E+01   -.352E+01 -.394E+01 -.674E+01   0.163E+00 0.388E+00 -.474E-01   0.135E-03 -.372E-04 0.213E-04
   0.696E+01 0.175E+01 0.101E+02   -.643E+01 -.106E+01 -.103E+02   -.219E+00 -.129E+00 0.677E-02   -.148E-03 -.147E-03 0.249E-04
   -.133E+00 0.610E+01 0.587E+01   0.430E+00 -.638E+01 -.604E+01   0.186E+00 0.419E+00 -.607E-01   0.582E-04 -.970E-05 0.424E-05
   0.335E+02 -.736E+01 -.441E+02   -.136E+02 0.393E+02 0.106E+03   0.588E+01 0.138E+02 0.335E+02   0.402E-04 -.982E-04 -.654E-04
   0.241E+02 -.593E+01 0.238E+02   -.247E+02 0.552E+01 -.245E+02   0.203E+00 0.138E+00 -.517E+00   0.237E-03 0.194E-04 -.183E-04
   -.183E+02 0.342E+01 -.799E+01   0.180E+02 -.370E+01 0.762E+01   0.239E+00 0.354E+00 0.539E+00   -.401E-04 0.794E-04 -.447E-04
   -.750E+00 0.174E+01 -.223E+01   0.117E+01 -.151E+01 0.182E+01   -.847E-01 -.143E+00 0.436E+00   -.932E-04 0.600E-04 0.280E-03
   -.101E+02 -.284E+01 0.299E+02   0.110E+02 0.213E+01 -.309E+02   0.227E+00 0.463E+00 -.255E+00   -.207E-03 0.317E-04 0.303E-03
   0.274E+02 0.212E+02 0.100E+02   -.290E+02 -.228E+02 -.926E+01   0.770E+00 0.922E+00 -.592E+00   -.318E-04 -.232E-04 0.611E-04
   -.651E+02 -.621E+01 -.499E+02   0.103E+03 0.476E+02 0.106E+03   0.166E+02 0.198E+02 0.310E+02   -.513E-04 0.156E-03 -.194E-04
   0.289E+02 -.717E+01 -.882E+01   -.290E+02 0.775E+01 0.987E+01   -.321E+00 0.257E+00 0.155E-01   -.539E-04 0.531E-04 0.122E-03
   -.581E+01 -.137E+00 0.102E+02   0.580E+01 0.403E+00 -.104E+02   -.906E-01 -.779E-02 -.114E+00   0.103E-03 -.495E-04 0.245E-03
   -.299E+01 0.738E+00 0.179E+01   0.315E+01 -.686E+00 -.146E+01   -.443E-01 0.945E-01 -.383E+00   -.260E-04 -.610E-04 -.851E-04
   -.472E+00 -.237E+01 0.124E+02   0.972E+00 0.258E+01 -.117E+02   -.550E+00 -.239E+00 -.748E+00   -.649E-04 -.202E-03 0.100E-03
   -.396E+02 -.944E+01 0.545E+01   0.404E+02 0.999E+01 -.592E+01   0.840E+00 -.959E-01 0.684E+00   -.227E-03 -.357E-03 -.114E-03
   0.338E+02 -.728E+01 -.439E+02   -.137E+02 0.393E+02 0.105E+03   0.572E+01 0.138E+02 0.334E+02   0.464E-04 0.439E-04 -.926E-04
   0.238E+02 -.641E+01 0.245E+02   -.242E+02 0.587E+01 -.252E+02   0.280E-01 0.219E+00 -.423E+00   0.155E-03 -.116E-03 0.334E-04
   -.186E+02 0.320E+01 -.800E+01   0.183E+02 -.330E+01 0.773E+01   0.273E+00 0.201E+00 0.510E+00   -.124E-03 -.420E-04 -.120E-03
   -.212E+01 0.498E+00 -.325E+01   0.199E+01 -.662E+00 0.321E+01   0.211E+00 0.120E+00 0.181E+00   -.116E-03 -.253E-05 0.240E-03
   -.612E+01 -.952E+01 -.106E+02   0.565E+01 0.978E+01 0.109E+02   0.345E+00 -.311E+00 0.427E-01   0.310E-04 -.176E-03 -.417E-04
   -.796E+01 -.231E+02 -.226E+02   0.846E+01 0.234E+02 0.232E+02   0.448E+00 0.712E+00 0.490E+00   -.204E-03 -.216E-03 -.316E-03
   -.651E+02 -.634E+01 -.500E+02   0.103E+03 0.477E+02 0.106E+03   0.165E+02 0.198E+02 0.310E+02   -.361E-04 -.104E-03 -.767E-04
   0.286E+02 -.727E+01 -.905E+01   -.288E+02 0.804E+01 0.103E+02   -.190E+00 0.104E+00 -.167E+00   -.180E-03 -.980E-05 0.141E-03
   -.358E+01 0.291E+01 0.508E+01   0.385E+01 -.281E+01 -.472E+01   -.182E+00 0.583E-01 -.504E+00   0.113E-03 -.122E-04 0.123E-03
   -.234E+01 0.101E+01 0.171E+01   0.256E+01 -.970E+00 -.135E+01   -.168E+00 0.124E+00 -.406E+00   0.228E-04 0.569E-04 -.880E-04
   -.232E+02 0.224E+02 -.725E+01   0.261E+02 -.229E+02 0.673E+01   -.196E+01 0.984E-01 0.563E+00   -.559E-04 -.131E-04 -.647E-04
   0.643E+02 0.684E+01 0.510E+02   -.102E+03 -.481E+02 -.107E+03   -.167E+02 -.197E+02 -.307E+02   0.130E-03 0.154E-03 0.109E-03
   0.144E+02 0.121E+00 0.227E+02   -.148E+02 0.313E-01 -.236E+02   0.167E+00 -.104E+00 0.185E+00   0.798E-04 0.127E-03 -.308E-03
   0.102E+02 -.553E-01 0.125E+02   -.111E+02 -.478E+00 -.122E+02   0.608E+00 0.582E+00 -.438E+00   0.435E-04 0.666E-05 0.561E-04
   -.160E+01 -.224E+01 0.557E+01   0.136E+01 0.239E+01 -.614E+01   0.352E+00 -.204E+00 0.549E+00   -.361E-04 -.130E-03 -.246E-03
   0.983E+01 -.260E+01 -.772E+01   -.998E+01 0.259E+01 0.715E+01   0.174E+00 -.778E-01 0.662E+00   0.964E-04 -.228E-04 0.872E-05
   -.318E+02 0.801E+01 0.768E+01   0.320E+02 -.887E+01 -.877E+01   0.154E+00 -.648E-01 -.353E-01   -.115E-03 0.651E-04 0.324E-04
   -.343E+02 0.733E+01 0.435E+02   0.143E+02 -.394E+02 -.105E+03   -.574E+01 -.136E+02 -.335E+02   0.506E-05 -.375E-04 0.435E-04
   -.929E+00 0.633E+01 0.524E+01   0.474E+00 -.631E+01 -.563E+01   0.156E+00 0.375E+00 0.815E-01   0.630E-04 0.705E-04 -.172E-04
   0.314E+00 -.971E-01 -.126E+02   -.500E-01 0.536E+00 0.128E+02   0.826E-01 -.452E+00 0.148E+00   -.588E-04 -.375E-04 -.446E-04
   -.490E+01 0.160E+01 -.207E+01   0.505E+01 -.144E+01 0.235E+01   -.177E+00 -.354E-01 -.297E+00   0.576E-06 0.567E-04 0.191E-04
   0.147E+02 -.461E+00 0.133E+02   -.141E+02 0.603E+00 -.134E+02   -.634E+00 -.227E+00 -.373E+00   -.621E-04 0.110E-03 -.134E-03
   -.205E+02 0.546E+01 -.241E+02   0.210E+02 -.504E+01 0.246E+02   -.577E-01 -.136E+00 0.707E+00   0.208E-03 0.230E-05 -.934E-04
[...]
   0.186E+02 -.320E+01 0.800E+01   -.183E+02 0.330E+01 -.773E+01   -.273E+00 -.201E+00 -.510E+00   0.123E-03 0.421E-04 0.121E-03
   -.238E+02 0.641E+01 -.245E+02   0.242E+02 -.587E+01 0.252E+02   -.280E-01 -.219E+00 0.423E+00   -.156E-03 0.116E-03 -.301E-04
   0.651E+02 0.621E+01 0.499E+02   -.103E+03 -.476E+02 -.106E+03   -.166E+02 -.198E+02 -.310E+02   0.503E-04 -.156E-03 0.225E-04
   -.274E+02 -.212E+02 -.100E+02   0.290E+02 0.228E+02 0.926E+01   -.770E+00 -.922E+00 0.592E+00   0.328E-04 0.230E-04 -.660E-04
   0.471E+00 0.238E+01 -.124E+02   -.972E+00 -.258E+01 0.117E+02   0.550E+00 0.239E+00 0.748E+00   0.660E-04 0.201E-03 -.104E-03
   0.299E+01 -.738E+00 -.179E+01   -.315E+01 0.686E+00 0.146E+01   0.443E-01 -.945E-01 0.383E+00   0.246E-04 0.613E-04 0.840E-04
   0.581E+01 0.136E+00 -.102E+02   -.580E+01 -.403E+00 0.104E+02   0.906E-01 0.779E-02 0.114E+00   -.104E-03 0.496E-04 -.244E-03
   -.289E+02 0.717E+01 0.882E+01   0.290E+02 -.775E+01 -.987E+01   0.321E+00 -.257E+00 -.155E-01   0.551E-04 -.534E-04 -.119E-03
   -.335E+02 0.736E+01 0.441E+02   0.136E+02 -.393E+02 -.106E+03   -.588E+01 -.138E+02 -.335E+02   -.390E-04 0.979E-04 0.707E-04
   0.133E+00 -.610E+01 -.587E+01   -.430E+00 0.638E+01 0.604E+01   -.186E+00 -.419E+00 0.607E-01   -.592E-04 0.993E-05 -.776E-05
   0.101E+02 0.284E+01 -.299E+02   -.110E+02 -.213E+01 0.309E+02   -.227E+00 -.463E+00 0.255E+00   0.206E-03 -.316E-04 -.306E-03
   0.749E+00 -.174E+01 0.223E+01   -.117E+01 0.151E+01 -.182E+01   0.847E-01 0.143E+00 -.436E+00   0.949E-04 -.604E-04 -.281E-03
   0.183E+02 -.342E+01 0.799E+01   -.180E+02 0.370E+01 -.762E+01   -.239E+00 -.354E+00 -.539E+00   0.396E-04 -.793E-04 0.457E-04
   -.241E+02 0.593E+01 -.238E+02   0.247E+02 -.552E+01 0.245E+02   -.203E+00 -.138E+00 0.517E+00   -.237E-03 -.192E-04 0.215E-04
   -.137E-01 0.175E-02 -.485E-02   0.355E-14 0.240E-13 0.234E-12   0.983E-14 0.158E-13 -.574E-13   -.377E-06 0.802E-07 0.142E-06

 POSITION                                       TOTAL-FORCE (eV/Angst)
      1.11727      3.04120      7.73878         0.299100     -0.401130      0.314525
    -15.32687      7.62082      0.00000        25.729969     45.668315     95.145946
     -9.95940      6.38944      1.29799        -0.406104     -0.287616     -1.200312
     -4.59194      5.15806      2.59598        -0.036690      0.084865      0.517815
      0.77552      3.92668      3.89397         0.026477     -0.118513      0.022472
      6.14299      2.69530      5.19196        -0.346719      0.012914     -0.344635
     -6.38109      5.56852      4.21847         0.192272     -0.048308      0.643134
     -5.48652      5.36329      0.32450        54.021922     60.982969     86.952519
     -0.11906      4.13191      1.62249        -0.289587      0.930783      1.123937
      5.24841      2.90053      2.92048        -0.019917      0.084243     -0.093392
     10.61587      1.66915      4.21847        -0.117085      0.050991      0.025798
      6.48473      1.80982      9.03677         0.266420     -0.048310      0.132673
     -4.59193      3.10576      6.81444        -1.006984      0.397750     -0.038297
      1.67009      3.72145      0.00000        25.755988     45.632744     95.181707
      7.03755      2.49007      1.29799        -0.407051     -0.289554     -1.249225
     12.40502      1.25869      2.59598        -0.148838      0.065760      0.244754
     -2.46104      1.80982      9.03677         0.203447     -0.463937      0.480284
      2.90642      0.57844     10.33476        -0.060713     -0.074409     -0.004285
      2.56468      1.46392      6.48995        -0.358997      0.414045     -0.373563
     11.51044      1.46392      0.32450        54.204161     61.016616     87.268697
     16.87790      0.23254      1.62249        -0.298865      0.807878      1.120762
    -11.74855      6.79990      2.92048        -0.020380      0.043031     -0.050008
    -12.64312      7.00513      6.81444         0.434111      0.170763     -0.199195
     -1.01362      4.33714      5.51646         0.303091      0.551259     -0.286030
      4.35384      3.10576      6.81444         0.483296      0.140831     -0.227160
     -6.38110      7.62082      0.00000        25.785780     45.689683     95.129415
     -1.01364      6.38944      1.29799        -0.405697     -0.273161     -1.232967
      4.35383      5.15806      2.59598        -0.099868      0.069267      0.167760
      9.72129      3.92668      3.89397         0.336370      0.083876      0.027470
     -2.80278      2.69530      5.19196         1.156128     -0.243948     -1.335371
     -3.69735      7.00513      6.81444        -0.822837     -0.657206      0.145087
      3.45925      5.36329      0.32450        54.149149     61.156828     87.245220
      8.82672      4.13191      1.62249        -0.488670      0.840659      1.064307
     -3.69736      2.90053      2.92048        -0.099791      0.258623     -0.304707
      1.67011      1.66915      4.21847         0.111629      0.146764     -0.052856
      7.03757      0.43777      5.51646        -0.049035     -0.035885     -0.100778
     -6.93393      6.94057      7.73878         1.694254      0.452080      0.217626
     -7.27567      3.72145      0.00000        25.743706     45.798362     94.847517
     -1.90821      2.49007      1.29799        -0.437421     -0.317116     -1.197834
      3.45925      1.25869      2.59598        -0.068416      0.095664      0.240325
      8.82671      0.02731      3.89397         0.078625     -0.044623      0.140572
      4.69557      0.16798      8.71227        -0.125850     -0.047924      0.300738
     -3.35562      4.06735      8.71227         0.943091      1.045609      1.144196
      2.56467      1.46392      0.32450        54.133119     61.183905     87.204218
      7.93213      0.23254      1.62249        -0.383853      0.880380      1.074997
     -2.80278      6.79990      2.92048         0.084705      0.161908     -0.150643
      2.56468      5.56852      4.21847         0.052385      0.164257     -0.049557
     -8.72308      5.29873      7.41428         1.006984     -0.397750      0.038297
     10.06304      3.04119     13.90423       -54.021922    -60.982969    -86.952519
     10.95761      2.83597     10.01026        -0.192272      0.048308     -0.643134
     -1.90820      6.59467      5.19196        -0.266420      0.048310     -0.132673
     -6.03935      6.73534     10.01026         0.117085     -0.050991     -0.025798
     -0.67188      5.50396     11.30825         0.019917     -0.084243      0.093392
      4.69558      4.27257     12.60624         0.289587     -0.930783     -1.123937
      2.01185      0.78366     14.22872       -25.729969    -45.668315    -95.145946
      3.45926      5.36329      6.48995        -0.299100      0.401130     -0.314525
     -1.56646      5.70919      9.03677         0.346719     -0.012914      0.344635
      3.80100      4.47781     10.33476        -0.026477      0.118513     -0.022472
      9.16846      3.24642     11.63275         0.036690     -0.084865     -0.517815
     -3.35561      2.01504     12.93074         0.406104      0.287616      1.200312
[...]
     11.85219      0.57844     10.33476        -0.078625      0.044623     -0.140572
      1.11727      7.14579     11.63275         0.068416     -0.095664     -0.240325
    -11.40680      5.91441     12.93074         0.437421      0.317116      1.197834
      1.11727      3.04119     13.90422       -54.149149    -61.156828    -87.245220
      8.27388      1.39936      7.41428         0.822837      0.657206     -0.145087
     13.64134      0.16798      8.71227         0.049035      0.035885      0.100778
      2.90642      6.73534     10.01026        -0.111629     -0.146764      0.052856
     -9.61765      5.50396     11.30825         0.099791     -0.258623      0.304707
     -4.25019      4.27257     12.60624         0.488670     -0.840659     -1.064307
     10.95763      0.78366     14.22873       -25.785780    -45.689683    -95.129415
      0.22269      5.29873      7.41428        -0.483296     -0.140831      0.227160
    -10.51223      5.70919      9.03677        -1.156128      0.243948      1.335371
     -5.14476      4.47780     10.33476        -0.336370     -0.083876     -0.027470
      0.22270      3.24642     11.63275         0.099868     -0.069267     -0.167760
      5.59017      2.01504     12.93074         0.405697      0.273161      1.232967
    total drift:                               -0.013656      0.001749     -0.004853

  FREE ENERGIE OF THE ION-ELECTRON SYSTEM (eV)
  free  energy   TOTEN  =      -354.43615460 eV

  energy  without entropy=     -354.43460936  energy(sigma->0) =     -354.43538198