 vasp.6.4.3 19Mar24 (build Oct 22 2024 11:23:12) complex

 executed on             LinuxIFC date 2025.06.04  06:42:46

 INCAR:
   SYSTEM = Si and Ge interface calculation
   ISTART = 0
   ICHARG = 2
   LWAVE = .FALSE.
   LREAL = AUTO
   ENCUT = 700
   ENAUG = 900
   ADDGRID = .TRUE.
   LMAXMIX = 6
   LASPH = .TRUE.
   LMIXTAU = .TRUE.
   NCORE = 16
   NELM = 100
   NBANDS = 231
   EDIFF = 1d-7
   AMIX = 0.6
   ISMEAR = 0
   SIGMA = 0.01
   NELECT = 384
   ISPIN = 2
   NUPDOWN = 1
   LVTOT = .FALSE.
   LVHAR = .TRUE.

 POTCAR:    PAW_PBE Ge 05Jan2001
|           W    W    AA    RRRRR   N    N  II  N    N   GGGG   !!!           |
|           W    W   A  A   R    R  NN   N  II  NN   N  G    G  !!!           |
|           W    W  A    A  R    R  N N  N  II  N N  N  G       !!!           |
|           W WW W  AAAAAA  RRRRR   N  N N  II  N  N N  G  GGG   !            |
|           WW  WW  A    A  R   R   N   NN  II  N   NN  G    G                |
|           W    W  A    A  R    R  N    N  II  N    N   GGGG   !!!           |
|     You use a magnetic or noncollinear calculation, but did not specify     |
|     the initial magnetic moment with the MAGMOM tag. Note that a            |
|     default of 0.01 will be used for all atoms. This ferromagnetic          |
|     setup may break the symmetry of the crystal, in particular it may       |
|     rule out finding an antiferromagnetic solution. Thence, we              |
|     recommend setting the initial magnetic moment manually or verifying     |
|     carefully that this magnetic setup is desired.                          |

 POTCAR:    PAW_PBE Ge 05Jan2001
   VRHFIN =Ge: s2p2

   TITEL  = PAW_PBE Ge 05Jan2001
   POMASS =   72.610; ZVAL   =    4.000    mass and valenz
   ENMAX  =  173.807; ENMIN  =  130.355 eV

 Optimization of the real space projectors (new method)

 maximal supplied QI-value         = 16.25
 optimisation between [QCUT,QGAM] = [ 13.49, 26.98] = [ 50.95,203.80] Ry
 Optimized for a Real-space Cutoff    1.25 Angstroem

   l    n(q)    QCUT    max X(q) W(low)/X(q) W(high)/X(q)  e(spline)
   0     10    13.489    65.336    0.91E-04    0.11E-03    0.34E-06
   0     10    13.489    52.220    0.89E-04    0.11E-03    0.34E-06
   1     10    13.489    36.409    0.22E-03    0.27E-03    0.14E-06
   1     10    13.489    21.334    0.21E-03    0.27E-03    0.14E-06
   2      9    13.489     4.673    0.11E-03    0.12E-03    0.19E-06
  PAW_PBE Ge 05Jan2001                  :

 POSCAR: Ge+Ge
  positions in direct lattice

 exchange-correlation table for PE
   RHO(1)=    0.500       N(1)  =     2000
   RHO(2)=  100.500       N(2)  =     4000

 ion  position               nearest neighbor table
   1  0.369  0.294  0.500-  31 0.00  74 2.42  69 2.45  87 2.45  51 2.52  94 2.52  13 2.88
   2  0.993  0.948  0.000-  49 2.19  38 2.45  21 2.45  39 2.45  79 2.60
   3  0.951  0.656  0.083-  22 2.45  39 2.45  40 2.45
   4  0.909  0.365  0.166-  20 2.45  70 2.45  23 2.45  40 2.45
   5  0.035  0.961  0.666-  71 2.45  95 2.45  92 2.45  41 2.45
   6  0.826  0.781  0.332-  56 2.42  22 2.45  62 2.45  86 2.45  93 2.45
   7  0.535  0.461  0.666-  89 2.45  65 2.45  64 2.45
   8  0.493  0.448  0.000-  55 2.19  45 2.45  15 2.45  44 2.45  73 2.60
   9  0.451  0.156  0.083-  45 2.45  16 2.45  46 2.45
  10  0.409  0.865  0.166-  14 2.45  68 2.45  17 2.45  46 2.45
  11  0.368  0.573  0.249-  15 2.45  68 2.45  48 2.45
  12  0.119  0.544  0.500-  30 2.42  87 2.45  19 2.45  63 2.45  13 2.52  93 2.88
  13  0.159  0.365  0.414-  87 2.42  25 2.45  74 2.45  30 2.45  12 2.52   1 2.88  31 2.88
  14  0.368  0.823  0.000-  67 2.19  10 2.45  26 2.45  91 2.60  84 2.72  79 2.85
  15  0.326  0.531  0.083-  11 2.45  27 2.45   8 2.45  26 2.45  55 2.72
  16  0.284  0.240  0.166-  74 2.45  28 2.45   9 2.45  27 2.45
  17  0.243  0.948  0.249-  28 2.45  75 2.45  76 2.45  10 2.45  29 2.45
  18  0.744  0.169  0.500-  47 0.00  24 2.42  42 2.45  35 2.45  52 2.45
  19  0.244  0.669  0.500-  12 2.45  58 2.45
  20  0.868  0.323  0.000-  61 2.19   4 2.45  32 2.45  85 2.60  78 2.72  73 2.85
  21  0.826  0.031  0.083-  82 2.45   2 2.45  32 2.45  33 2.45  49 2.72
  22  0.784  0.740  0.166-   6 2.45   3 2.45  34 2.45  33 2.45
  23  0.743  0.448  0.249-  80 2.45  34 2.45  50 2.45   4 2.45
  24  0.701  0.156  0.332-  18 2.42  47 2.42  36 2.45  82 2.45  80 2.45
  25  0.034  0.240  0.414-  70 2.45  13 2.45
  26  0.243  0.698  0.000-  79 2.19  14 2.45  39 2.45  15 2.45  55 2.60
  27  0.201  0.406  0.083-  15 2.45  40 2.45  16 2.45
  28  0.159  0.115  0.166-  17 2.45  38 2.45  16 2.45  70 2.45
  29  0.118  0.823  0.249-  39 2.45  17 2.45
  30  0.076  0.531  0.332-  12 2.42  40 2.45  93 2.45  13 2.45
  31  0.369  0.294  0.500-   1 0.00  74 2.42  69 2.45  87 2.45  51 2.52  94 2.52  13 2.88
  32  0.743  0.198  0.000-  73 2.19  21 2.45  20 2.45  45 2.45  49 2.60
  33  0.701  0.906  0.083-  46 2.45  21 2.45  22 2.45
  34  0.659  0.615  0.166-  23 2.45  44 2.45  22 2.45  68 2.45
  35  0.619  0.044  0.500-  42 0.00  36 2.42  18 2.45  47 2.45  69 2.45  37 2.45  62 2.52  86 2.52
                            51 2.88  94 2.88
  36  0.576  0.031  0.332-  35 2.42  42 2.42  46 2.45  24 2.45  62 2.45  86 2.45  51 2.45  94 2.45

  37  0.702  0.878  0.583-  62 2.42  86 2.42  57 2.45  56 2.45  83 2.45  42 2.45  35 2.45
  38  0.118  0.073  0.000-  85 2.19   2 2.45  28 2.45  67 2.60  54 2.72  49 2.85
  39  0.076  0.781  0.083-  29 2.45   3 2.45  26 2.45   2 2.45  79 2.72
  40  0.034  0.490  0.166-  30 2.45  27 2.45   4 2.45   3 2.45
  41  0.160  0.086  0.666-  81 2.45  54 2.45   5 2.45
  42  0.619  0.044  0.500-  35 0.00  36 2.42  18 2.45  47 2.45  69 2.45  37 2.45  62 2.52  86 2.52
                            51 2.88  94 2.88
  43  0.410  0.836  0.666-  84 2.45  58 2.45  57 2.45  81 2.45
  44  0.618  0.573  0.000-  91 2.19  34 2.45   8 2.45  61 2.60  60 2.72  55 2.85
  45  0.576  0.281  0.083-   8 2.45   9 2.45  80 2.45  32 2.45  73 2.72
  46  0.534  0.990  0.166-  36 2.45  33 2.45  10 2.45   9 2.45
  47  0.744  0.169  0.500-  18 0.00  24 2.42  35 2.45  42 2.45  52 2.45
  48  0.451  0.406  0.332-  74 2.45  11 2.45  80 2.45
  49  0.910  0.086  0.914-   2 2.19  71 2.45  85 2.45  32 2.60  21 2.72  38 2.85
  50  0.784  0.490  0.414-  23 2.45  93 2.45
  51  0.409  0.115  0.414-  94 0.00  69 2.42  74 2.45  76 2.45  75 2.45  36 2.45   1 2.52  31 2.52
                            42 2.88  35 2.88
  52  0.785  0.211  0.666-  89 2.45  71 2.45  18 2.45  47 2.45  88 2.45
  53  0.494  0.169  0.749-  90 2.45  89 2.45  69 2.45  72 2.45
  54  0.202  0.128  0.832-  67 2.45  90 2.45  41 2.45  85 2.45  38 2.72
  55  0.410  0.586  0.914-   8 2.19  65 2.45  91 2.45  26 2.60  15 2.72  44 2.85
  56  0.869  0.794  0.500-   6 2.42  37 2.45  63 2.45  92 2.45  93 2.52  62 2.88  86 2.88
  57  0.577  0.753  0.583-  37 2.45  43 2.45  64 2.45
  58  0.285  0.711  0.666-  43 2.45  65 2.45  95 2.45  19 2.45
  59  0.994  0.669  0.749-  66 2.45  96 2.45  63 2.45  95 2.45
  60  0.702  0.628  0.832-  64 2.45  61 2.45  91 2.45  96 2.45  44 2.72
  61  0.785  0.461  0.914-  20 2.19  60 2.45  73 2.45  78 2.45  44 2.60
  62  0.659  0.865  0.414-  86 0.00  37 2.42   6 2.45  36 2.45  42 2.52  35 2.52  56 2.88
  63  0.952  0.628  0.583-  93 2.42  12 2.45  56 2.45  59 2.45
  64  0.660  0.586  0.666-  60 2.45   7 2.45  57 2.45
  65  0.369  0.544  0.749-  55 2.45   7 2.45  77 2.45  58 2.45
  66  0.077  0.503  0.832-  59 2.45  78 2.45  77 2.45
  67  0.285  0.961  0.914-  14 2.19  79 2.45  54 2.45  84 2.45  38 2.60
  68  0.493  0.698  0.249-  11 2.45  10 2.45  34 2.45
  69  0.452  0.128  0.583-  51 2.42  94 2.42   1 2.45  31 2.45  81 2.45  42 2.45  35 2.45  53 2.45

  70  0.993  0.198  0.249-  25 2.45  82 2.45   4 2.45  28 2.45
  71  0.869  0.044  0.749-  49 2.45   5 2.45  52 2.45  83 2.45
  72  0.577  0.003  0.832-  84 2.45  83 2.45  53 2.45
  73  0.660  0.336  0.914-  32 2.19  61 2.45  89 2.45   8 2.60  45 2.72  20 2.85
  74  0.326  0.281  0.332-   1 2.42  31 2.42  16 2.45  51 2.45  94 2.45  48 2.45  13 2.45
  75  0.284  0.990  0.414-  76 0.00  81 2.42  17 2.45  51 2.45  94 2.45
  76  0.284  0.990  0.414-  75 0.00  81 2.42  17 2.45  51 2.45  94 2.45
  77  0.244  0.419  0.749-  87 2.45  65 2.45  90 2.45  66 2.45
  78  0.952  0.378  0.832-  88 2.45  85 2.45  66 2.45  61 2.45  20 2.72
  79  0.160  0.836  0.914-  26 2.19  67 2.45  95 2.45   2 2.60  39 2.72  14 2.85
  80  0.618  0.323  0.249-  23 2.45  24 2.45  45 2.45  48 2.45
  81  0.327  0.003  0.583-  75 2.42  76 2.42  41 2.45  69 2.45  43 2.45
  82  0.868  0.073  0.249-  21 2.45  70 2.45  24 2.45
  83  0.744  0.919  0.749-  72 2.45  71 2.45  96 2.45  37 2.45
  84  0.452  0.878  0.832-  72 2.45  43 2.45  67 2.45  91 2.45  14 2.72
  85  0.035  0.211  0.914-  38 2.19  49 2.45  78 2.45  54 2.45  20 2.60
  86  0.659  0.865  0.414-  62 0.00  37 2.42   6 2.45  36 2.45  42 2.52  35 2.52  56 2.88
  87  0.202  0.378  0.583-  13 2.42  77 2.45  12 2.45  31 2.45   1 2.45
  88  0.910  0.336  0.666-  78 2.45  52 2.45
  89  0.619  0.294  0.749-   7 2.45  52 2.45  53 2.45  73 2.45
  90  0.327  0.253  0.832-  53 2.45  54 2.45  77 2.45
  91  0.535  0.711  0.914-  44 2.19  60 2.45  84 2.45  55 2.45  14 2.60
  92  0.994  0.919  0.500-   5 2.45  56 2.45
  93  0.909  0.615  0.414-  63 2.42  50 2.45   6 2.45  30 2.45  56 2.52  12 2.88
  94  0.409  0.115  0.414-  51 0.00  69 2.42  74 2.45  75 2.45  76 2.45  36 2.45   1 2.52  31 2.52
                            42 2.88  35 2.88
  95  0.119  0.794  0.749-  79 2.45   5 2.45  58 2.45  59 2.45
  96  0.827  0.753  0.832-  83 2.45  59 2.45  60 2.45

  LATTYP: Found a base centered orthorhombic cell.
 ALAT       =    16.0026764918
 B/A-ratio  =     1.2247448613
 C/A-ratio  =     0.8707237428

  Lattice vectors:

 A1 = (  -2.5302453040, -12.3956203460,   0.0000000000)
 A2 = (  12.6512260440,   0.0000000000,   0.0000000000)
 A3 = (   0.0000000000,   0.0000000000,  13.9339103700)

Analysis of symmetry for initial positions (statically):
 Subroutine PRICEL returns:
 Original cell was already a primitive cell.

 Routine SETGRP: Setting up the symmetry group for a
 base centered orthorhombic supercell.

 Subroutine GETGRP returns: Found  2 space group operations
 (whereof  1 operations were pure point group operations)
 out of a pool of  8 trial point group operations.

The static configuration has the point symmetry C_1 .
 The point group associated with its full space group is S_2 .

Analysis of symmetry for dynamics (positions and initial velocities):
 Subroutine PRICEL returns:
 Original cell was already a primitive cell.

[...]

The dynamic configuration has the point symmetry C_1 .
 The point group associated with its full space group is S_2 .

Analysis of structural, dynamic, and magnetic symmetry:
 Subroutine PRICEL returns:
 Original cell was already a primitive cell.

 Routine SETGRP: Setting up the symmetry group for a
 base centered orthorhombic supercell.

 Subroutine GETGRP returns: Found  2 space group operations
 (whereof  1 operations were pure point group operations)
 out of a pool of  8 trial point group operations.

The overall configuration has the point symmetry C_1 .
 The point group associated with its full space group is S_2 .

 Subroutine INISYM returns: Found  2 space group operations
[...]
     0.000000000  0.000000000 13.933910370     0.000000000  0.000000000  0.071767363

  length of vectors
    12.651226044 12.651227018 13.933910370     0.080673661  0.080673655  0.071767363

 FORCES acting on ions
    electron-ion (+dipol)            ewald-force                    non-local-force                 convergence-correction
   -.161E+02 -.958E+02 -.421E+02   0.180E+02 0.983E+02 0.445E+02   -.405E+00 0.132E+00 -.367E+00   -.209E-04 0.103E-03 0.273E-04
   0.231E+02 0.386E+02 -.100E+02   -.230E+02 -.391E+02 0.104E+02   0.513E+00 -.224E+01 0.105E+01   -.120E-04 -.677E-05 -.414E-05
   0.195E+01 0.694E+01 0.250E+02   -.279E+01 -.776E+01 -.268E+02   0.406E+00 0.467E+00 0.823E+00   -.775E-05 -.870E-06 -.330E-04
   -.848E+01 -.129E+02 -.770E+01   0.837E+01 0.126E+02 0.762E+01   0.178E+00 0.242E+00 0.211E+00   -.368E-05 0.151E-04 -.540E-04
   -.471E+01 0.146E+01 0.124E+02   0.476E+01 -.165E+01 -.132E+02   -.392E-01 0.779E-01 0.785E+00   0.259E-04 -.114E-04 0.936E-04
   -.519E+02 0.229E+02 0.507E+02   0.528E+02 -.224E+02 -.517E+02   0.395E-01 -.271E+00 -.818E+00   0.163E-04 -.444E-04 -.767E-04
   -.707E+01 -.160E+02 0.416E+02   0.687E+01 0.160E+02 -.428E+02   0.137E-01 -.122E+00 0.734E+00   -.219E-04 0.311E-04 0.376E-04
   0.248E+02 0.257E+02 -.468E+01   -.242E+02 -.265E+02 0.522E+01   0.509E+00 -.228E+01 0.960E+00   0.290E-05 -.229E-04 -.846E-05
   0.894E+01 0.134E+01 0.480E+02   -.998E+01 -.211E+01 -.496E+02   0.444E+00 0.417E+00 0.708E+00   0.539E-05 0.986E-05 -.693E-04
   0.332E+01 0.193E+02 0.279E+01   -.305E+01 -.199E+02 -.305E+01   0.802E-01 0.463E+00 0.586E+00   0.101E-04 -.170E-04 -.893E-04
   0.171E+02 -.249E+02 -.335E+02   -.179E+02 0.254E+02 0.336E+02   0.895E-01 0.111E+00 0.413E+00   0.524E-05 -.559E-05 -.347E-04
   -.607E+01 -.268E+02 -.113E+02   0.733E+01 0.284E+02 0.125E+02   -.776E-01 -.440E-02 0.469E-01   0.576E-05 0.254E-05 0.263E-04
   0.509E+02 -.213E+02 0.158E+02   -.524E+02 0.200E+02 -.172E+02   -.228E+00 0.179E+00 -.139E+00   -.360E-05 0.643E-04 -.431E-05
   -.199E+02 0.126E+01 -.262E+02   0.202E+02 -.204E+01 0.281E+02   0.110E+01 -.130E+01 0.159E+01   0.217E-06 0.129E-04 -.320E-04
   0.255E+02 0.512E+01 -.158E+02   -.256E+02 -.559E+01 0.177E+02   -.696E+00 0.435E+00 -.536E+00   -.142E-04 -.546E-05 -.370E-04
   0.111E+02 -.167E+02 0.361E+02   -.108E+02 0.168E+02 -.359E+02   -.429E+00 -.469E-01 -.668E+00   0.180E-04 0.108E-04 -.925E-04
   0.340E+02 0.329E+02 0.188E+02   -.347E+02 -.333E+02 -.196E+02   0.368E+00 0.296E+00 -.614E+00   -.305E-04 -.284E-04 -.138E-03
   -.831E+02 -.642E+02 -.606E+01   0.873E+02 0.682E+02 0.577E+01   -.206E+01 -.220E+01 0.557E+00   0.434E-04 0.455E-04 0.774E-05
   -.246E+02 -.127E+02 0.330E+02   0.257E+02 0.134E+02 -.352E+02   -.816E+00 -.145E+00 0.120E+01   0.261E-05 -.415E-04 0.274E-04
   -.283E+02 -.122E+02 -.216E+02   0.288E+02 0.114E+02 0.237E+02   0.106E+01 -.121E+01 0.126E+01   0.238E-05 0.236E-05 -.599E-05
   0.953E+01 0.211E+02 -.768E+01   -.968E+01 -.217E+02 0.958E+01   -.443E+00 0.445E+00 -.392E+00   -.442E-05 -.751E-05 -.309E-04
   -.121E+02 0.103E+02 0.162E+02   0.122E+02 -.100E+02 -.170E+02   0.657E-01 -.860E-01 0.199E+00   0.167E-04 -.749E-05 -.504E-04
   -.232E+01 -.116E+02 -.213E+02   0.275E+01 0.120E+02 0.222E+02   -.249E+00 -.303E+00 -.933E+00   0.481E-05 0.221E-04 -.527E-04
   -.476E+02 -.373E+02 0.573E+02   0.480E+02 0.371E+02 -.588E+02   -.116E+00 0.602E+00 -.168E+01   0.245E-04 0.244E-04 -.159E-03
   0.397E+02 0.228E+01 -.291E+02   -.403E+02 -.298E+01 0.308E+02   -.940E-01 0.429E+00 -.936E+00   -.135E-04 0.502E-04 -.220E-04
   0.290E+02 0.358E+02 -.118E+02   -.286E+02 -.367E+02 0.123E+02   0.498E+00 -.211E+01 0.932E+00   -.190E-04 0.450E-05 -.214E-04
   0.125E+02 -.583E+01 0.325E+02   -.130E+02 0.526E+01 -.339E+02   0.128E+00 0.266E+00 0.458E+00   -.123E-04 0.110E-05 -.475E-04
   0.110E+02 -.422E+01 0.593E+01   -.109E+02 0.443E+01 -.643E+01   0.226E-01 0.444E-01 0.578E+00   -.138E-04 0.183E-04 -.932E-04
   0.166E+02 0.241E+02 -.343E+02   -.179E+02 -.254E+02 0.358E+02   0.722E+00 0.699E+00 -.486E+00   -.431E-04 -.278E-04 -.761E-04
   -.125E+02 -.283E+02 0.283E+02   0.128E+02 0.288E+02 -.291E+02   0.549E-01 0.121E+00 -.420E+00   -.152E-04 0.178E-04 -.436E-04
   -.161E+02 -.958E+02 -.421E+02   0.180E+02 0.983E+02 0.445E+02   -.405E+00 0.132E+00 -.367E+00   -.209E-04 0.103E-03 0.273E-04
   0.180E+02 0.291E+02 -.291E+01   -.179E+02 -.297E+02 0.335E+01   0.670E+00 -.221E+01 0.956E+00   -.760E-05 -.374E-05 -.999E-06
   -.102E+01 0.164E+02 0.388E+02   0.118E+00 -.172E+02 -.404E+02   0.372E+00 0.389E+00 0.666E+00   0.159E-04 -.715E-05 -.489E-04
   -.505E+01 -.627E+00 -.129E+02   0.468E+01 0.707E+00 0.130E+02   0.387E+00 0.647E-01 0.327E+00   0.242E-04 -.197E-05 -.334E-04
   -.247E+02 -.244E+01 -.474E+02   0.250E+02 0.302E+01 0.484E+02   -.102E+01 -.652E-01 0.130E+01   -.145E-04 -.636E-04 0.459E-04
   -.121E+02 0.118E+02 0.113E+03   0.123E+02 -.110E+02 -.115E+03   -.234E+00 0.154E+00 -.436E+01   0.296E-04 -.168E-04 -.150E-03
   -.294E+02 0.586E+02 -.817E+02   0.294E+02 -.592E+02 0.830E+02   0.137E+01 -.943E+00 0.382E+01   -.202E-05 -.650E-04 0.825E-04
   -.201E+02 -.581E+01 -.233E+02   0.204E+02 0.513E+01 0.251E+02   0.112E+01 -.134E+01 0.166E+01   -.124E-05 0.291E-05 -.293E-04
   0.209E+02 0.207E+02 -.220E+02   -.209E+02 -.211E+02 0.242E+02   -.541E+00 0.424E+00 -.902E+00   -.286E-04 -.975E-05 -.374E-04
   -.339E+01 -.118E+02 0.885E+01   0.360E+01 0.120E+02 -.956E+01   -.222E-01 -.591E-01 0.293E+00   -.163E-04 0.217E-04 -.543E-04
   0.307E+02 -.243E+02 0.766E+01   -.312E+02 0.259E+02 -.801E+01   0.337E-01 -.739E+00 0.395E-01   -.130E-04 0.204E-04 0.107E-03
   -.247E+02 -.244E+01 -.474E+02   0.250E+02 0.302E+01 0.484E+02   -.102E+01 -.652E-01 0.130E+01   -.145E-04 -.636E-04 0.459E-04
   0.138E+02 0.312E+02 0.184E+01   -.135E+02 -.316E+02 -.194E+01   -.320E+00 0.841E-01 -.227E+00   -.172E-05 -.298E-04 0.844E-04
   -.262E+02 -.691E+01 -.244E+02   0.270E+02 0.581E+01 0.266E+02   0.787E+00 -.106E+01 0.125E+01   0.186E-04 -.180E-05 0.553E-05
   0.161E+02 0.397E+01 -.535E+00   -.163E+02 -.468E+01 0.182E+01   -.544E+00 0.581E+00 0.293E-01   -.419E-05 -.178E-04 -.408E-04
   -.210E+01 0.127E+02 0.451E+02   0.256E+01 -.124E+02 -.451E+02   -.231E+00 -.127E+00 -.504E+00   0.238E-04 0.835E-05 -.109E-03
   -.831E+02 -.642E+02 -.606E+01   0.873E+02 0.682E+02 0.577E+01   -.206E+01 -.220E+01 0.557E+00   0.434E-04 0.455E-04 0.774E-05
   -.302E+02 -.695E+02 -.976E+01   0.310E+02 0.701E+02 0.104E+02   -.205E+00 -.129E+00 -.182E+00   0.164E-04 0.374E-04 -.377E-04
   0.201E+02 0.581E+01 0.233E+02   -.204E+02 -.513E+01 -.251E+02   -.112E+01 0.134E+01 -.166E+01   -.171E-05 -.117E-05 0.347E-04
   0.246E+02 0.127E+02 -.330E+02   -.257E+02 -.134E+02 0.352E+02   0.816E+00 0.145E+00 -.120E+01   -.308E-05 0.393E-04 -.334E-04
   0.247E+02 0.244E+01 0.474E+02   -.250E+02 -.302E+01 -.484E+02   0.102E+01 0.652E-01 -.130E+01   0.177E-04 0.660E-04 -.513E-04
   -.340E+02 -.329E+02 -.188E+02   0.347E+02 0.333E+02 0.196E+02   -.368E+00 -.296E+00 0.614E+00   0.298E-04 0.299E-04 0.136E-03
   0.210E+01 -.127E+02 -.451E+02   -.256E+01 0.124E+02 0.451E+02   0.231E+00 0.127E+00 0.504E+00   -.200E-04 -.790E-05 0.110E-03
   -.953E+01 -.211E+02 0.768E+01   0.968E+01 0.217E+02 -.958E+01   0.443E+00 -.445E+00 0.392E+00   0.307E-05 0.887E-05 0.348E-04
   0.262E+02 0.691E+01 0.244E+02   -.270E+02 -.581E+01 -.266E+02   -.787E+00 0.106E+01 -.125E+01   -.152E-04 0.181E-06 0.341E-06
   -.509E+02 0.213E+02 -.158E+02   0.524E+02 -.200E+02 0.172E+02   0.228E+00 -.179E+00 0.139E+00   0.124E-05 -.643E-04 -.150E-05
   0.302E+02 0.695E+02 0.976E+01   -.310E+02 -.701E+02 -.104E+02   0.205E+00 0.129E+00 0.182E+00   -.128E-04 -.393E-04 0.340E-04
   0.232E+01 0.116E+02 0.213E+02   -.275E+01 -.120E+02 -.222E+02   0.249E+00 0.303E+00 0.933E+00   -.412E-05 -.233E-04 0.518E-04
   0.339E+01 0.118E+02 -.885E+01   -.360E+01 -.120E+02 0.956E+01   0.222E-01 0.591E-01 -.293E+00   0.122E-04 -.221E-04 0.563E-04
   -.255E+02 -.512E+01 0.158E+02   0.256E+02 0.559E+01 -.177E+02   0.696E+00 -.435E+00 0.536E+00   0.156E-04 0.392E-05 0.416E-04
[...]
   -.111E+02 0.167E+02 -.361E+02   0.108E+02 -.168E+02 0.359E+02   0.429E+00 0.469E-01 0.668E+00   -.177E-04 -.980E-05 0.947E-04
   -.161E+02 -.397E+01 0.534E+00   0.163E+02 0.468E+01 -.182E+01   0.544E+00 -.581E+00 -.293E-01   0.781E-05 0.177E-04 0.455E-04
   -.231E+02 -.386E+02 0.100E+02   0.230E+02 0.391E+02 -.104E+02   -.513E+00 0.224E+01 -.105E+01   0.828E-05 0.822E-05 0.958E-05
   0.161E+02 0.958E+02 0.421E+02   -.180E+02 -.983E+02 -.445E+02   0.405E+00 -.132E+00 0.367E+00   0.235E-04 -.103E-03 -.332E-04
   0.519E+02 -.229E+02 -.507E+02   -.528E+02 0.224E+02 0.517E+02   -.395E-01 0.271E+00 0.818E+00   -.177E-04 0.436E-04 0.718E-04
   -.166E+02 -.241E+02 0.343E+02   0.179E+02 0.254E+02 -.358E+02   -.722E+00 -.699E+00 0.486E+00   0.397E-04 0.280E-04 0.739E-04
   -.332E+01 -.193E+02 -.279E+01   0.305E+01 0.199E+02 0.305E+01   -.802E-01 -.463E+00 -.586E+00   -.698E-05 0.165E-04 0.899E-04
   0.102E+01 -.164E+02 -.388E+02   -.118E+00 0.172E+02 0.404E+02   -.372E+00 -.389E+00 -.666E+00   -.143E-04 0.699E-05 0.525E-04
   -.248E+02 -.257E+02 0.468E+01   0.242E+02 0.265E+02 -.522E+01   -.509E+00 0.228E+01 -.960E+00   0.115E-05 0.214E-04 0.144E-04
   -.397E+02 -.228E+01 0.291E+02   0.403E+02 0.298E+01 -.308E+02   0.940E-01 -.429E+00 0.936E+00   0.963E-05 -.478E-04 0.164E-04
   0.607E+01 0.268E+02 0.113E+02   -.733E+01 -.284E+02 -.125E+02   0.776E-01 0.440E-02 -.469E-01   -.889E-05 -.461E-05 -.326E-04
   0.247E+02 0.244E+01 0.474E+02   -.250E+02 -.302E+01 -.484E+02   0.102E+01 0.652E-01 -.130E+01   0.177E-04 0.660E-04 -.513E-04
   0.848E+01 0.129E+02 0.770E+01   -.837E+01 -.126E+02 -.762E+01   -.178E+00 -.242E+00 -.211E+00   0.672E-06 -.143E-04 0.564E-04
   -.125E+02 0.583E+01 -.325E+02   0.130E+02 -.526E+01 0.339E+02   -.128E+00 -.266E+00 -.458E+00   0.106E-04 -.132E-05 0.524E-04
   -.110E-01 -.277E-02 0.536E-03   0.924E-13 0.179E-12 0.405E-12   0.114E-14 -.555E-16 -.444E-15   0.833E-05 0.822E-05 -.199E-05

 POSITION                                       TOTAL-FORCE (eV/Angst)
      5.40970      3.64651      6.96696         1.464929      2.629395      2.070786
     14.95649     11.75269      0.00000         0.644547     -2.751503      1.400977
     13.69137      8.13730      1.15489        -0.431034     -0.343369     -0.952707
     12.42624      4.52191      2.30979         0.073205      0.000405      0.139427
      2.87945     11.91026      9.27675         0.011051     -0.113539     -0.055047
     12.42624      9.68675      4.61958         0.993173      0.268601     -1.874254
      7.93994      5.71245      9.27675        -0.189476     -0.147621     -0.465696
      7.36576      5.55488      0.00000         1.051200     -3.057705      1.499855
      6.10063      1.93949      1.15489        -0.600708     -0.359779     -0.880972
      7.36575     10.71972      2.30979         0.344318     -0.147274      0.331099
      6.10063      7.10433      3.46468        -0.690595      0.618523      0.486670
      2.87946      6.74542      6.96696         1.176637      1.547765      1.314604
      2.93782      4.52191      5.77447        -1.739308     -1.092789     -1.576232
      6.73320     10.20324      0.00000         1.425639     -2.084465      3.468077
      5.46807      6.58785      1.15489        -0.795080     -0.035400      1.344586
      4.20295      2.97246      2.30979        -0.065359      0.048252     -0.526925
      5.46807     11.75269      3.46468        -0.272516     -0.128669     -1.422204
      9.83763      2.09706      6.96696         2.118720      1.735975      0.270238
      4.77714      8.29487      6.96696         0.242539      0.620754     -0.943455
     11.79369      4.00543      0.00000         1.568166     -1.990199      3.325785
     10.52856      0.39004      1.15489        -0.591120     -0.127325      1.499600
     11.79368      9.17027      2.30979         0.186787      0.159177     -0.560804
     10.52856      5.55488      3.46468         0.183778      0.179074     -0.048403
      9.26344      1.93949      4.61958         0.339878      0.436809     -3.164583
      1.04014      2.97245      5.77447        -0.731181     -0.274033      0.806501
      4.83551      8.65379      0.00000         0.973903     -3.034538      1.412543
      3.57039      5.03840      1.15489        -0.439395     -0.308496     -0.869743
      2.30526      1.42300      2.30979         0.192324      0.261275      0.076341
      3.57039     10.20324      3.46468        -0.593771     -0.568066      1.073579
      2.30526      6.58784      4.61958         0.391125      0.650282     -1.281739
      5.40970      3.64651      6.96696         1.464929      2.629395      2.070786
      9.89600      2.45598      0.00000         0.807683     -2.891195      1.400603
     11.16112     11.23620      1.15489        -0.530907     -0.433816     -0.973624
      9.89600      7.62081      2.30979         0.020437      0.145133      0.361367
      7.93995      0.54761      6.96696        -0.706508      0.515295      2.333496
      7.36575      0.39003      4.61958        -0.044061      0.901931     -6.403616
     11.10275     10.87729      8.12185         1.302215     -1.516457      5.159002
      1.67271      0.90652      0.00000         1.499098     -2.015078      3.481703
      2.93783      9.68675      1.15489        -0.542822      0.042848      1.307963
      1.67270      6.07136      2.30979         0.184734      0.181443     -0.417320
      2.24689      1.06409      9.27675        -0.480770      0.901136     -0.316380
      7.93995      0.54761      6.96696        -0.706508      0.515295      2.333496
      7.30738     10.36081      9.27675        -0.020160     -0.305007     -0.324387
      9.26344      7.10433      0.00000         1.582202     -2.165050      3.432071
      7.99832      3.48894      1.15489        -0.761862     -0.126291      1.318768
      9.26344     12.26917      2.30979         0.228804      0.182883     -0.457222
      9.83763      2.09706      6.96696         2.118720      1.735975      0.270238
      6.73319      5.03839      4.61958         0.593128      0.445838      0.427936
     11.73531      1.06409     12.74143        -1.499098      2.015078     -3.481703
     11.16112      6.07136      5.77447        -0.242539     -0.620754      0.943455
      5.46807      1.42300      5.77447         0.706508     -0.515295     -2.333496
     10.47019      2.61354      9.27675         0.272516      0.128669      1.422204
      6.67482      2.09706     10.43164        -0.228804     -0.182883      0.457222
      2.87945      1.58057     11.58653         0.591120      0.127325     -1.499600
      6.67482      7.26190     12.74143        -1.582202      2.165050     -3.432071
     13.00044      9.84432      6.96696         1.739308      1.092789      1.576232
      9.20507      9.32784      8.12185        -0.593128     -0.445838     -0.427936
      5.40970      8.81136      9.27675        -0.183778     -0.179074      0.048403
     14.26556      8.29487     10.43164        -0.184734     -0.181443      0.417320
     10.47019      7.77838     11.58653         0.795080      0.035400     -1.344586
[...]
     11.16112      0.90652      3.46468         0.480770     -0.901136      0.316380
     11.73531     11.39378     10.43164         0.065359     -0.048252      0.526925
      7.93994     10.87729     11.58653         0.761862      0.126291     -1.318768
      0.98176      2.61354     12.74143        -0.644547      2.751503     -1.400977
     10.52856     10.71972      5.77447        -1.464929     -2.629395     -2.070786
      3.51202      4.67948      8.12185        -0.993173     -0.268601      1.874254
     12.36787      4.16300      9.27675         0.593771      0.568066     -1.073579
      8.57250      3.64651     10.43164        -0.344318      0.147274     -0.331099
      4.77714      3.13003     11.58653         0.530907      0.433816      0.973624
      8.57250      8.81135     12.74143        -1.051200      3.057705     -1.499855
     14.89812     11.39378      6.96696         0.731181      0.274033     -0.806501
     13.05880      7.62081      5.77447        -1.176637     -1.547765     -1.314604
      5.46807      1.42300      5.77447         0.706508     -0.515295     -2.333496
      3.51202      9.84432     10.43164        -0.073205     -0.000405     -0.139427
     12.36787      9.32784     11.58653         0.439395      0.308496      0.869743
    total drift:                               -0.010984     -0.002761      0.000534

  FREE ENERGIE OF THE ION-ELECTRON SYSTEM (eV)
  free  energy   TOTEN  =     -1191.97994236 eV

  energy  without entropy=    -1191.97764564  energy(sigma->0) =    -1191.97879400