 vasp.6.4.3 19Mar24 (build Oct 22 2024 11:23:12) complex

 executed on             LinuxIFC date 2025.04.30  10:06:10

 INCAR:
   SYSTEM = Si011 and Ge011 interface calculation
   ISTART = 0
   ICHARG = 2
   LWAVE = .FALSE.
   LREAL = AUTO
   ENCUT = 700
   ENAUG = 900
   ADDGRID = .TRUE.
   LMAXMIX = 6
   LASPH = .TRUE.
   LMIXTAU = .TRUE.
   NCORE = 16
   NELM = 100
   NBANDS = 116
   EDIFF = 1d-7
   AMIX = 0.6
   ISMEAR = 0
   SIGMA = 0.01
   NELECT = 192
   ISPIN = 2
   NUPDOWN = 1
   LVTOT = .FALSE.
   LVHAR = .TRUE.

 POTCAR:    PAW_PBE Si 05Jan2001
 POTCAR:    PAW_PBE Ge 05Jan2001
|           W    W    AA    RRRRR   N    N  II  N    N   GGGG   !!!           |
|           W    W   A  A   R    R  NN   N  II  NN   N  G    G  !!!           |
|           W    W  A    A  R    R  N N  N  II  N N  N  G       !!!           |
|           W WW W  AAAAAA  RRRRR   N  N N  II  N  N N  G  GGG   !            |
|           WW  WW  A    A  R   R   N   NN  II  N   NN  G    G                |
|           W    W  A    A  R    R  N    N  II  N    N   GGGG   !!!           |
|     You use a magnetic or noncollinear calculation, but did not specify     |
|     the initial magnetic moment with the MAGMOM tag. Note that a            |
|     default of 0.021 will be used for all atoms. This ferromagnetic         |
|     setup may break the symmetry of the crystal, in particular it may       |
|     rule out finding an antiferromagnetic solution. Thence, we              |
|     recommend setting the initial magnetic moment manually or verifying     |
|     carefully that this magnetic setup is desired.                          |

 POTCAR:    PAW_PBE Si 05Jan2001
   VRHFIN =Si: s2p2

   TITEL  = PAW_PBE Si 05Jan2001
   POMASS =   28.085; ZVAL   =    4.000    mass and valenz
   ENMAX  =  245.345; ENMIN  =  184.009 eV

 POTCAR:    PAW_PBE Ge 05Jan2001
   VRHFIN =Ge: s2p2

   TITEL  = PAW_PBE Ge 05Jan2001
   POMASS =   72.610; ZVAL   =    4.000    mass and valenz
   ENMAX  =  173.807; ENMIN  =  130.355 eV

 Optimization of the real space projectors (new method)

 maximal supplied QI-value         = 19.84
 optimisation between [QCUT,QGAM] = [ 13.49, 26.99] = [ 50.98,203.92] Ry
 Optimized for a Real-space Cutoff    1.07 Angstroem

   l    n(q)    QCUT    max X(q) W(low)/X(q) W(high)/X(q)  e(spline)
   0      9    13.493   159.560    0.22E-03    0.15E-03    0.72E-07
   0      9    13.493   115.863    0.21E-03    0.15E-03    0.71E-07
   1      8    13.493    88.339    0.15E-03    0.11E-03    0.13E-06
   1      8    13.493    48.592    0.15E-03    0.10E-03    0.13E-06
 Optimization of the real space projectors (new method)

 maximal supplied QI-value         = 16.25
 optimisation between [QCUT,QGAM] = [ 13.49, 26.98] = [ 50.95,203.80] Ry
 Optimized for a Real-space Cutoff    1.25 Angstroem

   l    n(q)    QCUT    max X(q) W(low)/X(q) W(high)/X(q)  e(spline)
   0     10    13.489    65.336    0.91E-04    0.11E-03    0.34E-06
   0     10    13.489    52.220    0.89E-04    0.11E-03    0.34E-06
   1     10    13.489    36.409    0.22E-03    0.27E-03    0.14E-06
   1     10    13.489    21.334    0.21E-03    0.27E-03    0.14E-06
   2      9    13.489     4.673    0.11E-03    0.12E-03    0.19E-06
  PAW_PBE Si 05Jan2001                  :
  PAW_PBE Ge 05Jan2001                  :

 POSCAR: fcc Si+fcc Ge
  positions in direct lattice

 exchange-correlation table for PE
   RHO(1)=    0.500       N(1)  =     2000
   RHO(2)=  100.500       N(2)  =     4000

 ion  position               nearest neighbor table
   1  0.000  0.000  0.000-  14 2.37  13 2.37  19 2.37  42 2.46
   2  0.250  0.750  0.079-  19 2.37  14 2.37  20 2.37  15 2.37
   3  0.500  0.500  0.158-  16 2.37  15 2.37  21 2.37  20 2.37
   4  0.750  0.250  0.237-  21 2.37  17 2.37  16 2.37  22 2.37
   5  0.000  0.000  0.316-  18 2.37  22 2.37  17 2.37  23 2.37
   6  0.250  0.750  0.396-  23 2.37  18 2.37  24 2.37  37 2.46
   7  0.500  0.500  0.000-  20 2.37  19 2.37  13 2.37  48 2.46
   8  0.750  0.250  0.079-  13 2.37  20 2.37  14 2.37  21 2.37
   9  0.000  0.000  0.158-  22 2.37  21 2.37  15 2.37  14 2.37
  10  0.250  0.750  0.237-  15 2.37  23 2.37  22 2.37  16 2.37
  11  0.500  0.500  0.316-  24 2.37  16 2.37  23 2.37  17 2.37
  12  0.750  0.250  0.396-  17 2.37  24 2.37  18 2.37  43 2.46
  13  0.000  0.250  0.000-   8 2.37   7 2.37   1 2.37  30 2.46
  14  0.250  0.000  0.079-   1 2.37   2 2.37   8 2.37   9 2.37
  15  0.500  0.750  0.158-  10 2.37   9 2.37   3 2.37   2 2.37
  16  0.750  0.500  0.237-   3 2.37  11 2.37  10 2.37   4 2.37
  17  0.000  0.250  0.316-  12 2.37   4 2.37  11 2.37   5 2.37
  18  0.250  0.000  0.396-   5 2.37   6 2.37  12 2.37  25 2.46
  19  0.500  0.750  0.000-   2 2.37   1 2.37   7 2.37  36 2.46
  20  0.750  0.500  0.079-   7 2.37   2 2.37   8 2.37   3 2.37
  21  0.000  0.250  0.158-   4 2.37   3 2.37   9 2.37   8 2.37
  22  0.250  0.000  0.237-   9 2.37   5 2.37   4 2.37  10 2.37
  23  0.500  0.750  0.316-   6 2.37  10 2.37   5 2.37  11 2.37
  24  0.750  0.500  0.396-  11 2.37   6 2.37  12 2.37  31 2.46
  25  0.167  0.011  0.494-  37 2.37  43 2.37  38 2.43  18 2.46
  26  0.917  0.261  0.575-  38 2.37  44 2.37  39 2.43  43 2.43
  27  0.667  0.511  0.657-  39 2.37  45 2.37  44 2.43  40 2.43
  28  0.417  0.761  0.739-  40 2.37  46 2.37  45 2.43  41 2.43
  29  0.167  0.011  0.820-  41 2.37  47 2.37  42 2.43  46 2.43
  30  0.917  0.261  0.902-  42 2.37  48 2.37  47 2.43  13 2.46
  31  0.667  0.511  0.494-  37 2.37  43 2.37  44 2.43  24 2.46
  32  0.417  0.761  0.575-  38 2.37  44 2.37  45 2.43  37 2.43
  33  0.167  0.011  0.657-  39 2.37  45 2.37  38 2.43  46 2.43
  34  0.917  0.261  0.739-  40 2.37  46 2.37  39 2.43  47 2.43
  35  0.667  0.511  0.820-  41 2.37  47 2.37  48 2.43  40 2.43
  36  0.417  0.761  0.902-  42 2.37  48 2.37  41 2.43  19 2.46
  37  0.167  0.761  0.494-  25 2.37  31 2.37  32 2.43   6 2.46
  38  0.917  0.011  0.575-  26 2.37  32 2.37  33 2.43  25 2.43
  39  0.667  0.261  0.657-  27 2.37  33 2.37  34 2.43  26 2.43
  40  0.417  0.511  0.739-  28 2.37  34 2.37  35 2.43  27 2.43
  41  0.167  0.761  0.820-  29 2.37  35 2.37  36 2.43  28 2.43
  42  0.917  0.011  0.902-  30 2.37  36 2.37  29 2.43   1 2.46
  43  0.667  0.261  0.494-  31 2.37  25 2.37  26 2.43  12 2.46
  44  0.417  0.511  0.575-  32 2.37  26 2.37  27 2.43  31 2.43
  45  0.167  0.761  0.657-  33 2.37  27 2.37  28 2.43  32 2.43
  46  0.917  0.011  0.739-  34 2.37  28 2.37  29 2.43  33 2.43
  47  0.667  0.261  0.820-  35 2.37  29 2.37  30 2.43  34 2.43
  48  0.417  0.511  0.902-  36 2.37  30 2.37  35 2.43   7 2.46

  LATTYP: Found a simple orthorhombic cell.
 ALAT       =     5.4800000000
 B/A-ratio  =     1.4142135624
 C/A-ratio  =     4.4695116526

  Lattice vectors:

 A1 = (   5.4800000000,   0.0000000000,   0.0000000000)
 A2 = (   0.0000000000,   7.7498903220,   0.0000000000)
 A3 = (   0.0000000000,   0.0000000000,  24.4929238560)

Analysis of symmetry for initial positions (statically):
 Subroutine PRICEL returns following result:

[...]

   2 primitive cells build up your supercell.

 Routine SETGRP: Setting up the symmetry group for a
 simple orthorhombic supercell.

 Subroutine GETGRP returns: Found  2 space group operations
 (whereof  1 operations were pure point group operations)
 out of a pool of  8 trial point group operations.

The static configuration has the point symmetry C_1 .
 The point group associated with its full space group is C_1h.

Analysis of symmetry for dynamics (positions and initial velocities):
 Subroutine PRICEL returns following result:

[...]

The dynamic configuration has the point symmetry C_1 .
 The point group associated with its full space group is C_1h.

Analysis of structural, dynamic, and magnetic symmetry:
 Subroutine PRICEL returns following result:

  LATTYP: Found a simple orthorhombic cell.
 ALAT       =     3.8749451610
 B/A-ratio  =     1.4142135623
 C/A-ratio  =     6.3208439961

  Lattice vectors:

 A1 = (   0.0000000000,   3.8749451610,   0.0000000000)
 A2 = (  -5.4800000000,  -0.0000000000,   0.0000000000)
 A3 = (   0.0000000000,   0.0000000000,  24.4929238560)

   2 primitive cells build up your supercell.

 Routine SETGRP: Setting up the symmetry group for a
 simple orthorhombic supercell.

 Subroutine GETGRP returns: Found  2 space group operations
 (whereof  1 operations were pure point group operations)
 out of a pool of  8 trial point group operations.

The overall configuration has the point symmetry C_1 .
 The point group associated with its full space group is C_1h.

 Subroutine INISYM returns: Found  2 space group operations
 (whereof  1 operations are pure point group operations),
 and found     2 'primitive' translations

                                     Primitive cell

  volume of cell :     520.0999

  direct lattice vectors                    reciprocal lattice vectors
     0.000000000  3.874945161  0.000000000    -0.000000000  0.258068168  0.000000000
    -5.480000000 -0.000000000  0.000000000    -0.182481752  0.000000000  0.000000000
     0.000000000  0.000000000 24.492923856     0.000000000  0.000000000  0.040828119

  length of vectors
     3.874945161  5.480000000 24.492923856     0.258068168  0.182481752  0.040828119

  position of ions in fractional coordinates (direct lattice)
     0.000000000  0.000000000  0.000000000
     0.500000000  0.500000000  0.079103360
     0.000000000  0.000000000  0.158206721
     0.500000000  0.500000000  0.237310081
     0.000000000  0.000000000  0.316413441
     0.500000000  0.500000000  0.395516801
     0.500000000  0.250000000  0.000000000
     1.000000000  0.750000000  0.079103360
     0.500000000  0.250000000  0.158206721
     1.000000000  0.750000000  0.237310081
     0.500000000  0.250000000  0.316413441
     1.000000000  0.750000000  0.395516801
     0.021276596  0.843971631  0.493504286
     0.521276596  0.343971631  0.575205932
     0.021276596  0.843971631  0.656907578
     0.521276596  0.343971631  0.738609224
     0.021276596  0.843971631  0.820310870
     0.521276596  0.343971631  0.902012515
     0.521276596  0.593971631  0.493504286
     0.021276596  0.093971631  0.575205932
     0.521276596  0.593971631  0.656907578
     0.021276596  0.093971631  0.738609224
     0.521276596  0.593971631  0.820310870
     0.021276596  0.093971631  0.902012515

  ion indices of the primitive-cell ions
   primitive index   ion index
                 1           1
                 2           2
                 3           9
                 4           4
                 5           5
                 6           6
                 7          13
                 8          14
                 9          21
                10          22
                11          17
                12          18
                13          25
                14          26
                15          33
                16          34
                17          29
                18          30
                19          37
                20          38
                21          45
                22          46
                23          41
                24          42

 KPOINTS: Automatic KPOINTS generated

Automatic generation of k-mesh.
[...]
     42      -1.7452      1.00000
     43      -1.0100      1.00000
     44      -0.6233      1.00000
     45      -0.2218      1.00000
     46      -0.1845      1.00000
     47       0.2572      1.00000
     48       0.2599      1.00000
     49       0.3495      1.00000
     50       0.4812      1.00000
     51       0.4915      1.00000
     52       0.7204      1.00000
     53       0.7999      1.00000
     54       1.0383      1.00000
     55       1.0901      1.00000
     56       1.1212      1.00000
     57       1.2063      1.00000
     58       1.2450      1.00000
     59       1.2886      1.00000
     60       1.3528      1.00000
[...]
    102       5.5875      0.00000
    103       5.9315      0.00000
    104       6.0325      0.00000
    105       6.2238      0.00000
    106       6.2648      0.00000
    107       6.2881      0.00000
    108       6.2946      0.00000
    109       6.4706      0.00000
    110       6.5263      0.00000
    111       6.5582      0.00000
    112       6.6051      0.00000
    113       6.7960      0.00000
    114       6.8561      0.00000
    115       6.9270      0.00000
    116       7.2075      0.00000
 Fermi energy:         4.2505720137

 spin component 2

[...]

 k-point    15 :       0.4286    0.5000    0.0000
  band No.  band energies     occupation
      1      -7.6336      1.00000
      2      -7.4427      1.00000
      3      -7.2028      1.00000
      4      -6.9732      1.00000
      5      -6.7128      1.00000
      6      -6.5751      1.00000
      7      -6.3984      1.00000
      8      -6.1395      1.00000
      9      -5.9879      1.00000
     10      -5.8815      1.00000
     11      -5.7502      1.00000
     12      -5.7274      1.00000
     13      -5.5811      1.00000
     14      -5.4070      1.00000
     15      -5.3015      1.00000
     16      -5.1666      1.00000
     17      -4.9629      1.00000
     18      -4.9530      1.00000
     19      -4.8651      1.00000
     20      -4.7571      1.00000
     21      -4.6550      1.00000
     22      -4.5622      1.00000
     23      -4.0570      1.00000
     24      -3.9195      1.00000
     25      -3.8802      1.00000
     26      -3.7364      1.00000
     27      -3.2891      1.00000
     28      -3.1712      1.00000
     29      -3.0799      1.00000
     30      -2.9822      1.00000
     31      -2.8612      1.00000
     32      -2.7106      1.00000
     33      -2.4753      1.00000
     34      -2.3253      1.00000
     35      -2.1831      1.00000
     36      -2.1713      1.00000
     37      -2.0961      1.00000
     38      -2.0623      1.00000
     39      -1.9166      1.00000
     40      -1.8397      1.00000
     41      -1.7747      1.00000
     42      -1.7243      1.00000
     43      -0.9923      1.00000
     44      -0.6039      1.00000
     45      -0.2042      1.00000
     46      -0.1655      1.00000
     47       0.2747      1.00000
     48       0.2798      1.00000
     49       0.3687      1.00000
     50       0.5040      1.00000
     51       0.5107      1.00000
     52       0.7360      1.00000
     53       0.8157      1.00000
     54       1.0621      1.00000
     55       1.1113      1.00000
     56       1.1395      1.00000
     57       1.2287      1.00000
     58       1.2638      1.00000
     59       1.3086      1.00000
     60       1.3737      1.00000
[...]
    102       5.6097      0.00000
    103       5.9505      0.00000
    104       6.0514      0.00000
    105       6.2385      0.00000
    106       6.2886      0.00000
    107       6.3026      0.00000
    108       6.3173      0.00000
    109       6.4851      0.00000
    110       6.5463      0.00000
    111       6.5764      0.00000
    112       6.6227      0.00000
    113       6.8191      0.00000
    114       6.8747      0.00000
    115       6.9450      0.00000
    116       7.2327      0.00000

 soft charge-density along one line, spin component           1
         0         1         2         3         4         5         6         7         8         9
 total charge-density along one line

 soft charge-density along one line, spin component           2
         0         1         2         3         4         5         6         7         8         9
 total charge-density along one line

------------------------ aborting loop because EDIFF is reached ----------------------------------------

  FORCE on cell =-STRESS in cart. coord.  units (eV):
  Direction    XX          YY          ZZ          XY          YZ          ZX
  Alpha Z   248.95637   248.95637   248.95637
  Ewald   -1979.60176 -1520.00135 -1694.81886    -2.95227    -0.00000    -0.00000
  Hartree    74.01340   279.81935   143.95010    -0.67917    -0.00000     0.00000
  E(xc)    -638.59560  -639.51116  -637.45021    -0.00366     0.00000     0.00000
  Local    -400.31820 -1064.48409  -744.72025     3.64241     0.00000    -0.00000
  n-local  1410.82132  1430.45683  1418.78048    -0.14750    -0.07283     0.04452
  augment  -111.22212  -111.99148  -110.70362     0.02243    -0.00000     0.00000
  Kinetic  1433.41743  1420.17001  1391.17580     0.13677     0.00025     0.00027
  Fock        0.00000     0.00000     0.00000     0.00000     0.00000     0.00000
  Total      37.47084    43.41448    15.16980     0.01901     0.00000     0.00000
  in kB      57.71480    66.86955    23.36543     0.02928     0.00000     0.00000

 VOLUME and BASIS-vectors are now :
  energy-cutoff  :      700.00
  volume of cell :     1040.20
      direct lattice vectors                 reciprocal lattice vectors
     5.480000000  0.000000000  0.000000000     0.182481752  0.129034084  0.000000000
    -5.480000000  7.749890322  0.000000000     0.000000000  0.129034084  0.000000000
     0.000000000  0.000000000 24.492923856     0.000000000  0.000000000  0.040828119

  length of vectors
     5.480000000  9.491638426 24.492923856     0.223493590  0.129034084  0.040828119

 FORCES acting on ions
    electron-ion (+dipol)            ewald-force                    non-local-force                 convergence-correction
   -.305E+02 0.405E+00 0.200E+02   0.277E+02 -.410E+00 -.193E+02   0.239E+01 0.441E-02 -.749E+00   -.425E-04 -.476E-05 0.296E-03
   0.285E+01 0.404E-01 0.219E+02   -.257E+01 -.759E-02 -.225E+02   -.389E+00 -.329E-02 0.486E+00   -.116E-04 -.215E-05 0.211E-03
   -.359E+00 0.161E-01 0.678E+01   0.256E+00 -.167E-03 -.672E+01   -.292E-01 -.106E-02 -.153E+00   0.265E-05 -.293E-05 0.521E-04
   -.359E+00 0.161E-01 -.678E+01   0.256E+00 -.167E-03 0.672E+01   -.292E-01 -.106E-02 0.153E+00   0.265E-05 -.293E-05 -.521E-04
   0.285E+01 0.404E-01 -.219E+02   -.257E+01 -.759E-02 0.225E+02   -.389E+00 -.329E-02 -.486E+00   -.116E-04 -.215E-05 -.211E-03
   -.305E+02 0.405E+00 -.200E+02   0.277E+02 -.410E+00 0.193E+02   0.239E+01 0.441E-02 0.749E+00   -.425E-04 -.476E-05 -.296E-03
   -.305E+02 0.405E+00 0.200E+02   0.277E+02 -.410E+00 -.193E+02   0.239E+01 0.441E-02 -.749E+00   -.425E-04 -.476E-05 0.296E-03
   0.285E+01 0.404E-01 0.219E+02   -.257E+01 -.759E-02 -.225E+02   -.389E+00 -.329E-02 0.486E+00   -.116E-04 -.215E-05 0.211E-03
   -.359E+00 0.161E-01 0.678E+01   0.256E+00 -.167E-03 -.672E+01   -.292E-01 -.106E-02 -.153E+00   0.265E-05 -.293E-05 0.521E-04
   -.359E+00 0.161E-01 -.678E+01   0.256E+00 -.167E-03 0.672E+01   -.292E-01 -.106E-02 0.153E+00   0.265E-05 -.293E-05 -.521E-04
   0.285E+01 0.404E-01 -.219E+02   -.257E+01 -.759E-02 0.225E+02   -.389E+00 -.329E-02 -.486E+00   -.116E-04 -.215E-05 -.211E-03
   -.305E+02 0.405E+00 -.200E+02   0.277E+02 -.410E+00 0.193E+02   0.239E+01 0.441E-02 0.749E+00   -.425E-04 -.476E-05 -.296E-03
   0.180E+02 0.239E+00 0.142E+02   -.163E+02 -.145E+00 -.130E+02   -.211E+01 -.765E-01 -.299E+00   0.343E-04 0.496E-05 0.297E-03
   -.869E+00 -.292E-01 0.243E+02   0.164E+01 -.145E-02 -.235E+02   -.513E+00 0.422E-01 -.832E+00   0.129E-04 0.227E-05 0.213E-03
   0.331E+00 -.282E-01 0.660E+01   -.163E+00 -.336E-04 -.661E+01   -.124E+00 0.167E-01 0.968E-02   -.188E-05 0.293E-05 0.505E-04
   0.331E+00 -.282E-01 -.660E+01   -.163E+00 -.336E-04 0.661E+01   -.124E+00 0.167E-01 -.968E-02   -.188E-05 0.293E-05 -.505E-04
   -.869E+00 -.292E-01 -.243E+02   0.164E+01 -.145E-02 0.235E+02   -.513E+00 0.422E-01 0.832E+00   0.129E-04 0.227E-05 -.213E-03
   0.180E+02 0.239E+00 -.142E+02   -.163E+02 -.145E+00 0.130E+02   -.211E+01 -.765E-01 0.299E+00   0.343E-04 0.496E-05 -.297E-03
   0.180E+02 0.239E+00 0.142E+02   -.163E+02 -.145E+00 -.130E+02   -.211E+01 -.765E-01 -.299E+00   0.343E-04 0.496E-05 0.297E-03
   -.869E+00 -.292E-01 0.243E+02   0.164E+01 -.145E-02 -.235E+02   -.513E+00 0.422E-01 -.832E+00   0.129E-04 0.227E-05 0.213E-03
   0.331E+00 -.282E-01 0.660E+01   -.163E+00 -.336E-04 -.661E+01   -.124E+00 0.167E-01 0.968E-02   -.188E-05 0.293E-05 0.505E-04
   0.331E+00 -.282E-01 -.660E+01   -.163E+00 -.336E-04 0.661E+01   -.124E+00 0.167E-01 -.968E-02   -.188E-05 0.293E-05 -.505E-04
   -.869E+00 -.292E-01 -.243E+02   0.164E+01 -.145E-02 0.235E+02   -.513E+00 0.422E-01 0.832E+00   0.129E-04 0.227E-05 -.213E-03
   0.180E+02 0.239E+00 -.142E+02   -.163E+02 -.145E+00 0.130E+02   -.211E+01 -.765E-01 0.299E+00   0.343E-04 0.496E-05 -.297E-03
   0.299E+02 -.370E+00 -.194E+01   -.289E+02 0.411E+00 0.151E+01   -.158E+01 -.117E-01 -.941E-01   0.243E-04 0.409E-05 -.313E-04
   -.779E-01 -.175E-01 0.905E+01   -.133E+00 0.670E-02 -.953E+01   -.190E+00 -.665E-02 0.387E+00   -.528E-05 0.180E-05 0.114E-03
   0.273E+01 -.101E-01 0.248E+01   -.265E+01 0.129E-03 -.251E+01   -.403E+00 0.398E-02 -.611E-01   0.378E-06 0.227E-05 0.594E-04
   0.273E+01 -.101E-01 -.248E+01   -.265E+01 0.129E-03 0.251E+01   -.403E+00 0.398E-02 0.611E-01   0.378E-06 0.227E-05 -.594E-04
   -.779E-01 -.175E-01 -.905E+01   -.133E+00 0.670E-02 0.953E+01   -.190E+00 -.665E-02 -.387E+00   -.528E-05 0.180E-05 -.114E-03
   0.299E+02 -.370E+00 0.194E+01   -.289E+02 0.411E+00 -.151E+01   -.158E+01 -.117E-01 0.941E-01   0.243E-04 0.409E-05 0.313E-04
   0.299E+02 -.370E+00 -.194E+01   -.289E+02 0.411E+00 0.151E+01   -.158E+01 -.117E-01 -.941E-01   0.243E-04 0.409E-05 -.313E-04
   -.779E-01 -.175E-01 0.905E+01   -.133E+00 0.670E-02 -.953E+01   -.190E+00 -.665E-02 0.387E+00   -.528E-05 0.180E-05 0.114E-03
   0.273E+01 -.101E-01 0.248E+01   -.265E+01 0.129E-03 -.251E+01   -.403E+00 0.398E-02 -.611E-01   0.378E-06 0.227E-05 0.594E-04
   0.273E+01 -.101E-01 -.248E+01   -.265E+01 0.129E-03 0.251E+01   -.403E+00 0.398E-02 0.611E-01   0.378E-06 0.227E-05 -.594E-04
   -.779E-01 -.175E-01 -.905E+01   -.133E+00 0.670E-02 0.953E+01   -.190E+00 -.665E-02 -.387E+00   -.528E-05 0.180E-05 -.114E-03
   0.299E+02 -.370E+00 0.194E+01   -.289E+02 0.411E+00 -.151E+01   -.158E+01 -.117E-01 0.941E-01   0.243E-04 0.409E-05 0.313E-04
   -.178E+02 -.207E+00 -.761E+01   0.175E+02 0.145E+00 0.769E+01   0.161E+01 0.312E-01 0.318E+00   0.438E-05 -.405E-05 -.449E-04
   -.159E+01 0.423E-02 0.109E+02   0.989E+00 0.128E-02 -.105E+02   0.817E+00 -.255E-01 -.462E+00   -.101E-04 -.133E-05 0.118E-03
   -.270E+01 0.193E-01 0.236E+01   0.257E+01 0.260E-04 -.241E+01   0.566E+00 -.744E-02 0.555E-01   0.149E-05 -.209E-05 0.538E-04
   -.270E+01 0.193E-01 -.236E+01   0.257E+01 0.260E-04 0.241E+01   0.566E+00 -.744E-02 -.555E-01   0.149E-05 -.209E-05 -.537E-04
   -.159E+01 0.423E-02 -.109E+02   0.989E+00 0.128E-02 0.105E+02   0.817E+00 -.255E-01 0.462E+00   -.101E-04 -.133E-05 -.118E-03
   -.178E+02 -.207E+00 0.761E+01   0.175E+02 0.145E+00 -.769E+01   0.161E+01 0.312E-01 -.318E+00   0.438E-05 -.405E-05 0.449E-04
   -.178E+02 -.207E+00 -.761E+01   0.175E+02 0.145E+00 0.769E+01   0.161E+01 0.312E-01 0.318E+00   0.438E-05 -.405E-05 -.449E-04
   -.159E+01 0.423E-02 0.109E+02   0.989E+00 0.128E-02 -.105E+02   0.817E+00 -.255E-01 -.462E+00   -.101E-04 -.133E-05 0.118E-03
   -.270E+01 0.193E-01 0.236E+01   0.257E+01 0.260E-04 -.241E+01   0.566E+00 -.744E-02 0.555E-01   0.149E-05 -.209E-05 0.538E-04
   -.270E+01 0.193E-01 -.236E+01   0.257E+01 0.260E-04 0.241E+01   0.566E+00 -.744E-02 -.555E-01   0.149E-05 -.209E-05 -.537E-04
   -.159E+01 0.423E-02 -.109E+02   0.989E+00 0.128E-02 0.105E+02   0.817E+00 -.255E-01 0.462E+00   -.101E-04 -.133E-05 -.118E-03
   -.178E+02 -.207E+00 0.761E+01   0.175E+02 0.145E+00 -.769E+01   0.161E+01 0.312E-01 -.318E+00   0.438E-05 -.405E-05 0.449E-04
   -.363E+00 0.248E+00 -.143E-04   -.462E-13 -.480E-14 0.220E-12   0.200E+00 -.135E+00 0.555E-16   0.362E-04 0.406E-05 0.112E-07

 POSITION                                       TOTAL-FORCE (eV/Angst)
      0.00000      0.00000      0.00000        -0.396736     -0.003205      0.043823
     -2.74000      5.81242      1.93747        -0.104588      0.027131     -0.117628
      0.00000      3.87495      3.87495        -0.128134      0.012496     -0.093637
      2.74000      1.93747      5.81242        -0.128134      0.012496      0.093637
      0.00000      0.00000      7.74989        -0.104588      0.027131      0.117628
     -2.74000      5.81242      9.68736        -0.396736     -0.003205     -0.043823
      0.00000      3.87495      0.00000        -0.396736     -0.003205      0.043823
      2.74000      1.93747      1.93747        -0.104588      0.027131     -0.117628
      0.00000      0.00000      3.87495        -0.128134      0.012496     -0.093637
     -2.74000      5.81242      5.81242        -0.128134      0.012496      0.093637
      0.00000      3.87495      7.74989        -0.104588      0.027131      0.117628
      2.74000      1.93747      9.68736        -0.396736     -0.003205     -0.043823
     -1.37000      1.93747      0.00000        -0.401143      0.015746      0.915971
      1.37000      0.00000      1.93747         0.265723      0.009183     -0.091107
     -1.37000      5.81242      3.87495         0.047229     -0.013900     -0.000690
      1.37000      3.87495      5.81242         0.047229     -0.013900      0.000690
     -1.37000      1.93747      7.74989         0.265723      0.009183      0.091107
      1.37000      0.00000      9.68736        -0.401143      0.015746     -0.915971
     -1.37000      5.81242      0.00000        -0.401143      0.015746      0.915971
      1.37000      3.87495      1.93747         0.265723      0.009183     -0.091107
     -1.37000      1.93747      3.87495         0.047229     -0.013900     -0.000690
      1.37000      0.00000      5.81242         0.047229     -0.013900      0.000690
     -1.37000      5.81242      7.74989         0.265723      0.009183      0.091107
      1.37000      3.87495      9.68736        -0.401143      0.015746     -0.915971
      0.85504      0.08245     12.08736        -0.566371      0.026759     -0.525110
      3.59504      2.01992     14.08848        -0.397214     -0.019752     -0.097126
      0.85504      3.95739     16.08959        -0.325934     -0.008375     -0.084887
     -1.88496      5.89486     18.09070        -0.325934     -0.008375      0.084887
      0.85504      0.08245     20.09181        -0.397214     -0.019752      0.097126
      3.59504      2.01992     22.09292        -0.566371      0.026759      0.525110
      0.85504      3.95739     12.08736        -0.566371      0.026759     -0.525110
     -1.88496      5.89486     14.08848        -0.397214     -0.019752     -0.097126
      0.85504      0.08245     16.08959        -0.325934     -0.008375     -0.084887
      3.59504      2.01992     18.09070        -0.325934     -0.008375      0.084887
      0.85504      3.95739     20.09181        -0.397214     -0.019752      0.097126
     -1.88496      5.89486     22.09292        -0.566371      0.026759      0.525110
     -3.25496      5.89486     12.08736         1.344903     -0.033266      0.398275
      4.96504      0.08245     14.08848         0.215078     -0.022391     -0.056669
      2.22504      2.01992     16.08959         0.447185      0.009573      0.007767
     -0.51496      3.95739     18.09070         0.447185      0.009573     -0.007767
     -3.25496      5.89486     20.09181         0.215078     -0.022391      0.056669
      4.96504      0.08245     22.09292         1.344903     -0.033266     -0.398275
      2.22504      2.01992     12.08736         1.344903     -0.033266      0.398275
     -0.51496      3.95739     14.08848         0.215078     -0.022391     -0.056669
     -3.25496      5.89486     16.08959         0.447185      0.009573      0.007767
      4.96504      0.08245     18.09070         0.447185      0.009573     -0.007767
      2.22504      2.01992     20.09181         0.215078     -0.022391      0.056669
     -0.51496      3.95739     22.09292         1.344903     -0.033266     -0.398275
    total drift:                               -0.162804      0.113134     -0.000014

  FREE ENERGIE OF THE ION-ELECTRON SYSTEM (eV)
  free  energy   TOTEN  =      -230.11245819 eV

  energy  without entropy=     -230.11153170  energy(sigma->0) =     -230.11199494