 vasp.6.4.3 19Mar24 (build Oct 22 2024 11:23:12) complex

 executed on             LinuxIFC date 2025.06.12  14:20:10

 INCAR:
   SYSTEM = Si and Ge interface calculation
   ISTART = 0
   ICHARG = 2
   LWAVE = .FALSE.
   LREAL = AUTO
   ENCUT = 700
   ENAUG = 900
   ADDGRID = .TRUE.
   LMAXMIX = 6
   LASPH = .TRUE.
   LMIXTAU = .TRUE.
   NCORE = 16
   NELM = 100
   NBANDS = 634
   EDIFF = 1d-7
   AMIX = 0.6
   ISMEAR = 0
   SIGMA = 0.01
   NELECT = 1056
   ISPIN = 2
   NUPDOWN = 1
   LVTOT = .FALSE.
   LVHAR = .TRUE.

 POTCAR:    PAW_PBE Sn 08Apr2002
 POTCAR:    PAW_PBE Si 05Jan2001
|           W    W    AA    RRRRR   N    N  II  N    N   GGGG   !!!           |
|           W    W   A  A   R    R  NN   N  II  NN   N  G    G  !!!           |
|           W    W  A    A  R    R  N N  N  II  N N  N  G       !!!           |
|           W WW W  AAAAAA  RRRRR   N  N N  II  N  N N  G  GGG   !            |
|           WW  WW  A    A  R   R   N   NN  II  N   NN  G    G                |
|           W    W  A    A  R    R  N    N  II  N    N   GGGG   !!!           |
|     You use a magnetic or noncollinear calculation, but did not specify     |
|     the initial magnetic moment with the MAGMOM tag. Note that a            |
|     default of 3.788e-3 will be used for all atoms. This ferromagnetic      |
|     setup may break the symmetry of the crystal, in particular it may       |
|     rule out finding an antiferromagnetic solution. Thence, we              |
|     recommend setting the initial magnetic moment manually or verifying     |
|     carefully that this magnetic setup is desired.                          |

 POTCAR:    PAW_PBE Sn 08Apr2002
   VRHFIN =Sn: s2p2

   TITEL  = PAW_PBE Sn 08Apr2002
   POMASS =  118.710; ZVAL   =    4.000    mass and valenz
   ENMAX  =  103.236; ENMIN  =   77.427 eV

 POTCAR:    PAW_PBE Si 05Jan2001
   VRHFIN =Si: s2p2

   TITEL  = PAW_PBE Si 05Jan2001
   POMASS =   28.085; ZVAL   =    4.000    mass and valenz
   ENMAX  =  245.345; ENMIN  =  184.009 eV

 Optimization of the real space projectors (new method)

 maximal supplied QI-value         = 12.47
 optimisation between [QCUT,QGAM] = [ 12.47, 27.06] = [ 43.56,205.12] Ry
 Optimized for a Real-space Cutoff    1.58 Angstroem

   l    n(q)    QCUT    max X(q) W(low)/X(q) W(high)/X(q)  e(spline)
   0     13    12.472    14.688    0.45E-04    0.45E-04    0.25E-05
   0     13    12.472     7.308    0.94E-04    0.11E-03    0.61E-05
   1     12    12.472    45.102    0.34E-03    0.14E-03    0.21E-05
   1     12    12.472    30.691    0.31E-03    0.13E-03    0.20E-05
   2     12    12.472     7.156    0.86E-04    0.11E-03    0.17E-05
 WARNING: PSMAXN for non-local potential too small
          PSMAXN should be >   13.5545592237991       NTYP=           1
 Optimization of the real space projectors (new method)

 maximal supplied QI-value         = 19.84
 optimisation between [QCUT,QGAM] = [ 13.49, 26.99] = [ 50.98,203.92] Ry
 Optimized for a Real-space Cutoff    1.07 Angstroem

   l    n(q)    QCUT    max X(q) W(low)/X(q) W(high)/X(q)  e(spline)
   0      9    13.493   159.560    0.22E-03    0.15E-03    0.72E-07
   0      9    13.493   115.863    0.21E-03    0.15E-03    0.71E-07
   1      8    13.493    88.339    0.15E-03    0.11E-03    0.13E-06
   1      8    13.493    48.592    0.15E-03    0.10E-03    0.13E-06
  PAW_PBE Sn 08Apr2002                  :
  PAW_PBE Si 05Jan2001                  :

 POSCAR: Sn+Si
  positions in direct lattice

 exchange-correlation table for PE
   RHO(1)=    0.500       N(1)  =     2000
   RHO(2)=  100.500       N(2)  =     4000

 ion  position               nearest neighbor table
   1  0.422  0.720  0.886- 198 2.34 114 2.34  10 3.03  64 3.43
   2  0.828  0.667  0.168-  49 2.81 142 2.81 101 2.81 100 2.81
   3  0.287  0.393  0.534- 232 2.34 163 2.34  96 2.39
   4  0.614  0.758  0.886- 216 2.34 144 2.34  19 2.98  64 3.51
   5  0.828  0.333  0.168- 174 2.81  35 2.81 205 2.81 264 2.81
   6  0.662  0.333  0.336-  53 2.81 262 2.81 205 2.81 190 2.81
   7  0.018  0.739  0.816-  77 2.34 176 2.34 165 2.34 248 2.34
   8  0.828  0.000  0.168-  46 2.81 217 2.81 107 2.81 106 2.81
   9  0.662  0.000  0.336-  47 2.81 220 2.81 107 2.81 108 2.81
  10  0.328  0.667  0.000- 252 2.81  82 2.81 237 2.94   1 3.03
  11  0.268  0.489  0.886- 111 2.34 195 2.34  58 3.02
  12  0.995  0.667  0.336- 211 2.81 142 2.81  83 2.81  84 2.81
  13  0.806  0.797  0.886- 219 2.34 135 2.34  73 2.35
  14  0.075  0.451  0.886- 192 2.34 120 2.34  58 2.93
  15  0.995  0.333  0.336- 187 2.81  35 2.81  86 2.81  87 2.81
  16  0.960  0.028  0.886- 222 2.34 138 2.34 207 2.36
  17  0.162  0.000  0.168-  38 2.81 162 2.81  89 2.81  88 2.81
  18  0.995  0.000  0.336-  39 2.81 217 2.81  89 2.81  90 2.81
  19  0.662  0.667  0.000-  49 2.81  91 2.81  52 2.95   4 2.98
  20  0.495  0.667  0.168- 127 2.81 252 2.81  50 2.81  91 2.81
  21  0.328  0.667  0.336-  51 2.81 124 2.81  93 2.81 127 2.81
  22  0.662  0.333  0.000-  97 2.40  94 2.81 174 2.81
  23  0.845  0.604  0.886- 204 2.34 135 2.34  76 3.01
  24  0.441  0.624  0.534- 166 2.34 235 2.34  51 2.40
  25  0.662  0.000  0.000-  46 2.81 243 2.81  79 2.93 258 3.02
  26  0.495  0.000  0.168-  98 2.81 158 2.81  47 2.81 243 2.81
  27  0.328  0.000  0.336-  48 2.81  38 2.81  99 2.81  98 2.81
  28  0.883  0.412  0.886- 204 2.34 117 2.34  76 2.98
  29  0.018  0.739  0.534- 256 2.34 175 2.34  84 3.02
  30  0.172  0.970  0.534- 259 2.34 178 2.34  39 3.03  99 3.43
  31  0.078  0.583  0.084- 156 2.81 159 2.81  58 2.81  59 2.81
  32  0.825  0.701  0.534- 181 2.34 253 2.34  84 2.93
  33  0.364  0.008  0.534- 250 2.34 151 2.34  48 2.98  99 3.51
  34  0.306  0.297  0.886- 213 2.34 111 2.34 177 2.35
  35  0.912  0.250  0.252- 150 2.81   5 2.81  15 2.81 196 2.81
  36  0.768  0.989  0.605- 146 2.34 223 2.34  92 2.34 224 2.34
  37  0.537  0.643  0.745- 114 2.34 216 2.34 197 2.34 113 2.34
  38  0.245  0.917  0.252-  17 2.81  27 2.81  65 2.81 130 2.81
  39  0.078  0.917  0.420-  18 2.81 130 2.81 145 2.94  30 3.03
  40  0.152  0.066  0.886- 210 2.34 141 2.34  61 2.95
  41  0.595  0.854  0.534- 169 2.34 238 2.34 102 3.01
  42  0.556  0.047  0.534- 226 2.34 169 2.34 108 2.35
  43  0.412  0.250  0.084- 177 2.81  70 2.81  71 2.81 246 2.81
  44  0.245  0.250  0.252-  71 2.81 234 2.81 209 2.81 121 2.81
  45  0.710  0.278  0.534- 229 2.34 148 2.34 262 2.36
  46  0.745  0.917  0.084-   8 2.81  25 2.81  74 2.81  73 2.81
  47  0.578  0.917  0.252-   9 2.81  26 2.81  74 2.81  75 2.81
  48  0.412  0.917  0.420-  27 2.81  75 2.81  78 2.95  33 2.98
  49  0.745  0.583  0.084-   2 2.81  19 2.81 249 2.81  76 2.81
  50  0.578  0.583  0.252- 118 2.81  20 2.81 249 2.81 208 2.81
  51  0.412  0.583  0.420-  24 2.40  21 2.81 208 2.81
  52  0.652  0.566  0.886- 132 2.34 216 2.34  19 2.95
  53  0.578  0.250  0.252- 153 2.81   6 2.81 246 2.81  81 2.81
  54  0.412  0.250  0.420- 121 2.81  81 2.81 105 2.93 109 3.02
  55  0.162  0.833  0.000- 168 2.40  82 2.81 162 2.81
  56  0.995  0.833  0.168- 100 2.81  83 2.81 217 2.81 162 2.81
  57  0.828  0.833  0.336-  84 2.81 101 2.81 220 2.81 217 2.81
  58  0.162  0.500  0.000-  85 2.81  31 2.81  14 2.93  11 3.02
  59  0.995  0.500  0.168- 264 2.81  86 2.81 142 2.81  31 2.81
  60  0.056  0.547  0.534- 244 2.34 175 2.34 211 2.35
[...]
 250  0.383  0.912  0.605- 125 2.34  33 2.34  78 2.34  72 2.34
 251  0.268  0.989  0.745- 126 2.34 140 2.34  72 2.34 210 2.34
 252  0.412  0.583  0.084-  10 2.81  20 2.81  67 2.81  68 2.81
 253  0.845  0.604  0.605- 134 2.34 215 2.34  95 2.34  32 2.34
 254  0.729  0.681  0.745- 135 2.34 215 2.34 143 2.34 216 2.34
 255  0.995  0.333  0.000- 228 2.81 264 2.81
 256  0.998  0.835  0.605-  29 2.34 218 2.34 137 2.34 145 2.34
 257  0.883  0.912  0.745- 146 2.34 218 2.34 138 2.34 219 2.34
 258  0.768  0.989  0.886- 147 2.34 219 2.34  25 3.02
 259  0.152  0.066  0.605- 140 2.34  30 2.34 115 2.34 221 2.34
 260  0.037  0.143  0.745- 141 2.34 116 2.34 221 2.34 222 2.34
 261  0.922  0.220  0.886- 117 2.34 222 2.34 183 3.03
 262  0.745  0.250  0.420-  45 2.36   6 2.81 196 2.81
 263  0.652  0.066  0.745- 147 2.34 224 2.34 128 2.34 225 2.34
 264  0.912  0.417  0.084-  76 2.81  59 2.81   5 2.81 255 2.81

  LATTYP: Found a simple tetragonal cell.
 ALAT       =    19.4675998690
 C/A-ratio  =     0.9914038219

  Lattice vectors:

 A1 = (  19.4675998690,   0.0000000000,   0.0000000000)
 A2 = (   0.0000000000,  19.4675998690,   0.0000000000)
 A3 = (   0.0000000000,   0.0000000000,  19.3002529140)

Analysis of symmetry for initial positions (statically):
 Subroutine PRICEL returns:
 Original cell was already a primitive cell.

 Routine SETGRP: Setting up the symmetry group for a
 simple tetragonal supercell.

 Subroutine GETGRP returns: Found  1 space group operations
 (whereof  1 operations were pure point group operations)
 out of a pool of 16 trial point group operations.

The static configuration has the point symmetry C_1 .

Analysis of symmetry for dynamics (positions and initial velocities):
 Subroutine PRICEL returns:
 Original cell was already a primitive cell.

[...]

The dynamic configuration has the point symmetry C_1 .

Analysis of structural, dynamic, and magnetic symmetry:
 Subroutine PRICEL returns:
 Original cell was already a primitive cell.

 Routine SETGRP: Setting up the symmetry group for a
 simple tetragonal supercell.

 Subroutine GETGRP returns: Found  1 space group operations
 (whereof  1 operations were pure point group operations)
 out of a pool of 16 trial point group operations.

The overall configuration has the point symmetry C_1 .

 Subroutine INISYM returns: Found  1 space group operations
 (whereof  1 operations are pure point group operations),
 and found     1 'primitive' translations

                                     Primitive cell

  volume of cell :    7314.5535

  direct lattice vectors                    reciprocal lattice vectors
    19.467599869  0.000000000  0.000000000     0.051367401  0.000000000  0.000000000
     0.000000000 19.467599869  0.000000000     0.000000000  0.051367401  0.000000000
     0.000000000  0.000000000 19.300252914     0.000000000  0.000000000  0.051812793

  length of vectors
    19.467599869 19.467599869 19.300252914     0.051367401  0.051367401  0.051812793

  position of ions in fractional coordinates (direct lattice)
     0.421547055  0.719827771  0.886011779
     0.828368425  0.666666687  0.168111786
     0.286931992  0.392904580  0.534267545
     0.613854647  0.758289278  0.886011779
     0.828368425  0.333333343  0.168111786
     0.661701739  0.333333343  0.336223543
     0.017700911  0.739058614  0.815662920
     0.828368425  0.000000000  0.168111786
     0.661701739  0.000000000  0.336223543
     0.328368455  0.666666687  0.000000000
     0.267701030  0.489058524  0.886011779
     0.995035112  0.666666687  0.336223543
     0.806162417  0.796750903  0.886011779
     0.075393319  0.450596988  0.886011779
     0.995035112  0.333333343  0.336223543
     0.960008562  0.027520061  0.886011779
     0.161701739  0.000000000  0.168111786
     0.995035112  0.000000000  0.336223543
     0.661701798  0.666666687  0.000000000
     0.495035112  0.666666687  0.168111786
     0.328368455  0.666666687  0.336223543
[...]
     0.000000000  0.000000000 19.300252914     0.000000000  0.000000000  0.051812793

  length of vectors
    19.467599869 19.467599869 19.300252914     0.051367401  0.051367401  0.051812793

 FORCES acting on ions
    electron-ion (+dipol)            ewald-force                    non-local-force                 convergence-correction
   -.398E+01 -.196E+00 -.131E+03   0.403E+01 0.399E+00 0.130E+03   -.744E-03 0.138E+00 0.468E+01   -.255E-04 -.270E-04 -.165E-03
   -.637E-01 -.254E+00 -.157E+02   -.721E-02 0.182E-01 0.160E+02   0.762E+00 -.542E+00 0.431E+00   0.985E-04 0.221E-04 -.233E-04
   -.751E+01 0.427E+01 0.118E+03   0.810E+01 -.386E+01 -.116E+03   0.122E+01 -.944E+00 -.309E+00   -.150E-03 0.126E-04 0.182E-03
   -.829E+00 -.558E+01 -.128E+03   0.392E+00 0.515E+01 0.128E+03   0.398E+00 0.302E+00 0.349E+01   0.923E-04 -.405E-04 -.142E-03
   -.603E-01 0.209E+00 -.159E+02   -.197E-01 -.216E-01 0.160E+02   -.637E+00 0.540E+00 -.623E+00   0.117E-03 0.282E-04 0.939E-04
   0.100E+01 -.225E+00 0.509E+02   -.407E+00 0.224E+00 -.507E+02   0.346E+00 0.445E+00 0.412E+00   0.183E-03 -.838E-04 0.371E-04
   -.130E+00 -.277E+01 -.814E+02   0.366E+00 0.138E+01 0.811E+02   0.318E+00 -.180E+01 -.155E+01   -.257E-04 -.108E-03 -.140E-03
   0.378E+00 0.159E+00 -.158E+02   0.278E-01 0.480E-02 0.160E+02   0.279E+00 -.736E+00 0.396E+00   0.573E-04 -.387E-04 0.797E-04
   -.556E+00 0.467E+00 0.500E+02   0.926E-01 -.230E+00 -.502E+02   0.797E+00 -.648E+00 0.908E+00   0.731E-04 0.149E-04 -.677E-05
   -.116E+01 0.267E+01 -.865E+02   0.128E+01 -.262E+01 0.868E+02   0.109E+00 -.246E+00 -.114E+01   -.116E-03 0.160E-04 -.910E-05
   -.626E+01 -.527E+00 -.131E+03   0.680E+01 0.113E+01 0.131E+03   -.246E+00 0.177E-01 0.376E+01   -.172E-03 0.117E-03 -.223E-03
   -.567E+00 0.272E+00 0.505E+02   -.290E+00 -.350E+00 -.507E+02   0.549E+00 -.131E+01 0.253E+00   0.337E-04 -.418E-04 0.301E-04
   0.468E+01 0.822E+01 -.117E+03   -.523E+01 -.824E+01 0.115E+03   -.635E+00 -.153E+01 -.360E+00   0.107E-03 -.582E-04 -.163E-03
   0.490E+01 0.148E+01 -.130E+03   -.514E+01 -.153E+01 0.130E+03   -.155E+00 -.326E+00 0.452E+01   -.148E-03 0.500E-04 -.165E-03
   0.200E+00 -.227E+00 0.514E+02   0.535E-01 -.311E-03 -.506E+02   0.449E+00 -.312E+00 -.426E+00   0.233E-04 -.583E-04 0.101E-03
   0.688E+01 -.589E+01 -.115E+03   -.693E+01 0.510E+01 0.115E+03   -.681E+00 0.890E+00 0.167E+01   -.852E-05 -.726E-05 -.232E-03
   0.128E-01 -.106E+00 -.159E+02   0.199E-03 -.188E-01 0.160E+02   -.700E+00 -.419E+00 -.648E+00   -.991E-04 -.445E-04 0.986E-04
   0.520E+00 -.656E+00 0.505E+02   0.243E+00 0.361E+00 -.508E+02   -.119E+01 -.265E+00 -.319E+00   -.449E-05 0.351E-04 0.219E-04
   -.291E+01 -.698E+00 -.889E+02   0.335E+01 0.870E+00 0.890E+02   -.307E+00 -.254E+00 -.417E+00   0.124E-03 -.180E-05 0.115E-04
   0.150E+00 0.130E+00 -.159E+02   0.299E-01 -.119E-01 0.160E+02   -.148E+01 -.144E-01 0.142E-01   0.655E-04 0.346E-04 0.245E-04
   0.847E+00 -.682E+00 0.496E+02   -.490E-02 0.259E+00 -.502E+02   -.648E+00 0.366E+00 -.550E+00   -.124E-03 0.169E-04 0.977E-05
   0.479E+01 0.544E+01 -.947E+02   -.508E+01 -.593E+01 0.960E+02   -.592E+00 -.151E+01 0.310E+01   0.136E-03 0.100E-03 0.327E-04
   -.968E+00 -.731E+01 -.132E+03   0.638E+00 0.656E+01 0.131E+03   0.311E+00 0.329E+00 0.404E+01   0.115E-03 -.205E-04 -.148E-03
   -.549E+01 -.824E+01 0.119E+03   0.604E+01 0.821E+01 -.117E+03   0.710E+00 0.139E+01 -.473E+00   -.383E-04 0.452E-04 0.188E-03
   -.310E+00 -.272E+01 -.866E+02   0.205E+00 0.280E+01 0.870E+02   0.862E-01 0.231E+00 -.102E+01   0.145E-03 -.104E-03 0.273E-04
   -.315E+00 -.133E+00 -.163E+02   -.267E-01 0.131E-01 0.160E+02   0.384E+00 0.114E-01 -.857E+00   0.238E-04 -.710E-04 0.137E-03
   0.289E+00 0.164E-02 0.520E+02   -.395E+00 -.920E-01 -.512E+02   0.474E-02 -.618E-01 -.115E+01   -.672E-04 -.137E-04 0.351E-04
   0.312E+00 0.479E+01 -.128E+03   0.273E-01 -.441E+01 0.128E+03   -.157E+00 -.355E+00 0.384E+01   0.132E-03 0.483E-04 -.162E-03
   -.624E+01 -.517E+00 0.131E+03   0.680E+01 0.113E+01 -.131E+03   -.286E+00 0.282E-01 -.376E+01   -.112E-04 -.370E-04 0.164E-03
   -.396E+01 -.216E+00 0.131E+03   0.403E+01 0.399E+00 -.130E+03   -.492E-01 0.165E+00 -.466E+01   -.875E-04 0.416E-04 0.138E-03
   -.954E+00 0.660E+00 -.507E+02   0.359E+00 -.227E+00 0.508E+02   0.393E+00 0.981E+00 -.193E+00   -.151E-03 0.507E-04 -.179E-04
   0.489E+01 0.149E+01 0.130E+03   -.514E+01 -.153E+01 -.130E+03   -.126E+00 -.327E+00 -.456E+01   0.125E-03 -.141E-04 0.190E-03
   -.815E+00 -.559E+01 0.128E+03   0.392E+00 0.515E+01 -.128E+03   0.407E+00 0.299E+00 -.350E+01   -.938E-04 -.569E-05 0.106E-03
   0.507E+01 0.871E+01 -.115E+03   -.523E+01 -.824E+01 0.115E+03   -.376E+00 -.112E+01 0.152E+01   -.155E-03 0.332E-04 -.297E-03
   0.138E+00 -.212E+00 0.158E+02   0.177E-03 -.187E-01 -.160E+02   -.157E+00 -.948E+00 0.152E+00   0.407E-04 0.466E-04 0.121E-03
   -.147E+00 -.277E+01 0.815E+02   0.366E+00 0.138E+01 -.811E+02   0.303E+00 -.181E+01 0.152E+01   0.118E-03 -.152E-04 0.104E-03
   0.512E+00 -.202E+00 -.288E+02   -.122E+00 0.253E-01 0.285E+02   -.307E+00 0.820E-01 0.117E+00   0.562E-04 -.139E-04 -.696E-04
   0.250E+00 0.459E-01 0.160E+02   0.300E-01 -.119E-01 -.160E+02   -.932E+00 -.552E+00 0.453E+00   -.717E-04 -.547E-05 0.354E-04
   -.118E+01 0.268E+01 0.865E+02   0.128E+01 -.262E+01 -.868E+02   0.130E+00 -.261E+00 0.113E+01   -.628E-04 0.210E-04 0.457E-04
   0.127E+01 0.798E+01 -.131E+03   -.917E+00 -.729E+01 0.130E+03   -.207E+00 -.395E+00 0.395E+01   -.133E-03 -.250E-04 -.231E-03
   -.987E+00 -.729E+01 0.132E+03   0.638E+00 0.656E+01 -.131E+03   0.346E+00 0.311E+00 -.407E+01   0.579E-04 -.114E-04 0.136E-03
   0.467E+01 0.823E+01 0.117E+03   -.523E+01 -.824E+01 -.115E+03   -.625E+00 -.152E+01 0.333E+00   0.489E-04 0.319E-04 0.969E-04
   -.773E+00 0.800E+00 -.498E+02   0.926E-01 -.230E+00 0.502E+02   0.532E+00 0.690E+00 -.631E+00   0.313E-05 -.101E-04 0.164E-03
   -.413E+00 0.121E-01 0.161E+02   -.267E-01 0.132E-01 -.160E+02   -.153E+00 0.478E+00 0.434E+00   -.148E-03 -.231E-04 0.968E-04
   0.685E+01 -.591E+01 0.115E+03   -.693E+01 0.510E+01 -.115E+03   -.665E+00 0.911E+00 -.167E+01   0.132E-03 -.140E-04 0.647E-04
   -.456E+00 0.613E+00 -.505E+02   -.290E+00 -.350E+00 0.507E+02   0.606E+00 -.363E+00 -.273E+00   0.118E-03 -.760E-04 0.973E-04
   -.309E+00 0.410E-01 0.159E+02   -.729E-02 0.181E-01 -.160E+02   0.393E+00 -.182E+00 0.165E-01   0.745E-04 -.193E-04 0.553E-04
   -.296E+01 -.690E+00 0.890E+02   0.335E+01 0.870E+00 -.890E+02   -.275E+00 -.264E+00 0.357E+00   -.293E-04 -.521E-05 0.208E-04
   -.309E+00 -.940E-01 -.511E+02   0.534E-01 -.421E-03 0.506E+02   -.402E+00 -.546E+00 0.139E+01   0.148E-03 0.488E-04 0.744E-05
   0.211E+00 -.785E-01 0.160E+02   -.197E-01 -.217E-01 -.160E+02   0.397E+00 -.466E+00 0.549E+00   0.802E-04 0.416E-04 -.139E-04
   0.474E+01 0.540E+01 0.947E+02   -.508E+01 -.593E+01 -.960E+02   -.543E+00 -.148E+01 -.313E+01   -.630E-04 0.726E-04 0.182E-04
   0.128E+01 0.799E+01 -.131E+03   -.917E+00 -.729E+01 0.130E+03   -.266E+00 -.323E+00 0.407E+01   0.157E-03 0.283E-04 -.179E-03
   0.351E+00 0.198E+00 0.156E+02   0.277E-01 0.481E-02 -.160E+02   -.333E+00 -.152E+00 -.870E+00   0.123E-03 -.235E-04 0.992E-04
   -.330E+00 -.269E+01 0.866E+02   0.205E+00 0.280E+01 -.870E+02   0.103E+00 0.197E+00 0.104E+01   0.287E-04 -.734E-04 0.680E-04
   0.477E+01 0.610E+01 -.961E+02   -.508E+01 -.593E+01 0.960E+02   -.114E+01 0.125E+00 0.147E+01   -.134E-03 -.106E-03 0.312E-04
   -.660E-02 0.200E+00 -.159E+02   -.338E-02 -.151E-02 0.161E+02   0.514E-01 0.104E+01 -.208E+00   -.429E-04 -.794E-04 0.136E-04
   -.900E+00 0.732E+00 0.508E+02   0.359E+00 -.227E+00 -.508E+02   0.360E+00 0.897E+00 0.803E-01   0.684E-04 -.158E-04 -.270E-04
   -.188E+00 -.281E+01 -.866E+02   0.205E+00 0.280E+01 0.870E+02   0.267E+00 -.297E+00 -.131E+01   -.194E-03 0.808E-04 -.253E-04
   -.605E+00 -.249E+00 -.160E+02   -.266E-01 0.131E-01 0.160E+02   -.615E+00 0.884E-01 0.853E-01   -.149E-04 0.190E-04 0.512E-05
   0.509E+01 0.870E+01 0.115E+03   -.523E+01 -.824E+01 -.115E+03   -.379E+00 -.111E+01 -.150E+01   -.639E-04 0.356E-04 0.903E-04
[...]
   0.925E+00 0.168E+00 -.283E+02   -.220E+00 -.775E-01 0.282E+02   -.108E+01 0.216E+01 0.177E+01   -.146E-03 0.164E-04 -.145E-03
   0.861E+00 -.406E+00 -.509E+02   -.407E+00 0.224E+00 0.507E+02   -.274E+00 0.582E-01 0.186E+00   -.129E-04 0.284E-04 0.610E-04
   -.656E+00 0.179E+00 0.822E+02   0.119E+01 0.615E-01 -.820E+02   -.160E+00 -.184E+00 0.247E+01   0.115E-03 -.468E-04 0.122E-03
   -.853E+00 0.239E+00 -.286E+02   0.224E+00 0.790E-01 0.282E+02   0.574E+00 -.255E+00 0.297E+00   0.143E-03 -.222E-04 -.465E-04
   -.232E+00 -.191E+00 -.848E+02   0.466E+00 0.210E+00 0.832E+02   -.291E+00 -.459E-01 0.197E+01   -.533E-04 0.987E-04 -.558E-04
   0.815E-01 0.324E+00 0.811E+02   -.782E-01 -.109E+00 -.818E+02   -.477E+00 0.221E+01 0.212E+01   -.278E-04 -.320E-04 0.113E-03
   0.925E-01 -.119E+00 -.289E+02   0.558E-01 0.125E+00 0.283E+02   -.125E+00 0.841E-01 0.545E+00   0.523E-04 -.251E-04 -.122E-03
   -.572E+01 -.450E+00 -.131E+03   0.680E+01 0.113E+01 0.131E+03   -.111E+01 -.195E-01 0.898E+00   0.121E-03 -.506E-04 -.251E-03
   0.620E+00 0.588E+00 0.817E+02   -.131E+01 -.146E+00 -.818E+02   -.204E+00 0.179E+01 0.149E+01   -.141E-03 0.619E-04 0.690E-04
   0.659E+00 -.240E+00 -.290E+02   -.122E+00 0.251E-01 0.285E+02   -.443E+00 0.185E+00 0.335E+00   -.776E-04 0.355E-04 -.161E-03
   -.354E+01 -.284E+00 -.132E+03   0.403E+01 0.399E+00 0.130E+03   -.662E+00 0.470E-01 0.305E+01   0.104E-03 0.110E-03 -.281E-03
   -.690E+01 0.474E+01 0.976E+02   0.632E+01 -.400E+01 -.975E+02   0.130E+01 -.124E+01 -.315E+01   0.104E-03 0.454E-05 0.735E-05
   0.616E+00 -.881E-01 -.284E+02   0.403E-01 0.220E+00 0.282E+02   -.627E+00 -.954E-01 0.132E+00   0.145E-03 -.206E-04 -.126E-03
   -.532E+00 0.241E-01 -.526E+02   0.349E+00 0.564E-01 0.513E+02   0.687E+00 -.376E+00 0.117E+01   0.924E-04 0.349E-04 0.359E-05
   0.106E+01 -.354E+01 0.777E-01   -.586E-13 0.380E-12 0.327E-12   -.836E+00 0.357E+01 -.506E+00   0.315E-04 0.871E-05 -.347E-02

 POSITION                                       TOTAL-FORCE (eV/Angst)
      8.20651     14.01332     17.10025         0.053050      0.341806      3.925472
     16.12635     12.97840      3.24460         0.690262     -0.777953      0.741561
      5.58588      7.64891     10.31150         1.809797     -0.537138      1.483737
     11.95028     14.76207     17.10025        -0.039997     -0.125344      3.134205
     16.12635      6.48920      3.24460        -0.718060      0.727487     -0.530014
     12.88174      6.48920      6.48920         0.939048      0.443402      0.565924
      0.34459     14.38770     15.74250         0.553023     -3.187098     -1.905919
     16.12635      0.00000      3.24460         0.683583     -0.572779      0.611435
     12.88174      0.00000      6.48920         0.333515     -0.410473      0.767918
      6.39255     12.97840      0.00000         0.224322     -0.192983     -0.776719
      5.21150      9.52080     17.10025         0.290668      0.615759      3.508357
     19.37095     12.97840      6.48920        -0.307873     -1.390273      0.070346
     15.69405     15.51083     17.10025        -1.190426     -1.551144     -2.260103
      1.46773      8.77204     17.10025        -0.395618     -0.370998      3.703124
     19.37095      6.48920      6.48920         0.701480     -0.539220      0.343270
     18.68906      0.53575     17.10025        -0.731688      0.096762      1.222694
      3.14794      0.00000      3.24460        -0.687985     -0.543272     -0.538897
     19.37095      0.00000      6.48920        -0.427375     -0.560133     -0.606791
     12.88175     12.97840      0.00000         0.132156     -0.082657     -0.382734
      9.63715     12.97840      3.24460        -1.300868      0.104081      0.125114
      6.39255     12.97840      6.48920         0.192345     -0.056916     -1.121875
     12.88175      6.48920      0.00000        -0.887194     -2.004221      4.333761
     16.44280     11.76706     17.10025        -0.019084     -0.422152      3.542888
      8.58089     12.14143     10.31150         1.252595      1.361398      1.107778
     12.88175      0.00000      0.00000        -0.020077      0.310373     -0.629869
      9.63715      0.00000      3.24460         0.041635     -0.108677     -1.134122
      6.39255      0.00000      6.48920        -0.102051     -0.152365     -0.373679
     17.19156      8.02329     17.10025         0.181993      0.030952      3.308965
      0.34460     14.38770     10.31150         0.272113      0.636142     -3.528747
      3.33961     18.88022     10.31150         0.021253      0.348099     -3.909212
      1.52565     11.35610      1.62230        -0.203365      1.413657     -0.109929
     16.06843     13.63894     10.31150        -0.382275     -0.364803     -3.724397
      7.08338      0.16137     10.31150        -0.016710     -0.138634     -3.135130
      5.96025      5.77703     17.10025        -0.535427     -0.647462      1.264127
     17.74865      4.86690      4.86690        -0.019071     -1.179163     -0.101755
     14.94530     19.25459     11.66925         0.521665     -3.204480      1.911719
     10.45277     12.51581     14.38475         0.082126     -0.095051     -0.174675
      4.77025     17.84530      4.86690        -0.652588     -0.518319      0.477834
      1.52564     17.84530      8.11150         0.221149     -0.196088      0.779025
      2.96523      1.28450     17.10025         0.140033      0.295328      3.393730
     11.57591     16.63396     10.31150        -0.004170     -0.416770     -3.542892
     10.82715      0.91013     10.31150        -1.188407     -1.531556      2.251924
      8.01485      4.86690      1.62230        -0.148634      1.259832     -0.231528
      4.77025      4.86690      4.86690        -0.593754      0.502755      0.488489
     13.82217      5.40265     10.31150        -0.742475      0.093084     -1.213660
     14.50405     17.84530      1.62230        -0.140505     -0.100157     -0.097480
     11.25945     17.84530      4.86690         0.076110     -0.122540     -0.129609
      8.01485     17.84530      8.11150         0.117592     -0.084038      0.407101
     14.50405     11.35610      1.62230        -0.657929     -0.640396      0.871547
     11.25945     11.35610      4.86690         0.588187     -0.566541      0.545915
      8.01485     11.35610      8.11150        -0.881793     -2.009342     -4.347428
     12.69903     11.01830     17.10025         0.095744      0.377283      3.346177
     11.25945      4.86690      4.86690         0.044978      0.050681     -1.271153
      8.01485      4.86690      8.11150        -0.023538      0.310749      0.627173
      3.14795     16.22300      0.00000        -1.452392      0.286943      1.369758
     19.37094     16.22300      3.24460         0.040515      1.237683     -0.034330
     16.12635     16.22300      6.48920        -0.181126      1.402132      0.108925
      3.14795      9.73380      0.00000         0.282215     -0.311175     -0.858378
     19.37094      9.73380      3.24460        -1.246970     -0.147631      0.133157
      1.09335     10.64392     10.31150        -0.524012     -0.652041     -1.266526
[...]
      7.45776     17.75709     11.66925         2.125347      0.431818      1.652149
      5.21150     19.25460     14.38475        -0.375301      2.249450      1.626462
      8.01485     11.35610      1.62230         0.178633     -0.124253     -0.010718
     16.44281     11.76705     11.66925         0.375317      0.056445      2.690537
     14.19654     13.26456     14.38475        -0.055075      0.062664     -0.079279
     19.37095      6.48920      0.00000        -0.057159     -0.027188      0.309155
     19.43782     16.25958     11.66925        -0.474195      2.425253      1.392917
     17.19156     17.75709     14.38475         0.022364      0.090024     -0.004809
     14.94529     19.25460     17.10025        -0.033464      0.655967      0.669457
      2.96524      1.28450     11.66925        -0.895435      2.229106      1.387822
      0.71897      2.78201     14.38475         0.093142     -0.029317     -0.102283
     17.94031      4.27952     17.10025        -0.170111      0.162443      1.352856
     14.50404      4.86690      8.11150         0.718275     -0.498894     -3.010534
     12.69903      1.28450     14.38475         0.028448      0.035894     -0.046333
     17.74864      8.11150      1.62230         0.502480     -0.295670     -0.078524
    total drift:                                0.222197      0.035292     -0.431276

  FREE ENERGIE OF THE ION-ELECTRON SYSTEM (eV)
  free  energy   TOTEN  =     -1123.67776500 eV

  energy  without entropy=    -1123.67277554  energy(sigma->0) =    -1123.67527027