 vasp.6.4.3 19Mar24 (build Oct 22 2024 11:23:12) complex

 executed on             LinuxIFC date 2025.06.04  00:53:59

 INCAR:
   SYSTEM = Si and Ge interface calculation
   ISTART = 0
   ICHARG = 2
   LWAVE = .FALSE.
   LREAL = AUTO
   ENCUT = 700
   ENAUG = 900
   ADDGRID = .TRUE.
   LMAXMIX = 6
   LASPH = .TRUE.
   LMIXTAU = .TRUE.
   NCORE = 16
   NELM = 100
   NBANDS = 116
   EDIFF = 1d-7
   AMIX = 0.6
   ISMEAR = 0
   SIGMA = 0.01
   NELECT = 192
   ISPIN = 2
   NUPDOWN = 1
   LVTOT = .FALSE.
   LVHAR = .TRUE.

 POTCAR:    PAW_PBE Sn 08Apr2002
|           W    W    AA    RRRRR   N    N  II  N    N   GGGG   !!!           |
|           W    W   A  A   R    R  NN   N  II  NN   N  G    G  !!!           |
|           W    W  A    A  R    R  N N  N  II  N N  N  G       !!!           |
|           W WW W  AAAAAA  RRRRR   N  N N  II  N  N N  G  GGG   !            |
|           WW  WW  A    A  R   R   N   NN  II  N   NN  G    G                |
|           W    W  A    A  R    R  N    N  II  N    N   GGGG   !!!           |
|     You use a magnetic or noncollinear calculation, but did not specify     |
|     the initial magnetic moment with the MAGMOM tag. Note that a            |
|     default of 0.021 will be used for all atoms. This ferromagnetic         |
|     setup may break the symmetry of the crystal, in particular it may       |
|     rule out finding an antiferromagnetic solution. Thence, we              |
|     recommend setting the initial magnetic moment manually or verifying     |
|     carefully that this magnetic setup is desired.                          |

 POTCAR:    PAW_PBE Sn 08Apr2002
   VRHFIN =Sn: s2p2

   TITEL  = PAW_PBE Sn 08Apr2002
   POMASS =  118.710; ZVAL   =    4.000    mass and valenz
   ENMAX  =  103.236; ENMIN  =   77.427 eV

 Optimization of the real space projectors (new method)

 maximal supplied QI-value         = 12.47
 optimisation between [QCUT,QGAM] = [ 12.47, 27.06] = [ 43.56,205.12] Ry
 Optimized for a Real-space Cutoff    1.58 Angstroem

   l    n(q)    QCUT    max X(q) W(low)/X(q) W(high)/X(q)  e(spline)
   0     13    12.472    14.688    0.45E-04    0.45E-04    0.25E-05
   0     13    12.472     7.308    0.94E-04    0.11E-03    0.61E-05
   1     12    12.472    45.102    0.34E-03    0.14E-03    0.21E-05
   1     12    12.472    30.691    0.31E-03    0.13E-03    0.20E-05
   2     12    12.472     7.156    0.86E-04    0.11E-03    0.17E-05
 WARNING: PSMAXN for non-local potential too small
          PSMAXN should be >   13.5545592237991       NTYP=           1
  PAW_PBE Sn 08Apr2002                  :

 POSCAR: Sn+Sn
  positions in direct lattice

 exchange-correlation table for PE
   RHO(1)=    0.500       N(1)  =     2000
   RHO(2)=  100.500       N(2)  =     4000

 ion  position               nearest neighbor table
   1  0.005  0.995  0.000-  37 2.74  34 2.81  10 2.81  47 2.82  46 3.20  15 3.55  30 3.55  43 3.59

   2  0.172  0.828  0.300-  35 2.81  16 2.81  11 2.81  34 2.81
   3  0.338  0.662  0.600-  12 2.81  17 2.81  35 2.81  36 2.81  38 3.40
   4  0.672  0.328  0.000-  42 1.38  13 2.81  28 2.81  45 3.41  33 3.55  18 3.55
   5  0.838  0.162  0.300-  10 2.81  29 2.81  14 2.81  28 2.81
   6  0.005  0.995  0.600-  37 1.67  11 2.81  15 2.81  29 2.81  30 2.81  46 3.20  43 3.59
   7  0.338  0.662  0.000-  44 2.29  38 2.62  48 2.71  31 2.81  16 2.81  41 3.08  45 3.16  39 3.41
                            36 3.55  12 3.55
   8  0.505  0.495  0.300-  13 2.81  32 2.81  17 2.81  31 2.81  48 3.29
   9  0.672  0.328  0.600-  14 2.81  32 2.81  33 2.81  18 2.81
  10  0.088  0.162  0.150-   5 2.81   1 2.81  22 2.81  23 2.81
  11  0.255  0.995  0.450-   6 2.81  23 2.81   2 2.81  24 2.81
  12  0.422  0.828  0.750-  44 1.67  40 2.02   3 2.81  24 2.81  38 2.92  41 3.34   7 3.55  19 3.55

  13  0.755  0.495  0.150-  42 2.43  45 2.62   8 2.81   4 2.81  25 2.81  26 2.81  48 3.08
  14  0.922  0.328  0.450-   9 2.81  26 2.81   5 2.81  27 2.81
  15  0.088  0.162  0.750-  46 2.33  37 2.61  27 2.81   6 2.81  43 2.84   1 3.55  22 3.55
  16  0.422  0.828  0.150-  44 2.74  19 2.81   2 2.81  20 2.81   7 2.81
  17  0.588  0.662  0.450-  20 2.81   3 2.81  21 2.81   8 2.81
  18  0.755  0.495  0.750-  42 2.43  21 2.81   9 2.81  45 3.40  25 3.55   4 3.55  41 3.58
  19  0.505  0.995  0.000-  40 2.74  28 2.81  16 2.81  44 2.82  43 3.20  33 3.55  12 3.55  46 3.59

[...]

  31  0.255  0.495  0.150-  39 2.43  48 2.62  26 2.81   7 2.81  22 2.81   8 2.81  45 3.08
  32  0.422  0.328  0.450-   8 2.81  27 2.81  23 2.81   9 2.81
  33  0.588  0.162  0.750-  43 2.33  40 2.61  24 2.81   9 2.81  46 2.84  19 3.55   4 3.55
  34  0.922  0.828  0.150-  47 2.74   1 2.81  20 2.81   2 2.81  25 2.81
  35  0.088  0.662  0.450-   2 2.81  21 2.81   3 2.81  26 2.81
  36  0.255  0.495  0.750-  39 2.43   3 2.81  27 2.81  48 3.40   7 3.55  22 3.55  38 3.58
  37  0.963  0.973  0.750-   6 1.67  30 2.02  15 2.61   1 2.74  46 2.81  43 2.81  47 2.81
  38  0.574  0.696  0.850-   7 2.62  47 2.81  44 2.81  48 2.81  12 2.92  25 3.08  30 3.34   3 3.40
                            36 3.58
  39  0.185  0.418  0.950-  22 1.38  31 2.43  36 2.43  48 2.81  45 2.81   7 3.41
  40  0.463  0.973  0.750-  24 1.67  12 2.02  33 2.61  19 2.74  43 2.81  46 2.81  44 2.81
  41  0.074  0.696  0.850-  25 2.62  44 2.81  47 2.81  45 2.81  30 2.92   7 3.08  12 3.34  21 3.40
                            18 3.58
  42  0.685  0.418  0.950-   4 1.38  13 2.43  18 2.43  45 2.81  48 2.81  25 3.41
  43  0.768  0.085  0.800-  33 2.33  40 2.81  37 2.81  15 2.84  19 3.20  24 3.20   1 3.59   6 3.59

  44  0.380  0.807  0.900-  12 1.67   7 2.29  16 2.74  41 2.81  38 2.81  40 2.81  19 2.82
  45  0.991  0.529  0.000-  13 2.62  25 2.71  42 2.81  39 2.81  41 2.81  31 3.08   7 3.16  26 3.29
                            18 3.40   4 3.41
  46  0.268  0.085  0.800-  15 2.33  37 2.81  40 2.81  33 2.84   6 3.20   1 3.20  19 3.59  24 3.59

  47  0.880  0.807  0.900-  30 1.67  25 2.29  34 2.74  38 2.81  41 2.81  37 2.81   1 2.82
  48  0.491  0.529  0.000-  31 2.62   7 2.71  39 2.81  42 2.81  38 2.81  13 3.08  25 3.16   8 3.29
                            36 3.40  22 3.41

  LATTYP: Found a base centered orthorhombic cell.
 ALAT       =     9.1771144870
 B/A-ratio  =     3.0000002078
 C/A-ratio  =     1.1785114303

  Lattice vectors:

 A1 = (   4.5885577200, -13.7656726840,   0.0000000000)
 A2 = (   4.5885567670,  13.7656726840,   0.0000000000)
 A3 = (   0.0000000000,   0.0000000000,  10.8153343200)

Analysis of symmetry for initial positions (statically):
 Subroutine PRICEL returns following result:

  LATTYP: Found a simple orthorhombic cell.
 ALAT       =     4.5885570783
 B/A-ratio  =     2.3570229454
 C/A-ratio  =     3.0000003158

[...]

   2 primitive cells build up your supercell.

 Routine SETGRP: Setting up the symmetry group for a
 base centered orthorhombic supercell.

 Subroutine GETGRP returns: Found  1 space group operations
 (whereof  1 operations were pure point group operations)
 out of a pool of  8 trial point group operations.

The static configuration has the point symmetry C_1 .

Analysis of symmetry for dynamics (positions and initial velocities):
 Subroutine PRICEL returns following result:

[...]

The dynamic configuration has the point symmetry C_1 .

Analysis of structural, dynamic, and magnetic symmetry:
 Subroutine PRICEL returns following result:

  LATTYP: Found a simple orthorhombic cell.
 ALAT       =     4.5885570783
 B/A-ratio  =     2.3570229454
 C/A-ratio  =     3.0000003158

  Lattice vectors:

 A1 = (  -4.5885570783,   0.0000000000,   0.0000000000)
 A2 = (   0.0000000000,   0.0000000000,  10.8153343200)
 A3 = (  -0.0000006417,  13.7656726840,   0.0000000000)

   2 primitive cells build up your supercell.

 Routine SETGRP: Setting up the symmetry group for a
 base centered orthorhombic supercell.

 Subroutine GETGRP returns: Found  1 space group operations
 (whereof  1 operations were pure point group operations)
 out of a pool of  8 trial point group operations.

The overall configuration has the point symmetry C_1 .

 Subroutine INISYM returns: Found  1 space group operations
 (whereof  1 operations are pure point group operations),
 and found     2 'primitive' translations

                                     Primitive cell

  volume of cell :     683.1460

  direct lattice vectors                    reciprocal lattice vectors
    -4.588557078  0.000000000  0.000000000    -0.217933434 -0.000000010  0.000000000
     0.000000000  0.000000000 10.815334320     0.000000000  0.000000000  0.092461312
    -0.000000642 13.765672684  0.000000000     0.000000000  0.072644470  0.000000000

  length of vectors
     4.588557078 10.815334320 13.765672684     0.217933434  0.092461312  0.072644470

  position of ions in fractional coordinates (direct lattice)
     0.985105300  0.000000000  0.995035112
     0.485105145  0.299999982  0.828368425
     0.985105037  0.599999905  0.661701739
     0.985105233  0.000000000  0.328368425
     0.485105022  0.299999982  0.161701724
     0.985104978  0.599999905  0.995035112
     0.985105157  0.000000000  0.661701739
     0.485105156  0.299999982  0.495035052
     0.985105204  0.599999905  0.328368366
     0.985105211  0.149999976  0.161701739
     0.485105102  0.449999928  0.995035052
     0.985105032  0.749999940  0.828368366
     0.985105348  0.149999976  0.495035082
     0.485105449  0.449999928  0.328368425
     0.985105091  0.749999940  0.161701739
     0.985105151  0.149999976  0.828368485
     0.485105210  0.449999928  0.661701858
     0.985104834  0.749999940  0.495035142
     0.047768523  0.749999940  0.973461866
     0.547768633  0.850000024  0.695683956
     0.047768818  0.950000048  0.417906165
     0.547768701  0.800000012  0.084572956
     0.047768769  0.899999976  0.806795120
     0.547768939  0.000000119  0.529017150

  ion indices of the primitive-cell ions
   primitive index   ion index
                 1           1
                 2           2
                 3          21
                 4          22
                 5           5
                 6           6
                 7          25
                 8          26
                 9          27
                10          10
                11          29
                12          30
                13          31
                14          14
                15          15
                16          34
                17          35
                18          18
                19          37
                20          41
                21          39
                22          43
                23          47
                24          45

 KPOINTS: Automatic KPOINTS generated

Automatic generation of k-mesh.
 Grid dimensions read from file:
 generate k-points for:    4    2    3

 Generating k-lattice:

  Cartesian coordinates                     Fractional coordinates (reciprocal lattice)
     0.027241678  0.009080560  0.000000000     0.250000000 -0.000000000  0.000000000
     0.000000000  0.036322235  0.000000000     0.000000000  0.500000000  0.000000000
     0.000000000  0.000000000  0.030820437     0.000000000  0.000000000  0.333333333

  Length of vectors
     0.028715250  0.036322235  0.030820437

[...]
     42      -0.2471      1.00000
     43      -0.2351      1.00000
     44      -0.1827      1.00000
     45      -0.0231      1.00000
     46       0.1389      1.00000
     47       0.2032      1.00000
     48       0.2096      1.00000
     49       0.4496      1.00000
     50       0.5362      1.00000
     51       0.7077      1.00000
     52       0.7255      1.00000
     53       1.1290      1.00000
     54       1.1422      1.00000
     55       1.2651      1.00000
     56       1.3593      1.00000
     57       1.5366      1.00000
     58       1.5647      1.00000
     59       1.8225      1.00000
     60       1.9637      1.00000
[...]
    102       5.8905      0.00000
    103       5.8928      0.00000
    104       5.9243      0.00000
    105       6.0512      0.00000
    106       6.1242      0.00000
    107       6.2485      0.00000
    108       6.3529      0.00000
    109       6.4429      0.00000
    110       6.5115      0.00000
    111       6.5727      0.00000
    112       6.7195      0.00000
    113       6.7988      0.00000
    114       6.8237      0.00000
    115       6.8876      0.00000
    116       6.9059      0.00000
 Fermi energy:         5.2992210988

 spin component 2

[...]

 k-point    14 :      -0.2500    0.5000    0.3333
  band No.  band energies     occupation
      1      -8.9927      1.00000
      2      -8.6372      1.00000
      3      -7.9957      1.00000
      4      -7.3476      1.00000
      5      -7.1957      1.00000
      6      -6.6233      1.00000
      7      -5.8207      1.00000
      8      -5.4118      1.00000
      9      -5.2318      1.00000
     10      -4.8552      1.00000
     11      -4.7749      1.00000
     12      -4.5573      1.00000
     13      -4.3403      1.00000
     14      -4.1888      1.00000
     15      -4.1256      1.00000
     16      -4.0115      1.00000
     17      -3.8983      1.00000
     18      -3.7112      1.00000
     19      -3.5931      1.00000
     20      -3.5751      1.00000
     21      -3.3424      1.00000
     22      -3.1491      1.00000
     23      -3.1370      1.00000
     24      -2.9934      1.00000
     25      -2.9398      1.00000
     26      -2.7566      1.00000
     27      -2.5937      1.00000
     28      -2.5877      1.00000
     29      -2.3137      1.00000
     30      -2.1650      1.00000
     31      -1.8423      1.00000
     32      -1.7968      1.00000
     33      -1.4718      1.00000
     34      -1.4314      1.00000
     35      -1.3551      1.00000
     36      -1.1506      1.00000
     37      -0.8819      1.00000
     38      -0.8009      1.00000
     39      -0.6568      1.00000
     40      -0.5539      1.00000
     41      -0.3863      1.00000
     42      -0.2314      1.00000
     43      -0.2185      1.00000
     44      -0.1668      1.00000
     45      -0.0067      1.00000
     46       0.1539      1.00000
     47       0.2194      1.00000
     48       0.2268      1.00000
     49       0.4664      1.00000
     50       0.5521      1.00000
     51       0.7238      1.00000
     52       0.7422      1.00000
     53       1.1451      1.00000
     54       1.1605      1.00000
     55       1.2823      1.00000
     56       1.3747      1.00000
     57       1.5522      1.00000
     58       1.5813      1.00000
     59       1.8393      1.00000
     60       1.9815      1.00000
[...]
    102       5.9103      0.00000
    103       5.9126      0.00000
    104       5.9467      0.00000
    105       6.0697      0.00000
    106       6.1429      0.00000
    107       6.2690      0.00000
    108       6.3709      0.00000
    109       6.4626      0.00000
    110       6.5290      0.00000
    111       6.5912      0.00000
    112       6.7381      0.00000
    113       6.8192      0.00000
    114       6.8409      0.00000
    115       6.9064      0.00000
    116       6.9229      0.00000

 soft charge-density along one line, spin component           1
         0         1         2         3         4         5         6         7         8         9
 total charge-density along one line

 soft charge-density along one line, spin component           2
         0         1         2         3         4         5         6         7         8         9
 total charge-density along one line

------------------------ aborting loop because EDIFF is reached ----------------------------------------

  FORCE on cell =-STRESS in cart. coord.  units (eV):
  Direction    XX          YY          ZZ          XY          YZ          ZX
  Alpha Z   210.94475   210.94475   210.94475
  Ewald   -1564.93042 -1089.81265 -1552.42908   -70.64931  -384.14829   -28.51497
  Hartree   400.72961   305.03681    -6.28539    -0.55644  -110.45907     1.35553
  E(xc)    -912.54644  -949.04999  -945.41593     8.19851    20.02144     2.70176
  Local   -1152.77346 -1208.69485  -407.35931    15.98158   320.84789     1.90930
  n-local  2388.20277  2500.75389  2505.56259   -21.40529   -44.23310   -16.09371
  augment  -626.85995  -573.61360  -548.15222    -8.91841   -32.11805    -7.82246
  Kinetic  1429.92547  1369.29701  1373.93490     3.75713     7.84787     4.63835
  Fock        0.00000     0.00000     0.00000     0.00000     0.00000     0.00000
  Total     172.69233   564.86138   630.80031   -73.59223  -222.24131   -41.82619
  in kB     202.50703   662.38261   739.70566   -86.29766  -260.61045   -49.04733

 VOLUME and BASIS-vectors are now :
  energy-cutoff  :      700.00
  volume of cell :     1366.29
      direct lattice vectors                 reciprocal lattice vectors
     9.177114487  0.000000000  0.000000000     0.108966713  0.036322239  0.000000000
    -4.588557720 13.765672684  0.000000000     0.000000000  0.072644470  0.000000000
     0.000000000  0.000000000 10.815334320     0.000000000  0.000000000  0.092461312

  length of vectors
     9.177114487 14.510293119 10.815334320     0.114861001  0.072644470  0.092461312

 FORCES acting on ions
    electron-ion (+dipol)            ewald-force                    non-local-force                 convergence-correction
   -.106E+01 -.312E+02 -.516E+02   0.978E+00 0.323E+02 0.516E+02   0.464E+00 0.940E+00 0.161E+01   -.220E-05 0.843E-05 -.249E-04
   -.377E+00 -.753E+01 -.946E+01   -.953E-01 0.754E+01 0.966E+01   0.433E+00 -.433E-02 0.987E-02   0.199E-05 0.472E-04 0.900E-05
   0.953E+00 0.182E+02 0.406E+02   -.109E+01 -.185E+02 -.410E+02   0.483E-01 0.278E+00 -.579E-01   0.771E-06 0.268E-04 0.530E-05
   -.306E+01 0.514E+02 -.940E+01   0.211E+02 -.128E+03 0.418E+02   0.663E+01 -.325E+02 0.138E+02   0.217E-05 -.633E-04 -.304E-04
   0.212E-01 -.316E+01 -.176E+01   -.153E-01 0.322E+01 0.158E+01   -.209E-01 -.578E-01 0.186E+00   -.227E-05 -.281E-04 0.496E-05
   -.389E+01 -.149E+02 0.731E+02   0.973E+01 0.219E+02 -.109E+03   0.572E+01 0.566E+01 -.314E+02   -.307E-05 0.805E-05 0.278E-04
   0.632E+01 0.766E+01 -.416E+02   -.741E+01 -.940E+01 0.422E+02   -.741E+00 -.436E+01 0.483E+01   -.129E-05 0.554E-04 -.126E-04
   -.539E+00 0.108E+02 -.325E+02   0.467E+00 -.109E+02 0.328E+02   0.784E-01 -.101E+00 0.490E+00   0.204E-05 -.179E-04 0.263E-04
   0.762E-01 -.140E+01 0.189E+02   -.727E-02 0.147E+01 -.182E+02   0.539E-02 0.693E-01 -.922E+00   0.709E-06 -.391E-04 0.212E-04
   0.579E-01 0.501E+00 -.184E+02   -.264E-01 -.231E+00 0.179E+02   -.100E+00 0.164E+00 0.422E+00   -.565E-06 -.291E-04 -.570E-05
   0.105E+01 -.897E+01 0.307E+02   -.459E+00 0.912E+01 -.305E+02   -.781E+00 -.332E-01 -.666E+00   0.315E-05 0.816E-05 0.147E-04
   -.634E+01 0.196E+02 0.526E+02   0.136E+02 -.220E+02 -.862E+02   0.705E+01 -.943E+01 -.311E+02   -.263E-05 0.649E-04 0.112E-04
   0.329E+01 0.100E+02 -.684E+02   -.361E+01 -.909E+01 0.705E+02   -.747E+00 0.136E+01 0.629E+01   -.210E-05 -.197E-04 0.159E-04
   -.132E+00 0.197E+01 0.258E+01   0.188E-01 -.207E+01 -.235E+01   0.795E-01 0.210E-01 -.211E+00   -.973E-06 -.361E-04 0.283E-04
   0.776E+01 -.581E+02 0.775E+01   -.924E+01 0.598E+02 -.726E+01   -.382E+01 0.644E+01 -.142E+01   -.372E-05 -.171E-04 0.111E-05
   -.961E+00 -.168E+02 -.481E+02   0.129E+01 0.175E+02 0.494E+02   -.118E+00 -.426E+00 0.893E+00   -.184E-06 0.494E-04 -.708E-05
   0.321E+00 0.799E+01 0.939E+01   0.107E+00 -.777E+01 -.901E+01   -.453E+00 -.193E+00 -.517E+00   -.370E-06 0.264E-04 0.120E-04
   -.461E+00 0.180E+02 0.518E+02   0.449E+00 -.179E+02 -.526E+02   0.544E+00 0.204E+01 -.292E+01   0.175E-05 -.375E-04 -.244E-04
   -.106E+01 -.312E+02 -.516E+02   0.978E+00 0.323E+02 0.516E+02   0.464E+00 0.940E+00 0.161E+01   0.475E-06 0.768E-05 -.267E-04
   -.377E+00 -.753E+01 -.946E+01   -.953E-01 0.754E+01 0.966E+01   0.433E+00 -.433E-02 0.987E-02   -.888E-06 0.463E-04 0.924E-05
   0.953E+00 0.182E+02 0.406E+02   -.109E+01 -.185E+02 -.410E+02   0.483E-01 0.278E+00 -.579E-01   -.151E-05 0.227E-04 0.407E-05
   -.306E+01 0.514E+02 -.940E+01   0.211E+02 -.128E+03 0.418E+02   0.663E+01 -.325E+02 0.138E+02   0.526E-06 -.581E-04 -.340E-04
   0.213E-01 -.316E+01 -.176E+01   -.153E-01 0.322E+01 0.158E+01   -.209E-01 -.578E-01 0.186E+00   0.141E-05 -.280E-04 0.477E-05
   -.389E+01 -.149E+02 0.731E+02   0.973E+01 0.219E+02 -.109E+03   0.572E+01 0.566E+01 -.314E+02   -.397E-06 0.702E-05 0.316E-04
   0.632E+01 0.766E+01 -.416E+02   -.741E+01 -.940E+01 0.422E+02   -.741E+00 -.436E+01 0.483E+01   -.249E-05 0.510E-04 -.954E-05
   -.539E+00 0.108E+02 -.325E+02   0.467E+00 -.109E+02 0.328E+02   0.784E-01 -.101E+00 0.490E+00   -.979E-06 -.190E-04 0.261E-04
   0.762E-01 -.140E+01 0.189E+02   -.726E-02 0.147E+01 -.182E+02   0.539E-02 0.693E-01 -.922E+00   -.360E-06 -.387E-04 0.207E-04
   0.578E-01 0.501E+00 -.184E+02   -.263E-01 -.231E+00 0.179E+02   -.100E+00 0.164E+00 0.422E+00   0.516E-06 -.307E-04 -.621E-05
   0.105E+01 -.897E+01 0.307E+02   -.459E+00 0.912E+01 -.305E+02   -.781E+00 -.332E-01 -.666E+00   -.167E-05 0.806E-05 0.151E-04
   -.634E+01 0.196E+02 0.526E+02   0.136E+02 -.220E+02 -.862E+02   0.705E+01 -.943E+01 -.311E+02   -.542E-05 0.622E-04 0.106E-04
   0.329E+01 0.100E+02 -.684E+02   -.361E+01 -.909E+01 0.705E+02   -.747E+00 0.136E+01 0.629E+01   -.602E-06 -.217E-04 0.143E-04
   -.132E+00 0.197E+01 0.257E+01   0.187E-01 -.207E+01 -.235E+01   0.795E-01 0.210E-01 -.211E+00   0.113E-05 -.347E-04 0.275E-04
   0.776E+01 -.581E+02 0.775E+01   -.924E+01 0.598E+02 -.726E+01   -.382E+01 0.644E+01 -.142E+01   0.402E-07 -.207E-04 0.757E-06
   -.961E+00 -.168E+02 -.481E+02   0.129E+01 0.175E+02 0.494E+02   -.118E+00 -.426E+00 0.893E+00   -.221E-05 0.464E-04 -.567E-05
   0.321E+00 0.799E+01 0.939E+01   0.107E+00 -.777E+01 -.901E+01   -.453E+00 -.193E+00 -.517E+00   0.364E-07 0.265E-04 0.127E-04
   -.461E+00 0.180E+02 0.518E+02   0.449E+00 -.179E+02 -.526E+02   0.544E+00 0.204E+01 -.292E+01   0.462E-06 -.381E-04 -.217E-04
   0.129E+02 -.222E+02 0.440E+01   -.210E+02 0.235E+02 0.303E+02   -.759E+01 0.692E+01 0.271E+02   -.222E-05 0.102E-04 0.297E-05
   -.117E+02 0.121E+02 0.250E+02   0.129E+02 -.125E+02 -.272E+02   0.144E+01 -.579E+00 -.405E+00   -.202E-05 0.593E-04 -.194E-04
   0.110E+02 0.421E+02 0.182E+02   -.294E+02 0.313E+02 -.519E+02   -.807E+01 0.269E+02 -.150E+02   -.409E-05 -.649E-04 -.395E-04
   0.129E+02 -.222E+02 0.440E+01   -.210E+02 0.235E+02 0.303E+02   -.759E+01 0.692E+01 0.271E+02   0.456E-05 0.840E-05 0.252E-05
   -.117E+02 0.121E+02 0.250E+02   0.129E+02 -.125E+02 -.272E+02   0.144E+01 -.579E+00 -.405E+00   0.154E-05 0.567E-04 -.191E-04
   0.110E+02 0.421E+02 0.182E+02   -.294E+02 0.313E+02 -.519E+02   -.807E+01 0.269E+02 -.150E+02   -.327E-05 -.615E-04 -.386E-04
   -.153E+02 -.370E+02 -.194E+02   0.166E+02 0.360E+02 0.192E+02   0.485E+01 -.782E+00 0.354E+01   -.171E-05 -.592E-05 -.108E-04
   0.119E+02 -.166E+02 -.276E+02   -.190E+02 0.114E+02 0.610E+02   -.626E+01 -.151E+01 0.278E+02   0.474E-05 0.724E-04 -.328E-04
   -.130E+02 0.154E+02 -.818E+01   0.141E+02 -.164E+02 0.762E+01   0.238E+01 0.152E+01 -.921E+00   0.919E-06 -.154E-04 -.190E-04
   -.153E+02 -.370E+02 -.194E+02   0.166E+02 0.360E+02 0.192E+02   0.485E+01 -.782E+00 0.354E+01   0.557E-05 -.435E-05 -.103E-04
   0.119E+02 -.166E+02 -.276E+02   -.190E+02 0.114E+02 0.610E+02   -.626E+01 -.151E+01 0.278E+02   0.327E-06 0.693E-04 -.296E-04
   -.130E+02 0.154E+02 -.818E+01   0.141E+02 -.164E+02 0.762E+01   0.238E+01 0.152E+01 -.921E+00   0.272E-05 -.147E-04 -.181E-04
   -.222E+01 -.425E+01 -.304E+01   -.444E-13 -.711E-14 0.426E-13   0.203E+01 0.466E+01 0.306E+01   -.117E-04 0.105E-03 -.854E-04

 POSITION                                       TOTAL-FORCE (eV/Angst)
     -4.52021     13.69733      0.00000         0.385729      2.057257      1.578719
     -2.22593     11.40305      3.24460        -0.035691     -0.000621      0.208175
      0.06835      9.10877      6.48920        -0.085720     -0.084314     -0.461767
      4.65690      4.52021      0.00000        24.656463   -109.349221     46.286522
      6.95118      2.22593      3.24460        -0.010931     -0.003959      0.008428
     -4.52021     13.69733      6.48920        11.564155     12.637420    -67.567894
      0.06835      9.10877      0.00000        -1.822323     -6.118541      5.426205
      2.36262      6.81449      3.24460         0.010503     -0.229145      0.782385
      4.65690      4.52021      6.48920         0.078406      0.126886     -0.266781
      0.06835      2.22593      1.62230        -0.064433      0.426291     -0.102288
     -2.22593     13.69733      4.86690        -0.183220      0.106822     -0.532029
      0.06835     11.40305      8.11150        14.340052    -11.817559    -64.671175
      4.65690      6.81449      1.62230        -1.060031      2.274661      8.365857
      6.95118      4.52021      4.86690        -0.029655     -0.093678      0.012381
      0.06835      2.22593      8.11150        -5.290204      8.194717     -0.928896
      0.06834     11.40305      1.62230         0.218299      0.326965      2.213356
      2.36262      9.10877      4.86690        -0.020822      0.015384     -0.131203
      4.65690      6.81449      8.11150         0.535417      2.102107     -3.778915
      0.06834     13.69733      0.00000         0.385729      2.057257      1.578719
      2.36262     11.40305      3.24460        -0.035691     -0.000621      0.208175
      4.65690      9.10877      6.48920        -0.085720     -0.084314     -0.461767
      0.06835      4.52021      0.00000        24.656463   -109.349221     46.286522
      2.36262      2.22593      3.24460        -0.010931     -0.003959      0.008428
      0.06835     13.69733      6.48920        11.564155     12.637420    -67.567894
      4.65690      9.10877      0.00000        -1.822323     -6.118541      5.426205
     -2.22593      6.81449      3.24460         0.010503     -0.229145      0.782385
      0.06835      4.52021      6.48920         0.078406      0.126886     -0.266781
      4.65690      2.22593      1.62230        -0.064433      0.426291     -0.102288
      2.36262     13.69733      4.86690        -0.183220      0.106822     -0.532029
      4.65690     11.40305      8.11150        14.340052    -11.817559    -64.671175
      0.06834      6.81449      1.62230        -1.060031      2.274661      8.365857
      2.36262      4.52021      4.86690        -0.029655     -0.093678      0.012381
      4.65690      2.22593      8.11150        -5.290204      8.194717     -0.928896
      4.65690     11.40305      1.62230         0.218299      0.326965      2.213356
     -2.22593      9.10877      4.86690        -0.020822      0.015384     -0.131203
      0.06835      6.81449      8.11150         0.535417      2.102107     -3.778915
      4.36937     13.40036      8.11150       -15.727062      8.251429     61.769699
      2.07509      9.57656      9.19303         2.610344     -1.012849     -2.608107
     -0.21919      5.75276     10.27457       -26.441969    100.191319    -48.596980
     -0.21919     13.40036      8.11150       -15.727062      8.251429     61.769699
     -2.51347      9.57656      9.19303         2.610344     -1.012849     -2.608107
      4.36937      5.75276     10.27457       -26.441969    100.191319    -48.596980
      6.66365      1.16420      8.65227         6.229522     -1.727174      3.268444
     -0.21919     11.10608      9.73380       -13.353115     -6.734983     61.204765
      6.66364      7.28228      0.00000         3.496284      0.460788     -1.478901
      2.07509      1.16420      8.65227         6.229522     -1.727174      3.268444
      4.36937     11.10608      9.73380       -13.353115     -6.734983     61.204765
      2.07509      7.28228      0.00000         3.496284      0.460788     -1.478901
    total drift:                               -0.193814      0.409328      0.024185

  FREE ENERGIE OF THE ION-ELECTRON SYSTEM (eV)
  free  energy   TOTEN  =        50.57919324 eV

  energy  without entropy=       50.58068473  energy(sigma->0) =       50.57993898