 vasp.6.4.3 19Mar24 (build Oct 22 2024 11:23:12) complex

 executed on             LinuxIFC date 2025.04.30  09:48:57

 INCAR:
   SYSTEM = Si011 and Ge011 interface calculation
   ISTART = 0
   ICHARG = 2
   LWAVE = .FALSE.
   LREAL = AUTO
   ENCUT = 700
   ENAUG = 900
   ADDGRID = .TRUE.
   LMAXMIX = 6
   LASPH = .TRUE.
   LMIXTAU = .TRUE.
   NCORE = 16
   NELM = 100
   NBANDS = 116
   EDIFF = 1d-7
   AMIX = 0.6
   ISMEAR = 0
   SIGMA = 0.01
   NELECT = 192
   ISPIN = 2
   NUPDOWN = 1
   LVTOT = .FALSE.
   LVHAR = .TRUE.

 POTCAR:    PAW_PBE Si 05Jan2001
 POTCAR:    PAW_PBE Ge 05Jan2001
|           W    W    AA    RRRRR   N    N  II  N    N   GGGG   !!!           |
|           W    W   A  A   R    R  NN   N  II  NN   N  G    G  !!!           |
|           W    W  A    A  R    R  N N  N  II  N N  N  G       !!!           |
|           W WW W  AAAAAA  RRRRR   N  N N  II  N  N N  G  GGG   !            |
|           WW  WW  A    A  R   R   N   NN  II  N   NN  G    G                |
|           W    W  A    A  R    R  N    N  II  N    N   GGGG   !!!           |
|     You use a magnetic or noncollinear calculation, but did not specify     |
|     the initial magnetic moment with the MAGMOM tag. Note that a            |
|     default of 0.021 will be used for all atoms. This ferromagnetic         |
|     setup may break the symmetry of the crystal, in particular it may       |
|     rule out finding an antiferromagnetic solution. Thence, we              |
|     recommend setting the initial magnetic moment manually or verifying     |
|     carefully that this magnetic setup is desired.                          |

 POTCAR:    PAW_PBE Si 05Jan2001
   VRHFIN =Si: s2p2

   TITEL  = PAW_PBE Si 05Jan2001
   POMASS =   28.085; ZVAL   =    4.000    mass and valenz
   ENMAX  =  245.345; ENMIN  =  184.009 eV

 POTCAR:    PAW_PBE Ge 05Jan2001
   VRHFIN =Ge: s2p2

   TITEL  = PAW_PBE Ge 05Jan2001
   POMASS =   72.610; ZVAL   =    4.000    mass and valenz
   ENMAX  =  173.807; ENMIN  =  130.355 eV

 Optimization of the real space projectors (new method)

 maximal supplied QI-value         = 19.84
 optimisation between [QCUT,QGAM] = [ 13.49, 26.99] = [ 50.98,203.92] Ry
 Optimized for a Real-space Cutoff    1.07 Angstroem

   l    n(q)    QCUT    max X(q) W(low)/X(q) W(high)/X(q)  e(spline)
   0      9    13.493   159.560    0.22E-03    0.15E-03    0.72E-07
   0      9    13.493   115.863    0.21E-03    0.15E-03    0.71E-07
   1      8    13.493    88.339    0.15E-03    0.11E-03    0.13E-06
   1      8    13.493    48.592    0.15E-03    0.10E-03    0.13E-06
 Optimization of the real space projectors (new method)

 maximal supplied QI-value         = 16.25
 optimisation between [QCUT,QGAM] = [ 13.49, 26.98] = [ 50.95,203.80] Ry
 Optimized for a Real-space Cutoff    1.25 Angstroem

   l    n(q)    QCUT    max X(q) W(low)/X(q) W(high)/X(q)  e(spline)
   0     10    13.489    65.336    0.91E-04    0.11E-03    0.34E-06
   0     10    13.489    52.220    0.89E-04    0.11E-03    0.34E-06
   1     10    13.489    36.409    0.22E-03    0.27E-03    0.14E-06
   1     10    13.489    21.334    0.21E-03    0.27E-03    0.14E-06
   2      9    13.489     4.673    0.11E-03    0.12E-03    0.19E-06
  PAW_PBE Si 05Jan2001                  :
  PAW_PBE Ge 05Jan2001                  :

 POSCAR: fcc Si+fcc Ge
  positions in direct lattice

 exchange-correlation table for PE
   RHO(1)=    0.500       N(1)  =     2000
   RHO(2)=  100.500       N(2)  =     4000

 ion  position               nearest neighbor table
   1  0.843  0.250  0.905-  42 2.37  48 2.37  47 2.43  13 2.46
   2  0.250  0.750  0.080-  19 2.37  14 2.37  20 2.37  15 2.37
   3  0.500  0.500  0.160-  16 2.37  15 2.37  21 2.37  20 2.37
   4  0.750  0.250  0.239-  21 2.37  16 2.37  22 2.37  17 2.37
   5  0.000  0.000  0.319-  18 2.37  17 2.37  23 2.37  22 2.37
   6  0.593  0.500  0.493-  37 2.37  43 2.37  44 2.43  24 2.46
   7  0.343  0.750  0.905-  42 2.37  48 2.37  41 2.43  19 2.46
   8  0.750  0.250  0.080-  13 2.37  20 2.37  14 2.37  21 2.37
   9  0.000  0.000  0.160-  22 2.37  21 2.37  15 2.37  14 2.37
  10  0.250  0.750  0.239-  15 2.37  22 2.37  16 2.37  23 2.37
  11  0.500  0.500  0.319-  24 2.37  23 2.37  17 2.37  16 2.37
  12  0.093  0.000  0.493-  37 2.37  43 2.37  38 2.43  18 2.46
  13  0.000  0.250  0.000-   8 2.37  30 2.37  36 2.37   1 2.46
  14  0.250  0.000  0.080-  30 2.37   8 2.37   2 2.37   9 2.37
  15  0.500  0.750  0.160-  10 2.37   9 2.37   3 2.37   2 2.37
  16  0.750  0.500  0.239-   3 2.37   4 2.37  10 2.37  11 2.37
  17  0.000  0.250  0.319-  25 2.37  11 2.37   5 2.37   4 2.37
  18  0.250  0.000  0.399-   5 2.37  25 2.37  31 2.37  12 2.46
  19  0.500  0.750  0.000-   2 2.37  30 2.37  36 2.37   7 2.46
  20  0.750  0.500  0.080-  36 2.37   8 2.37   2 2.37   3 2.37
  21  0.000  0.250  0.160-   4 2.37   3 2.37   9 2.37   8 2.37
  22  0.250  0.000  0.239-   9 2.37   4 2.37  10 2.37   5 2.37
  23  0.500  0.750  0.319-  31 2.37  11 2.37   5 2.37  10 2.37
  24  0.750  0.500  0.399-  11 2.37  25 2.37  31 2.37   6 2.46
  25  0.750  0.250  0.399-  17 2.37  24 2.37  18 2.37  43 2.46
  26  0.843  0.250  0.576-  38 2.37  44 2.37  43 2.43  39 2.43
  27  0.593  0.500  0.658-  39 2.37  45 2.37  44 2.43  40 2.43
  28  0.343  0.750  0.741-  40 2.37  46 2.37  41 2.43  45 2.43
  29  0.093  0.000  0.823-  41 2.37  47 2.37  46 2.43  42 2.43
  30  0.000  0.000  0.000-  14 2.37  13 2.37  19 2.37  42 2.46
  31  0.250  0.750  0.399-  23 2.37  18 2.37  24 2.37  37 2.46
  32  0.343  0.750  0.576-  38 2.37  44 2.37  37 2.43  45 2.43
  33  0.093  0.000  0.658-  39 2.37  45 2.37  38 2.43  46 2.43
  34  0.843  0.250  0.741-  40 2.37  46 2.37  47 2.43  39 2.43
  35  0.593  0.500  0.823-  41 2.37  47 2.37  40 2.43  48 2.43
  36  0.500  0.500  0.000-  20 2.37  19 2.37  13 2.37  48 2.46
  37  0.093  0.750  0.493-  12 2.37   6 2.37  32 2.43  31 2.46
  38  0.843  0.000  0.576-  26 2.37  32 2.37  33 2.43  12 2.43
  39  0.593  0.250  0.658-  27 2.37  33 2.37  26 2.43  34 2.43
  40  0.343  0.500  0.741-  28 2.37  34 2.37  35 2.43  27 2.43
  41  0.093  0.750  0.823-  29 2.37  35 2.37   7 2.43  28 2.43
  42  0.843  0.000  0.905-   1 2.37   7 2.37  29 2.43  30 2.46
  43  0.593  0.250  0.493-   6 2.37  12 2.37  26 2.43  25 2.46
  44  0.343  0.500  0.576-  32 2.37  26 2.37   6 2.43  27 2.43
  45  0.093  0.750  0.658-  33 2.37  27 2.37  32 2.43  28 2.43
  46  0.843  0.000  0.741-  34 2.37  28 2.37  29 2.43  33 2.43
  47  0.593  0.250  0.823-  35 2.37  29 2.37   1 2.43  34 2.43
  48  0.343  0.500  0.905-   7 2.37   1 2.37  35 2.43  36 2.46

  LATTYP: Found a simple orthorhombic cell.
 ALAT       =     5.4800000000
 B/A-ratio  =     1.4142135624
 C/A-ratio  =     4.4330153022

  Lattice vectors:

 A1 = (   5.4800000000,   0.0000000000,   0.0000000000)
 A2 = (   0.0000000000,   7.7498903220,   0.0000000000)
 A3 = (   0.0000000000,   0.0000000000,  24.2929238560)

Analysis of symmetry for initial positions (statically):
 Subroutine PRICEL returns following result:

[...]

   2 primitive cells build up your supercell.

 Routine SETGRP: Setting up the symmetry group for a
 simple orthorhombic supercell.

 Subroutine GETGRP returns: Found  4 space group operations
 (whereof  2 operations were pure point group operations)
 out of a pool of  8 trial point group operations.

The static configuration has the point symmetry C_1h.
 The point group associated with its full space group is C_2v.

Analysis of symmetry for dynamics (positions and initial velocities):
 Subroutine PRICEL returns following result:

[...]

The dynamic configuration has the point symmetry C_1h.
 The point group associated with its full space group is C_2v.

Analysis of structural, dynamic, and magnetic symmetry:
 Subroutine PRICEL returns following result:

  LATTYP: Found a simple orthorhombic cell.
 ALAT       =     3.8749451610
 B/A-ratio  =     1.4142135623
 C/A-ratio  =     6.2692303624

  Lattice vectors:

 A1 = (   0.0000000000,   3.8749451610,   0.0000000000)
 A2 = (  -5.4800000000,   0.0000000000,   0.0000000000)
 A3 = (   0.0000000000,   0.0000000000,  24.2929238560)

   2 primitive cells build up your supercell.

 Routine SETGRP: Setting up the symmetry group for a
 simple orthorhombic supercell.

 Subroutine GETGRP returns: Found  4 space group operations
 (whereof  2 operations were pure point group operations)
 out of a pool of  8 trial point group operations.

The overall configuration has the point symmetry C_1h.
 The point group associated with its full space group is C_2v.

 Subroutine INISYM returns: Found  4 space group operations
 (whereof  2 operations are pure point group operations),
 and found     2 'primitive' translations

                                     Primitive cell

  volume of cell :     515.8529

  direct lattice vectors                    reciprocal lattice vectors
     0.000000000  3.874945161  0.000000000     0.000000000  0.258068168  0.000000000
    -5.480000000  0.000000000  0.000000000    -0.182481752  0.000000000  0.000000000
     0.000000000  0.000000000 24.292923856     0.000000000  0.000000000  0.041164250

  length of vectors
     3.874945161  5.480000000 24.292923856     0.258068168  0.182481752  0.041164250

  position of ions in fractional coordinates (direct lattice)
     0.500000000  0.407407407  0.905322224
     0.500000000  0.500000000  0.079754606
     0.000000000  0.000000000  0.159509213
     0.500000000  0.500000000  0.239263819
     0.000000000  0.000000000  0.319018426
     0.000000000  0.907407407  0.493450808
     0.500000000  0.250000000  0.000000000
     0.000000000  0.750000000  0.079754606
     0.500000000  0.250000000  0.159509213
     0.000000000  0.750000000  0.239263819
     0.500000000  0.250000000  0.319018426
     0.000000000  0.750000000  0.398773032
     0.500000000  0.500000000  0.398773032
     0.500000000  0.407407407  0.575825091
     0.000000000  0.907407407  0.658199374
     0.500000000  0.407407407  0.740573658
     0.000000000  0.907407407  0.822947941
     0.000000000  0.000000000  0.000000000
     0.500000000  0.657407407  0.493450808
     0.000000000  0.157407407  0.575825091
     0.500000000  0.657407407  0.658199374
     0.000000000  0.157407407  0.740573658
     0.500000000  0.657407407  0.822947941
     0.000000000  0.157407407  0.905322224

  ion indices of the primitive-cell ions
   primitive index   ion index
                 1           1
                 2           8
                 3           9
                 4           4
                 5           5
                 6           6
                 7          13
                 8          20
                 9          21
                10          16
                11          17
                12          24
                13          25
                14          26
                15          27
                16          34
                17          29
                18          30
                19          43
                20          38
                21          39
                22          46
                23          47
                24          42

 KPOINTS: Automatic KPOINTS generated

Automatic generation of k-mesh.
[...]
     42      -1.6558      1.00000
     43      -0.8876      1.00000
     44      -0.5834      1.00000
     45      -0.1060      1.00000
     46      -0.0592      1.00000
     47       0.2984      1.00000
     48       0.3049      1.00000
     49       0.3635      1.00000
     50       0.5185      1.00000
     51       0.5195      1.00000
     52       0.7992      1.00000
     53       0.8707      1.00000
     54       1.0816      1.00000
     55       1.0962      1.00000
     56       1.1386      1.00000
     57       1.2725      1.00000
     58       1.3005      1.00000
     59       1.3358      1.00000
     60       1.4130      1.00000
[...]
    102       5.5032      0.00000
    103       6.0687      0.00000
    104       6.0883      0.00000
    105       6.0964      0.00000
    106       6.1735      0.00000
    107       6.2685      0.00000
    108       6.3646      0.00000
    109       6.5540      0.00000
    110       6.5764      0.00000
    111       6.6488      0.00000
    112       6.6876      0.00000
    113       6.8381      0.00000
    114       6.9170      0.00000
    115       7.0161      0.00000
    116       7.1768      0.00000
 Fermi energy:         4.3681723832

 spin component 2

[...]

 k-point    15 :       0.4286    0.5000    0.0000
  band No.  band energies     occupation
      1      -7.5256      1.00000
      2      -7.3662      1.00000
      3      -7.1960      1.00000
      4      -6.8690      1.00000
      5      -6.6782      1.00000
      6      -6.4624      1.00000
      7      -6.3359      1.00000
      8      -6.0493      1.00000
      9      -5.9274      1.00000
     10      -5.8919      1.00000
     11      -5.6811      1.00000
     12      -5.6694      1.00000
     13      -5.6612      1.00000
     14      -5.4391      1.00000
     15      -5.1644      1.00000
     16      -5.1602      1.00000
     17      -4.9925      1.00000
     18      -4.8640      1.00000
     19      -4.8352      1.00000
     20      -4.8309      1.00000
     21      -4.5734      1.00000
     22      -4.5684      1.00000
     23      -3.9322      1.00000
     24      -3.9031      1.00000
     25      -3.7591      1.00000
     26      -3.7478      1.00000
     27      -3.2227      1.00000
     28      -3.0992      1.00000
     29      -3.0042      1.00000
     30      -2.9301      1.00000
     31      -2.7319      1.00000
     32      -2.6334      1.00000
     33      -2.4226      1.00000
     34      -2.3201      1.00000
     35      -2.2170      1.00000
     36      -2.1514      1.00000
     37      -2.0832      1.00000
     38      -2.0687      1.00000
     39      -1.7906      1.00000
     40      -1.7493      1.00000
     41      -1.7041      1.00000
     42      -1.6331      1.00000
     43      -0.8689      1.00000
     44      -0.5644      1.00000
     45      -0.0884      1.00000
     46      -0.0387      1.00000
     47       0.3174      1.00000
     48       0.3250      1.00000
     49       0.3826      1.00000
     50       0.5380      1.00000
     51       0.5417      1.00000
     52       0.8142      1.00000
     53       0.8842      1.00000
     54       1.1055      1.00000
     55       1.1191      1.00000
     56       1.1588      1.00000
     57       1.2976      1.00000
     58       1.3198      1.00000
     59       1.3531      1.00000
     60       1.4332      1.00000
[...]
    102       5.5261      0.00000
    103       6.0863      0.00000
    104       6.1111      0.00000
    105       6.1230      0.00000
    106       6.2002      0.00000
    107       6.2816      0.00000
    108       6.3785      0.00000
    109       6.5685      0.00000
    110       6.5942      0.00000
    111       6.6681      0.00000
    112       6.7044      0.00000
    113       6.8558      0.00000
    114       6.9387      0.00000
    115       7.0327      0.00000
    116       7.2000      0.00000

 soft charge-density along one line, spin component           1
         0         1         2         3         4         5         6         7         8         9
 total charge-density along one line

 soft charge-density along one line, spin component           2
         0         1         2         3         4         5         6         7         8         9
 total charge-density along one line

------------------------ aborting loop because EDIFF is reached ----------------------------------------

  FORCE on cell =-STRESS in cart. coord.  units (eV):
  Direction    XX          YY          ZZ          XY          YZ          ZX
  Alpha Z   251.00599   251.00599   251.00599
  Ewald   -1969.86184 -1552.19194 -1714.80052     0.00000    -0.00000     0.00000
  Hartree    70.39906   253.06017   144.72585    -0.00000    -0.00000     0.00000
  E(xc)    -638.74055  -639.57098  -637.28765    -0.00000     0.00000    -0.00000
  Local    -411.14005 -1008.09279  -725.70968    -0.00009     0.00000    -0.00000
  n-local  1416.19532  1433.42935  1417.49508    -0.01696     0.00155    -0.00245
  augment  -112.10133  -112.83555  -111.08464     0.00013     0.00000    -0.00000
  Kinetic  1429.01802  1420.47312  1396.82538     0.09825     0.00001    -0.00009
  Fock        0.00000     0.00000     0.00000     0.00000     0.00000     0.00000
  Total      34.77464    45.27735    21.16981     0.00000     0.00000     0.00000
  in kB      54.00293    70.31301    32.87545     0.00000     0.00000     0.00000

 VOLUME and BASIS-vectors are now :
  energy-cutoff  :      700.00
  volume of cell :     1031.71
      direct lattice vectors                 reciprocal lattice vectors
     5.480000000  0.000000000  0.000000000     0.182481752  0.129034084  0.000000000
    -5.480000000  7.749890322  0.000000000     0.000000000  0.129034084  0.000000000
     0.000000000  0.000000000 24.292923856     0.000000000  0.000000000  0.041164250

  length of vectors
     5.480000000  9.491638426 24.292923856     0.223493590  0.129034084  0.041164250

 FORCES acting on ions
    electron-ion (+dipol)            ewald-force                    non-local-force                 convergence-correction
   0.339E+02 0.161E-06 0.265E+01   -.311E+02 0.107E-13 -.242E+01   -.254E+01 0.134E-20 0.556E+00   -.304E-05 0.660E-11 -.884E-04
   0.334E+01 0.479E-07 0.178E+02   -.269E+01 0.218E-13 -.188E+02   -.726E+00 -.158E-18 0.921E+00   -.512E-05 0.176E-10 -.767E-04
   -.310E+00 -.329E-06 0.571E+01   0.270E+00 0.250E-13 -.572E+01   -.117E+00 -.224E-19 -.133E+00   0.114E-05 0.219E-10 -.198E-04
   -.310E+00 -.159E-06 -.571E+01   0.270E+00 0.201E-13 0.572E+01   -.117E+00 0.217E-19 0.133E+00   0.114E-05 0.180E-10 0.198E-04
   0.334E+01 -.264E-06 -.178E+02   -.269E+01 -.133E-12 0.188E+02   -.726E+00 -.725E-19 -.921E+00   -.512E-05 0.208E-10 0.767E-04
   0.339E+02 0.192E-07 -.265E+01   -.311E+02 0.732E-14 0.242E+01   -.254E+01 -.161E-20 -.556E+00   -.304E-05 0.553E-11 0.884E-04
   0.339E+02 0.161E-06 0.265E+01   -.311E+02 0.107E-13 -.242E+01   -.254E+01 -.120E-19 0.556E+00   -.304E-05 0.660E-11 -.884E-04
   0.334E+01 0.479E-07 0.178E+02   -.269E+01 0.177E-12 -.188E+02   -.726E+00 -.626E-19 0.921E+00   -.512E-05 0.176E-10 -.767E-04
   -.310E+00 -.329E-06 0.571E+01   0.270E+00 0.176E-13 -.572E+01   -.117E+00 0.352E-22 -.133E+00   0.114E-05 0.219E-10 -.198E-04
   -.310E+00 -.159E-06 -.571E+01   0.270E+00 0.114E-13 0.572E+01   -.117E+00 -.824E-19 0.133E+00   0.114E-05 0.180E-10 0.198E-04
   0.334E+01 -.264E-06 -.178E+02   -.269E+01 0.183E-13 0.188E+02   -.726E+00 -.104E-18 -.921E+00   -.512E-05 0.208E-10 0.767E-04
   0.339E+02 0.192E-07 -.265E+01   -.311E+02 0.702E-14 0.242E+01   -.254E+01 -.108E-19 -.556E+00   -.304E-05 0.554E-11 0.884E-04
   0.117E+02 0.558E-06 0.972E+01   -.111E+02 0.107E-13 -.841E+01   -.206E+01 -.239E-18 -.406E+00   -.839E-05 0.172E-10 -.116E-03
   0.335E+00 0.271E-06 0.222E+02   0.114E+01 -.147E-13 -.205E+02   -.871E+00 0.396E-19 -.134E+01   0.373E-05 -.135E-10 -.738E-04
   0.305E+00 0.336E-06 0.551E+01   -.114E+00 -.114E-13 -.552E+01   -.172E+00 0.904E-19 0.399E-01   0.494E-06 -.233E-10 -.185E-04
   0.305E+00 0.205E-06 -.551E+01   -.114E+00 -.129E-13 0.552E+01   -.172E+00 0.607E-19 -.399E-01   0.494E-06 -.199E-10 0.185E-04
   0.335E+00 0.454E-06 -.222E+02   0.114E+01 -.168E-12 0.205E+02   -.871E+00 0.601E-20 0.134E+01   0.373E-05 -.159E-10 0.738E-04
   0.117E+02 0.406E-06 -.972E+01   -.111E+02 -.171E-11 0.841E+01   -.206E+01 0.941E-18 0.406E+00   -.839E-05 0.159E-10 0.116E-03
   0.117E+02 0.558E-06 0.972E+01   -.111E+02 0.355E-14 -.841E+01   -.206E+01 -.475E-18 -.406E+00   -.839E-05 0.172E-10 -.116E-03
   0.335E+00 0.271E-06 0.222E+02   0.114E+01 0.134E-12 -.205E+02   -.871E+00 0.826E-19 -.134E+01   0.373E-05 -.135E-10 -.738E-04
   0.305E+00 0.336E-06 0.551E+01   -.114E+00 -.150E-13 -.552E+01   -.172E+00 0.883E-19 0.399E-01   0.494E-06 -.233E-10 -.185E-04
   0.305E+00 0.205E-06 -.551E+01   -.114E+00 -.250E-13 0.552E+01   -.172E+00 0.585E-19 -.399E-01   0.494E-06 -.199E-10 0.185E-04
   0.335E+00 0.454E-06 -.222E+02   0.114E+01 0.169E-11 0.205E+02   -.871E+00 -.263E-19 0.134E+01   0.373E-05 -.159E-10 0.738E-04
   0.117E+02 0.406E-06 -.972E+01   -.111E+02 -.265E-15 0.841E+01   -.206E+01 -.217E-18 0.406E+00   -.839E-05 0.159E-10 0.116E-03
   -.313E+02 -.848E-07 -.190E+02   0.300E+02 -.137E-13 0.186E+02   0.125E+01 -.446E-19 0.522E+00   0.817E-05 0.580E-11 0.117E-03
   -.475E+00 0.152E-06 0.508E+01   -.173E-01 0.121E-13 -.574E+01   0.701E-01 0.418E-18 0.621E+00   -.362E-05 0.801E-12 0.516E-04
   0.270E+01 0.129E-06 0.144E+01   -.267E+01 -.169E-11 -.146E+01   -.356E+00 -.331E-19 -.102E+00   0.185E-05 -.168E-11 0.176E-04
   0.270E+01 0.177E-06 -.144E+01   -.267E+01 -.169E-11 0.146E+01   -.356E+00 -.171E-19 0.102E+00   0.185E-05 -.192E-11 -.176E-04
   -.475E+00 0.993E-07 -.508E+01   -.173E-01 -.155E-11 0.574E+01   0.701E-01 0.301E-18 -.621E+00   -.362E-05 0.143E-11 -.516E-04
   -.313E+02 -.312E-07 0.190E+02   0.300E+02 -.194E-13 -.186E+02   0.125E+01 0.108E-18 -.522E+00   0.817E-05 0.337E-11 -.117E-03
   -.313E+02 -.848E-07 -.190E+02   0.300E+02 -.179E-13 0.186E+02   0.125E+01 0.530E-19 0.522E+00   0.817E-05 0.581E-11 0.117E-03
   -.475E+00 0.152E-06 0.508E+01   -.173E-01 0.158E-11 -.574E+01   0.701E-01 -.207E-18 0.621E+00   -.362E-05 0.805E-12 0.516E-04
   0.270E+01 0.129E-06 0.144E+01   -.267E+01 0.171E-11 -.146E+01   -.356E+00 0.485E-19 -.102E+00   0.185E-05 -.168E-11 0.176E-04
   0.270E+01 0.177E-06 -.144E+01   -.267E+01 0.171E-11 0.146E+01   -.356E+00 0.632E-19 0.102E+00   0.185E-05 -.192E-11 -.176E-04
   -.475E+00 0.993E-07 -.508E+01   -.173E-01 0.106E-13 0.574E+01   0.701E-01 -.229E-18 -.621E+00   -.362E-05 0.142E-11 -.516E-04
   -.313E+02 -.312E-07 0.190E+02   0.300E+02 -.184E-13 -.186E+02   0.125E+01 -.561E-21 -.522E+00   0.817E-05 0.337E-11 -.117E-03
   -.131E+02 -.231E-06 -.114E+02   0.123E+02 -.115E-13 0.125E+02   0.145E+01 -.360E-18 0.262E+00   0.161E-05 -.184E-12 0.932E-04
   -.194E+01 -.123E-06 0.761E+01   0.145E+01 0.169E-11 -.732E+01   0.956E+00 0.538E-20 -.652E+00   0.117E-05 -.201E-11 0.523E-04
   -.263E+01 -.658E-07 0.123E+01   0.253E+01 -.171E-11 -.130E+01   0.591E+00 0.229E-19 0.852E-01   -.118E-05 0.242E-11 0.164E-04
   -.263E+01 -.278E-06 -.123E+01   0.253E+01 -.185E-11 0.130E+01   0.591E+00 0.414E-19 -.852E-01   -.118E-05 0.533E-12 -.164E-04
   -.194E+01 -.187E-06 -.761E+01   0.145E+01 -.158E-11 0.732E+01   0.956E+00 -.298E-19 0.652E+00   0.117E-05 -.161E-11 -.523E-04
   -.131E+02 -.910E-07 0.114E+02   0.123E+02 -.494E-14 -.125E+02   0.145E+01 0.303E-18 -.262E+00   0.161E-05 -.191E-11 -.932E-04
   -.131E+02 -.231E-06 -.114E+02   0.123E+02 -.158E-11 0.125E+02   0.145E+01 0.347E-18 0.262E+00   0.161E-05 -.184E-12 0.932E-04
   -.194E+01 -.123E-06 0.761E+01   0.145E+01 0.155E-11 -.732E+01   0.956E+00 -.762E-20 -.652E+00   0.117E-05 -.202E-11 0.523E-04
   -.263E+01 -.658E-07 0.123E+01   0.253E+01 0.169E-11 -.130E+01   0.591E+00 -.359E-19 0.852E-01   -.118E-05 0.242E-11 0.164E-04
   -.263E+01 -.278E-06 -.123E+01   0.253E+01 0.169E-11 0.130E+01   0.591E+00 -.470E-19 -.852E-01   -.118E-05 0.535E-12 -.164E-04
   -.194E+01 -.187E-06 -.761E+01   0.145E+01 -.142E-13 0.732E+01   0.956E+00 0.461E-19 0.652E+00   0.117E-05 -.161E-11 -.523E-04
   -.131E+02 -.910E-07 0.114E+02   0.123E+02 -.887E-14 -.125E+02   0.145E+01 -.280E-18 -.262E+00   0.161E-05 -.191E-11 -.932E-04
   0.101E+02 0.234E-05 0.595E-06   0.711E-13 -.160E-13 -.494E-12   -.101E+02 0.372E-18 0.444E-15   -.127E-04 0.112E-09 0.275E-09

 POSITION                                       TOTAL-FORCE (eV/Angst)
      3.24741      1.93747     21.99292         0.216934     -0.000000      0.786740
     -2.74000      5.81242      1.93747        -0.076819     -0.000000     -0.101406
      0.00000      3.87495      3.87495        -0.157286      0.000000     -0.140814
      2.74000      1.93747      5.81242        -0.157286      0.000000      0.140814
      0.00000      0.00000      7.74989        -0.076819     -0.000000      0.101406
      0.50741      3.87495     11.98736         0.216934      0.000000     -0.786740
     -2.23259      5.81242     21.99292         0.216934      0.000000      0.786740
      2.74000      1.93747      1.93747        -0.076819      0.000000     -0.101406
      0.00000      0.00000      3.87495        -0.157286     -0.000000     -0.140814
     -2.74000      5.81242      5.81242        -0.157286      0.000000      0.140814
      0.00000      3.87495      7.74989        -0.076819      0.000000      0.101406
      0.50741      0.00000     11.98736         0.216934     -0.000000     -0.786740
     -1.37000      1.93747      0.00000        -1.452139      0.000000      0.910701
      1.37000      0.00000      1.93747         0.608135      0.000000      0.387326
     -1.37000      5.81242      3.87495         0.019233      0.000000      0.022696
      1.37000      3.87495      5.81242         0.019233      0.000000     -0.022696
     -1.37000      1.93747      7.74989         0.608135      0.000000     -0.387326
      1.37000      0.00000      9.68736        -1.452139      0.000000     -0.910701
     -1.37000      5.81242      0.00000        -1.452139     -0.000000      0.910701
      1.37000      3.87495      1.93747         0.608135     -0.000000      0.387326
     -1.37000      1.93747      3.87495         0.019233      0.000000      0.022696
      1.37000      0.00000      5.81242         0.019233      0.000000     -0.022696
     -1.37000      5.81242      7.74989         0.608135     -0.000000     -0.387326
      1.37000      3.87495      9.68736        -1.452139     -0.000000     -0.910701
      2.74000      1.93747      9.68736         0.002688     -0.000000      0.027995
      3.24741      1.93747     13.98848        -0.422755      0.000000     -0.043896
      0.50741      3.87495     15.98959        -0.323706      0.000000     -0.120393
     -2.23259      5.81242     17.99070        -0.323706     -0.000000      0.120393
      0.50741      0.00000     19.99181        -0.422755     -0.000000      0.043896
      0.00000      0.00000      0.00000         0.002688     -0.000000     -0.027995
     -2.74000      5.81242      9.68736         0.002688     -0.000000      0.027995
     -2.23259      5.81242     13.98848        -0.422755     -0.000000     -0.043896
      0.50741      0.00000     15.98959        -0.323706      0.000000     -0.120393
      3.24741      1.93747     17.99070        -0.323706      0.000000      0.120393
      0.50741      3.87495     19.99181        -0.422755     -0.000000      0.043896
      0.00000      3.87495      0.00000         0.002688     -0.000000     -0.027995
     -3.60259      5.81242     11.98736         0.628379     -0.000000      1.321688
      4.61741      0.00000     13.98848         0.467433     -0.000000     -0.356952
      1.87741      1.93747     15.98959         0.489902      0.000000      0.024819
     -0.86259      3.87495     17.99070         0.489902      0.000000     -0.024819
     -3.60259      5.81242     19.99181         0.467433      0.000000      0.356952
      4.61741      0.00000     21.99292         0.628379      0.000000     -1.321688
      1.87741      1.93747     11.98736         0.628379      0.000000      1.321688
     -0.86259      3.87495     13.98848         0.467433     -0.000000     -0.356952
     -3.60259      5.81242     15.98959         0.489902     -0.000000      0.024819
      4.61741      0.00000     17.99070         0.489902     -0.000000     -0.024819
      1.87741      1.93747     19.99181         0.467433     -0.000000      0.356952
     -0.86259      3.87495     21.99292         0.628379     -0.000000     -1.321688
    total drift:                                0.004379      0.000002      0.000001

  FREE ENERGIE OF THE ION-ELECTRON SYSTEM (eV)
  free  energy   TOTEN  =      -228.45579668 eV

  energy  without entropy=     -228.45512352  energy(sigma->0) =     -228.45546010