 vasp.6.4.3 19Mar24 (build Oct 22 2024 11:23:12) complex

 executed on             LinuxIFC date 2025.06.04  01:26:42

 INCAR:
   SYSTEM = Si and Ge interface calculation
   ISTART = 0
   ICHARG = 2
   LWAVE = .FALSE.
   LREAL = AUTO
   ENCUT = 700
   ENAUG = 900
   ADDGRID = .TRUE.
   LMAXMIX = 6
   LASPH = .TRUE.
   LMIXTAU = .TRUE.
   NCORE = 16
   NELM = 100
   NBANDS = 144
   EDIFF = 1d-7
   AMIX = 0.6
   ISMEAR = 0
   SIGMA = 0.01
   NELECT = 240
   ISPIN = 2
   NUPDOWN = 1
   LVTOT = .FALSE.
   LVHAR = .TRUE.

 POTCAR:    PAW_PBE Si 05Jan2001
 POTCAR:    PAW_PBE Sn 08Apr2002
|           W    W    AA    RRRRR   N    N  II  N    N   GGGG   !!!           |
|           W    W   A  A   R    R  NN   N  II  NN   N  G    G  !!!           |
|           W    W  A    A  R    R  N N  N  II  N N  N  G       !!!           |
|           W WW W  AAAAAA  RRRRR   N  N N  II  N  N N  G  GGG   !            |
|           WW  WW  A    A  R   R   N   NN  II  N   NN  G    G                |
|           W    W  A    A  R    R  N    N  II  N    N   GGGG   !!!           |
|     You use a magnetic or noncollinear calculation, but did not specify     |
|     the initial magnetic moment with the MAGMOM tag. Note that a            |
|     default of 0.017 will be used for all atoms. This ferromagnetic         |
|     setup may break the symmetry of the crystal, in particular it may       |
|     rule out finding an antiferromagnetic solution. Thence, we              |
|     recommend setting the initial magnetic moment manually or verifying     |
|     carefully that this magnetic setup is desired.                          |

 POTCAR:    PAW_PBE Si 05Jan2001
   VRHFIN =Si: s2p2

   TITEL  = PAW_PBE Si 05Jan2001
   POMASS =   28.085; ZVAL   =    4.000    mass and valenz
   ENMAX  =  245.345; ENMIN  =  184.009 eV

 POTCAR:    PAW_PBE Sn 08Apr2002
   VRHFIN =Sn: s2p2

   TITEL  = PAW_PBE Sn 08Apr2002
   POMASS =  118.710; ZVAL   =    4.000    mass and valenz
   ENMAX  =  103.236; ENMIN  =   77.427 eV

 Optimization of the real space projectors (new method)

 maximal supplied QI-value         = 19.84
 optimisation between [QCUT,QGAM] = [ 13.49, 26.99] = [ 50.98,203.92] Ry
 Optimized for a Real-space Cutoff    1.07 Angstroem

   l    n(q)    QCUT    max X(q) W(low)/X(q) W(high)/X(q)  e(spline)
   0      9    13.493   159.560    0.22E-03    0.15E-03    0.72E-07
   0      9    13.493   115.863    0.21E-03    0.15E-03    0.71E-07
   1      8    13.493    88.339    0.15E-03    0.11E-03    0.13E-06
   1      8    13.493    48.592    0.15E-03    0.10E-03    0.13E-06
 Optimization of the real space projectors (new method)

 maximal supplied QI-value         = 12.47
 optimisation between [QCUT,QGAM] = [ 12.47, 27.06] = [ 43.56,205.12] Ry
 Optimized for a Real-space Cutoff    1.58 Angstroem

   l    n(q)    QCUT    max X(q) W(low)/X(q) W(high)/X(q)  e(spline)
   0     13    12.472    14.688    0.45E-04    0.45E-04    0.25E-05
   0     13    12.472     7.308    0.94E-04    0.11E-03    0.61E-05
   1     12    12.472    45.102    0.34E-03    0.14E-03    0.21E-05
   1     12    12.472    30.691    0.31E-03    0.13E-03    0.20E-05
   2     12    12.472     7.156    0.86E-04    0.11E-03    0.17E-05
 WARNING: PSMAXN for non-local potential too small
          PSMAXN should be >   13.5545592237991       NTYP=           2
  PAW_PBE Si 05Jan2001                  :
  PAW_PBE Sn 08Apr2002                  :

 POSCAR: Si+Sn
  positions in direct lattice

 exchange-correlation table for PE
   RHO(1)=    0.500       N(1)  =     2000
   RHO(2)=  100.500       N(2)  =     4000

 ion  position               nearest neighbor table
   1  0.997  0.980  0.000-  44 1.70  29 2.35  34 2.35  37 3.22
   2  0.964  0.747  0.182-  30 2.35  35 2.35  16 2.35  46 2.74  42 3.21  60 3.37
   3  0.930  0.513  0.364-  49 0.74  36 2.35  16 2.35  17 2.35  46 3.12
   4  0.330  0.313  0.000-  48 1.42  32 2.35  28 2.35  51 2.83
   5  0.297  0.080  0.182-  51 2.22  10 2.35  33 2.35  29 2.35  55 3.08  40 3.22
   6  0.264  0.847  0.364-  11 2.35  30 2.35  10 2.35  60 2.63  53 2.80  40 3.15
   7  0.664  0.647  0.000-  42 1.63  57 2.00  31 2.35  35 2.35  59 2.87
   8  0.630  0.413  0.182-  13 2.35  32 2.35  36 2.35  45 3.06  59 3.14
   9  0.597  0.180  0.364-  14 2.35  33 2.35  13 2.35  40 2.43  55 2.78  45 2.99  38 3.14
  10  0.314  0.947  0.091-   5 2.35  22 2.35   6 2.35  60 2.55  40 3.09
  11  0.280  0.713  0.273-   6 2.35  19 2.35  23 2.35  60 2.47  43 2.83  39 2.85
  12  0.247  0.480  0.456-  20 2.35  24 2.35  52 2.66  41 2.76  43 3.20  56 3.27
  13  0.647  0.280  0.091-  45 1.08   8 2.35  25 2.35   9 2.35  38 2.99
  14  0.614  0.047  0.273-  40 2.25   9 2.35  22 2.35  26 2.35  54 3.18  47 3.42
  15  0.580  0.813  0.456-  50 1.51  23 2.35  27 2.35  43 2.49
  16  0.980  0.613  0.091-  19 2.35   2 2.35   3 2.35  49 2.74  60 3.25  42 3.29
  17  0.947  0.380  0.273-  20 2.35  25 2.35   3 2.35  49 2.66  45 3.38
  18  0.914  0.147  0.456-  58 0.91  37 2.25  21 2.35  26 2.35  41 3.42
  19  0.164  0.647  0.000-  39 1.63  60 2.00  16 2.35  11 2.35  56 2.87
  20  0.130  0.413  0.182-  28 2.35  17 2.35  12 2.35  48 3.06  56 3.14
  21  0.097  0.180  0.364-  29 2.35  18 2.35  28 2.35  37 2.43  58 2.78  48 2.99  41 3.14
  22  0.497  0.980  0.000-  47 1.70  14 2.35  10 2.35  40 3.22
  23  0.464  0.747  0.182-  15 2.35  31 2.35  11 2.35  43 2.74  39 3.21  57 3.37
  24  0.430  0.513  0.364-  52 0.74  32 2.35  12 2.35  31 2.35  43 3.12
  25  0.830  0.313  0.000-  45 1.42  13 2.35  17 2.35  54 2.83
  26  0.797  0.080  0.182-  54 2.22  34 2.35  14 2.35  18 2.35  58 3.08  37 3.22
  27  0.764  0.847  0.364-  35 2.35  15 2.35  34 2.35  57 2.63  50 2.80  37 3.15
  28  0.147  0.280  0.091-  48 1.08  20 2.35   4 2.35  21 2.35  41 2.99
  29  0.114  0.047  0.273-  37 2.25  21 2.35   1 2.35   5 2.35  51 3.18  44 3.42
  30  0.080  0.813  0.456-  53 1.51   2 2.35   6 2.35  46 2.49
  31  0.480  0.613  0.091-   7 2.35  23 2.35  24 2.35  52 2.74  57 3.25  39 3.29
  32  0.447  0.380  0.273-   8 2.35   4 2.35  24 2.35  52 2.66  48 3.38
  33  0.414  0.147  0.456-  55 0.91  40 2.25   9 2.35   5 2.35  38 3.42
  34  0.814  0.947  0.091-  26 2.35   1 2.35  27 2.35  57 2.55  37 3.09
  35  0.780  0.713  0.273-  27 2.35   7 2.35   2 2.35  57 2.47  46 2.83  42 2.85
  36  0.747  0.480  0.456-   8 2.35   3 2.35  49 2.66  38 2.76  46 3.20  59 3.27
  37  0.964  0.031  0.456-  18 2.25  29 2.25  21 2.43  44 2.84  58 2.88  34 3.09  27 3.15  26 3.22
                             1 3.22
  38  0.614  0.331  0.673-  36 2.76  45 2.84  59 2.88  55 2.88  13 2.99   9 3.14  33 3.42
  39  0.264  0.631  0.891-  19 1.63  43 2.84  11 2.85  60 2.88  56 2.88  23 3.21  31 3.29
  40  0.464  0.031  0.456-  33 2.25  14 2.25   9 2.43  47 2.84  55 2.88  10 3.09   6 3.15   5 3.22
                            22 3.22
  41  0.114  0.331  0.673-  12 2.76  48 2.84  58 2.88  56 2.88  28 2.99  21 3.14  18 3.42
  42  0.764  0.631  0.891-   7 1.63  46 2.84  35 2.85  57 2.88  59 2.88   2 3.21  16 3.29
  43  0.414  0.681  0.564-  15 2.49  23 2.74  11 2.83  39 2.84  50 2.88  52 2.88  24 3.12  12 3.20

  44  0.064  0.981  0.782-   1 1.70  37 2.84  53 2.88  51 2.88  29 3.42
  45  0.714  0.281  0.000-  13 1.08  25 1.42  38 2.84  54 2.88   9 2.99   8 3.06  17 3.38
  46  0.914  0.681  0.564-  30 2.49   2 2.74  35 2.83  42 2.84  53 2.88  49 2.88   3 3.12  36 3.20

[...]

  58  0.914  0.181  0.564-  18 0.91  21 2.78  54 2.84  37 2.88  41 2.88  26 3.08
  59  0.564  0.481  0.782-  52 2.84   7 2.87  42 2.88  38 2.88   8 3.14  36 3.27
  60  0.214  0.781  0.000-  19 2.00  11 2.47  10 2.55   6 2.63  53 2.84  39 2.88  16 3.25   2 3.37

  LATTYP: Found a base centered orthorhombic cell.
 ALAT       =    13.3031797410
 B/A-ratio  =     2.2360678724
 C/A-ratio  =     0.5009023330

  Lattice vectors:

 A1 = (   6.6515893940, -14.8734064100,   0.0000000000)
 A2 = (   6.6515903470,  14.8734064100,   0.0000000000)
 A3 = (   0.0000000000,   0.0000000000,   6.6635937690)

Analysis of symmetry for initial positions (statically):
 Subroutine PRICEL returns following result:

  LATTYP: Found a simple orthorhombic cell.
 ALAT       =     6.6515907618
 B/A-ratio  =     1.0018045318
 C/A-ratio  =     2.2360675728

[...]

   2 primitive cells build up your supercell.

 Routine SETGRP: Setting up the symmetry group for a
 base centered orthorhombic supercell.

 Subroutine GETGRP returns: Found  1 space group operations
 (whereof  1 operations were pure point group operations)
 out of a pool of  8 trial point group operations.

The static configuration has the point symmetry C_1 .

Analysis of symmetry for dynamics (positions and initial velocities):
 Subroutine PRICEL returns following result:

[...]

The dynamic configuration has the point symmetry C_1 .

Analysis of structural, dynamic, and magnetic symmetry:
 Subroutine PRICEL returns following result:

  LATTYP: Found a simple orthorhombic cell.
 ALAT       =     6.6515907618
 B/A-ratio  =     1.0018045318
 C/A-ratio  =     2.2360675728

  Lattice vectors:

 A1 = (  -6.6515907618,   0.0000000000,   0.0000000000)
 A2 = (   0.0000000000,   0.0000000000,   6.6635937690)
 A3 = (   0.0000013678,  14.8734064100,   0.0000000000)

   2 primitive cells build up your supercell.

 Routine SETGRP: Setting up the symmetry group for a
 base centered orthorhombic supercell.

 Subroutine GETGRP returns: Found  1 space group operations
 (whereof  1 operations were pure point group operations)
 out of a pool of  8 trial point group operations.

The overall configuration has the point symmetry C_1 .

 Subroutine INISYM returns: Found  1 space group operations
 (whereof  1 operations are pure point group operations),
 and found     2 'primitive' translations

                                     Primitive cell

  volume of cell :     659.2414

  direct lattice vectors                    reciprocal lattice vectors
    -6.651590762  0.000000000  0.000000000    -0.150339977  0.000000014  0.000000000
     0.000000000  0.000000000  6.663593769     0.000000000  0.000000000  0.150069172
     0.000001368 14.873406410  0.000000000     0.000000000  0.067234094  0.000000000

  length of vectors
     6.651590762  6.663593769 14.873406410     0.150339977  0.150069172  0.067234094

  position of ions in fractional coordinates (direct lattice)
     0.985754935  0.000000000  0.980056584
     0.819088359  0.182245389  0.746723175
     0.652421843  0.364490777  0.513389826
     0.652421787  0.000000006  0.313389868
     0.485755278  0.182245329  0.080056526
     0.319088665  0.364490747  0.846723080
     0.319087996  0.000000002  0.646723092
     0.152421420  0.182245389  0.413389713
     0.985754845  0.364490777  0.180056319
     0.319088498  0.091122515  0.946723282
     0.152421803  0.273367912  0.713389874
     0.985755272  0.455613256  0.480056584
     0.985754797  0.091122530  0.280056566
     0.819088230  0.273367912  0.046723165
     0.652421660  0.455613285  0.813389778
     0.652421261  0.091122545  0.613389850
     0.485754715  0.273367912  0.380056471
     0.319088167  0.455613256  0.146723092
     0.102178649  0.455613315  0.030653533
     0.102178813  0.673368096  0.330653578
     0.102179255  0.891122997  0.630653620
[...]
     38      -1.0576      1.00000
     39      -0.9905      1.00000
     40      -0.8857      1.00000
     41      -0.8456      1.00000
     42      -0.6423      1.00000
     43      -0.5914      1.00000
     44      -0.4158      1.00000
     45      -0.3348      1.00000
     46       0.1181      1.00000
     47       0.1523      1.00000
     48       0.2223      1.00000
     49       0.2610      1.00000
     50       0.3865      1.00000
     51       0.4944      1.00000
     52       0.5724      1.00000
     53       0.6653      1.00000
     54       0.7359      1.00000
     55       1.0061      1.00000
     56       1.1002      1.00000
     57       1.1900      1.00000
     58       1.1996      1.00000
     59       1.2972      1.00000
     60       1.4410      1.00000
[...]
    130       6.6994      0.00000
    131       6.7859      0.00000
    132       6.7909      0.00000
    133       6.8515      0.00000
    134       7.0011      0.00000
    135       7.0180      0.00000
    136       7.1599      0.00000
    137       7.2221      0.00000
    138       7.2969      0.00000
    139       7.3056      0.00000
    140       7.3364      0.00000
    141       7.4587      0.00000
    142       7.5247      0.00000
    143       7.5542      0.00000
    144       7.6562      0.00000

 soft charge-density along one line, spin component           1
         0         1         2         3         4         5         6         7         8         9
 total charge-density along one line

 soft charge-density along one line, spin component           2
         0         1         2         3         4         5         6         7         8         9
 total charge-density along one line

------------------------ aborting loop because EDIFF is reached ----------------------------------------

  FORCE on cell =-STRESS in cart. coord.  units (eV):
  Direction    XX          YY          ZZ          XY          YZ          ZX
  Alpha Z   191.76964   191.76964   191.76964
  Ewald   -1412.80631 -2139.61806 -1714.89014    62.39838   698.97680  -328.63836
  Hartree   455.47088   366.84369    63.17677    -1.51778   104.87431   -72.25115
  E(xc)    -987.75575  -968.47825  -997.58146    -1.29588   -14.61556     6.71276
  Local   -1790.26876 -1377.19477  -711.08604    28.99552  -378.53878   311.34857
  n-local  3007.62753  2920.72987  2941.29355    -4.30121    -2.02691   -35.05569
  augment  -520.11772  -575.29478  -488.83084     7.85879    43.70571   -24.46844
  Kinetic  1931.93464  1977.99885  1949.21747    -8.47771   -28.46196    14.76527
  Fock        0.00000     0.00000     0.00000     0.00000     0.00000     0.00000
  Total     875.85416   396.75619  1233.06895    83.66010   423.91360  -127.58704
  in kB    1064.30956   482.12525  1498.38539   101.66104   515.12606  -155.03964

 VOLUME and BASIS-vectors are now :
  energy-cutoff  :      700.00
  volume of cell :     1318.48
      direct lattice vectors                 reciprocal lattice vectors
    13.303179741  0.000000000  0.000000000     0.075169998  0.033617044  0.000000000
    -6.651589394 14.873406410  0.000000000     0.000000000  0.067234094  0.000000000
     0.000000000  0.000000000  6.663593769     0.000000000  0.000000000  0.150069172

  length of vectors
    13.303179741 16.293000328  6.663593769     0.082344607  0.067234094  0.150069172

 FORCES acting on ions
    electron-ion (+dipol)            ewald-force                    non-local-force                 convergence-correction
   0.172E+02 0.165E+02 -.679E+00   -.223E+02 -.159E+02 0.875E+01   -.146E+02 -.935E+00 0.236E+02   0.716E-04 -.295E-03 -.261E-04
   0.385E+01 -.298E+02 0.318E+02   -.337E+01 0.295E+02 -.315E+02   -.193E+00 0.111E+01 -.122E+01   0.141E-03 -.156E-02 0.603E-04
   -.204E+01 0.700E+01 -.140E+02   -.175E+03 -.145E+03 -.313E+03   -.598E+01 -.266E+01 -.462E+01   0.159E-03 0.513E-03 0.243E-04
   -.671E+02 -.274E+02 0.360E+02   0.110E+03 0.432E+02 -.374E+02   0.377E+02 0.134E+02 0.502E+00   -.133E-03 0.129E-02 0.116E-03
   -.309E+01 0.997E+00 0.791E+01   0.409E+01 -.133E+00 -.694E+01   0.923E+00 -.251E+01 0.388E+01   0.662E-04 0.337E-03 -.133E-03
   -.196E+02 -.164E+02 -.420E+02   0.206E+02 0.160E+02 0.403E+02   -.263E+00 0.101E+01 0.276E+01   0.280E-03 -.113E-02 0.624E-05
   0.261E+02 0.327E+02 0.127E+02   -.418E+02 -.304E+02 -.531E+01   -.244E+02 -.751E+01 0.134E+02   -.479E-03 -.101E-02 0.442E-03
   0.436E+01 -.205E+02 0.142E+02   -.401E+01 0.207E+02 -.148E+02   -.738E+00 -.401E-01 0.380E+00   0.176E-03 0.119E-02 0.163E-03
   -.323E+02 -.238E+02 -.249E+02   0.313E+02 0.248E+02 0.251E+02   0.174E+01 0.188E+01 -.624E+00   0.639E-04 0.778E-03 -.769E-04
   0.129E+02 -.889E+00 0.339E+02   -.117E+02 0.119E+01 -.329E+02   -.856E+00 0.525E+00 -.116E+01   0.142E-03 -.374E-03 -.128E-03
   -.555E+01 0.135E+02 -.431E+02   0.534E+01 -.140E+02 0.441E+02   0.114E+01 -.518E-01 0.192E+01   0.868E-05 -.141E-02 -.619E-04
   0.248E+02 -.170E+01 -.309E+02   -.223E+02 0.219E+01 0.294E+02   -.237E+01 -.455E+00 0.121E+01   0.209E-02 0.123E-02 -.739E-03
   0.388E+02 0.468E+01 0.457E+01   -.167E+03 -.746E+01 0.818E+02   -.231E+02 0.566E+00 0.151E+02   0.137E-03 0.940E-03 0.624E-04
   -.259E+02 0.216E+02 -.160E+02   0.248E+02 -.216E+02 0.144E+02   0.492E+01 0.216E+00 -.986E+00   -.270E-03 0.391E-04 -.232E-04
   0.154E+02 -.186E+02 0.158E+02   -.233E+02 0.132E+02 -.478E+02   -.589E+01 -.496E+01 -.335E+02   -.138E-03 -.137E-02 -.108E-03
   0.175E+02 0.121E+02 0.460E+02   -.175E+02 -.136E+02 -.434E+02   -.882E+00 0.432E+00 -.219E+01   0.360E-03 -.158E-02 0.126E-02
   -.626E+01 0.312E+02 -.159E+02   0.565E+01 -.276E+02 0.165E+02   0.532E+00 -.310E+01 -.501E+00   -.966E-03 0.252E-02 0.348E-03
   0.324E+02 -.147E+02 -.201E+02   0.282E+02 -.122E+03 -.175E+03   0.128E+01 -.601E+01 -.152E+02   -.600E-04 0.560E-03 -.271E-04
   0.261E+02 0.327E+02 0.127E+02   -.418E+02 -.304E+02 -.531E+01   -.244E+02 -.751E+01 0.134E+02   -.111E-03 -.966E-03 0.384E-03
   0.436E+01 -.205E+02 0.142E+02   -.401E+01 0.207E+02 -.148E+02   -.738E+00 -.401E-01 0.380E+00   0.281E-03 0.154E-02 0.736E-04
   -.323E+02 -.238E+02 -.249E+02   0.313E+02 0.248E+02 0.251E+02   0.174E+01 0.188E+01 -.624E+00   0.598E-03 0.820E-03 -.144E-03
   0.172E+02 0.165E+02 -.679E+00   -.223E+02 -.159E+02 0.875E+01   -.146E+02 -.935E+00 0.236E+02   -.611E-04 -.274E-03 -.124E-04
   0.385E+01 -.298E+02 0.318E+02   -.337E+01 0.295E+02 -.315E+02   -.193E+00 0.111E+01 -.122E+01   0.497E-04 -.162E-02 0.187E-03
   -.204E+01 0.700E+01 -.140E+02   -.175E+03 -.145E+03 -.313E+03   -.598E+01 -.266E+01 -.462E+01   0.187E-03 0.757E-03 0.238E-03
   -.671E+02 -.274E+02 0.360E+02   0.110E+03 0.432E+02 -.374E+02   0.377E+02 0.134E+02 0.502E+00   -.428E-03 0.135E-02 0.139E-03
   -.309E+01 0.998E+00 0.791E+01   0.409E+01 -.133E+00 -.694E+01   0.923E+00 -.251E+01 0.388E+01   -.284E-03 0.734E-04 -.279E-03
   -.196E+02 -.164E+02 -.420E+02   0.206E+02 0.160E+02 0.403E+02   -.263E+00 0.101E+01 0.276E+01   -.940E-04 -.122E-02 0.288E-04
   0.388E+02 0.468E+01 0.457E+01   -.167E+03 -.746E+01 0.818E+02   -.231E+02 0.566E+00 0.151E+02   0.419E-03 0.115E-02 -.322E-04
   -.259E+02 0.216E+02 -.160E+02   0.248E+02 -.216E+02 0.144E+02   0.492E+01 0.216E+00 -.986E+00   0.225E-03 0.706E-04 -.731E-04
   0.154E+02 -.186E+02 0.158E+02   -.233E+02 0.132E+02 -.478E+02   -.589E+01 -.496E+01 -.335E+02   0.101E-03 -.118E-02 -.167E-04
   0.175E+02 0.121E+02 0.460E+02   -.175E+02 -.136E+02 -.434E+02   -.882E+00 0.432E+00 -.219E+01   0.539E-04 -.173E-02 0.173E-02
   -.626E+01 0.312E+02 -.159E+02   0.565E+01 -.276E+02 0.165E+02   0.532E+00 -.310E+01 -.501E+00   -.102E-02 0.274E-02 0.568E-03
   0.324E+02 -.147E+02 -.201E+02   0.282E+02 -.122E+03 -.175E+03   0.128E+01 -.601E+01 -.152E+02   0.986E-04 0.538E-03 0.356E-05
   0.129E+02 -.889E+00 0.339E+02   -.117E+02 0.119E+01 -.329E+02   -.856E+00 0.525E+00 -.116E+01   -.730E-04 -.632E-03 -.165E-03
   -.555E+01 0.135E+02 -.431E+02   0.534E+01 -.140E+02 0.441E+02   0.114E+01 -.518E-01 0.192E+01   -.361E-03 -.140E-02 0.515E-04
   0.248E+02 -.170E+01 -.309E+02   -.223E+02 0.219E+01 0.294E+02   -.237E+01 -.455E+00 0.121E+01   0.150E-02 0.812E-03 -.635E-03
   0.690E+00 0.514E+02 -.387E+02   -.224E+01 -.505E+02 0.383E+02   0.421E-01 -.861E+01 0.336E+01   0.279E-03 -.369E-03 0.208E-04
   0.901E-01 -.523E+01 -.196E+01   0.886E-01 0.568E+01 0.142E+01   -.754E+00 -.206E+00 -.101E+01   0.166E-03 0.827E-03 -.246E-04
   -.534E+02 0.195E+02 0.455E+02   0.671E+02 -.218E+02 -.514E+02   0.293E+02 -.581E+01 -.158E+02   -.381E-05 -.625E-03 0.251E-03
   0.690E+00 0.514E+02 -.387E+02   -.224E+01 -.505E+02 0.383E+02   0.421E-01 -.861E+01 0.336E+01   0.942E-04 -.604E-04 0.478E-04
   0.900E-01 -.523E+01 -.196E+01   0.886E-01 0.568E+01 0.142E+01   -.754E+00 -.206E+00 -.101E+01   0.321E-03 0.115E-02 0.580E-04
   -.534E+02 0.195E+02 0.455E+02   0.671E+02 -.218E+02 -.514E+02   0.293E+02 -.581E+01 -.158E+02   -.126E-03 -.726E-03 0.175E-03
   0.170E+02 0.494E+01 -.362E+02   -.183E+02 -.497E+01 0.359E+02   -.342E+00 -.255E+01 0.847E+00   0.441E-03 -.166E-02 -.520E-03
   -.208E+02 0.971E+01 0.437E+02   0.259E+02 -.954E+01 -.512E+02   0.140E+02 0.236E+00 -.231E+02   0.124E-03 -.249E-03 0.115E-04
   0.427E+01 0.101E+02 0.480E+02   0.670E+02 -.235E+02 -.123E+03   -.103E+00 -.122E+02 -.243E+02   -.143E-03 0.107E-02 0.122E-03
   0.170E+02 0.494E+01 -.362E+02   -.183E+02 -.497E+01 0.359E+02   -.342E+00 -.255E+01 0.847E+00   0.337E-03 -.157E-02 -.369E-03
   -.208E+02 0.971E+01 0.437E+02   0.259E+02 -.954E+01 -.512E+02   0.140E+02 0.236E+00 -.231E+02   -.141E-03 -.339E-03 -.261E-04
   0.427E+01 0.101E+02 0.480E+02   0.670E+02 -.235E+02 -.123E+03   -.103E+00 -.122E+02 -.243E+02   0.230E-03 0.116E-02 0.776E-04
   -.348E+02 -.176E+02 -.711E+02   0.198E+03 0.141E+03 0.364E+03   0.203E+02 0.170E+02 0.390E+02   -.490E-03 -.182E-03 -.117E-02
   -.100E+02 -.199E+02 -.607E+02   0.165E+02 0.242E+02 0.862E+02   0.898E+01 0.780E+01 0.391E+02   -.952E-04 -.113E-02 0.317E-04
   -.526E+01 -.845E+00 0.375E+02   0.592E+01 -.593E-01 -.384E+02   -.132E+01 0.210E+01 -.428E+01   0.147E-03 0.482E-03 -.106E-04
   -.348E+02 -.176E+02 -.711E+02   0.198E+03 0.141E+03 0.364E+03   0.203E+02 0.170E+02 0.390E+02   -.755E-03 -.170E-03 -.144E-02
   -.100E+02 -.199E+02 -.607E+02   0.165E+02 0.242E+02 0.862E+02   0.898E+01 0.780E+01 0.391E+02   0.155E-03 -.983E-03 0.108E-03
   -.526E+01 -.845E+00 0.375E+02   0.592E+01 -.593E-01 -.384E+02   -.132E+01 0.210E+01 -.428E+01   -.301E-03 0.430E-03 0.462E-04
   0.337E+02 -.380E+02 -.612E+02   -.854E+02 0.157E+03 0.232E+03   -.140E+02 0.277E+02 0.400E+02   0.321E-04 0.718E-03 0.217E-03
   0.663E+01 0.121E+02 0.402E+01   -.694E+01 -.128E+02 -.375E+01   -.415E+00 -.229E+00 -.628E-01   -.475E-03 0.915E-03 -.129E-03
   0.897E+01 -.413E+02 0.428E+02   -.941E+01 0.422E+02 -.418E+02   -.317E+01 0.128E+02 -.346E+01   -.164E-03 -.126E-02 0.575E-04
   0.337E+02 -.380E+02 -.612E+02   -.854E+02 0.157E+03 0.232E+03   -.140E+02 0.277E+02 0.400E+02   -.172E-03 0.873E-03 0.319E-03
   0.663E+01 0.121E+02 0.402E+01   -.694E+01 -.128E+02 -.375E+01   -.415E+00 -.229E+00 -.628E-01   -.704E-03 0.751E-03 -.372E-03
   0.897E+01 -.413E+02 0.428E+02   -.941E+01 0.422E+02 -.418E+02   -.317E+01 0.128E+02 -.346E+01   0.213E-03 -.137E-02 0.360E-04
   -.431E+02 -.576E+02 -.106E+03   -.325E-12 -.711E-13 -.249E-12   0.430E+02 0.578E+02 0.106E+03   0.170E-02 -.828E-03 0.725E-03

 POSITION                                       TOTAL-FORCE (eV/Angst)
      6.74634     14.57678      0.00000       -19.691230     -0.292452     31.703288
      7.85494     11.10632      1.21441         0.289270      0.736507     -0.909902
      8.96354      7.63586      2.42882      -183.242502   -140.661992   -331.925820
      2.31195      4.66117      0.00000        80.788118     29.190154     -0.860764
      3.42055      1.19071      1.21441         1.920233     -1.643331      4.846879
     -2.12244     12.59366      2.42882         0.687617      0.608726      1.048840
      4.52915      9.61898      0.00000       -40.106423     -5.232112     20.850579
      5.63774      6.14851      1.21441        -0.392689      0.092239     -0.228701
      6.74634      2.67805      2.42882         0.808024      2.805926     -0.402427
     -2.12244     14.08100      0.60720         0.363799      0.824551     -0.082444
     -1.01385     10.61054      1.82161         0.918838     -0.580063      2.907419
      0.09475      7.14008      3.03602         0.186714      0.030579     -0.332736
      6.74634      4.16540      0.60720      -151.184256     -2.213901    101.465888
      7.85494      0.69493      1.82161         3.826419      0.242935     -2.535768
      2.31195     12.09788      3.03602       -13.856789    -10.358782    -65.462212
      8.96354      9.12320      0.60720        -0.852230     -1.084973      0.354797
     10.07214      5.65273      1.82161        -0.078675      0.454171      0.043350
     11.18074      2.18227      3.03602        61.818084   -142.783310   -210.399397
     -2.12244      9.61898      0.00000       -40.106423     -5.232112     20.850579
     -1.01384      6.14851      1.21441        -0.392689      0.092239     -0.228701
      0.09475      2.67805      2.42882         0.808024      2.805926     -0.402427
      0.09475     14.57678      0.00000       -19.691230     -0.292452     31.703288
      1.20335     11.10632      1.21441         0.289270      0.736507     -0.909902
      2.31195      7.63586      2.42882      -183.242502   -140.661992   -331.925820
      8.96354      4.66117      0.00000        80.788118     29.190154     -0.860764
     10.07214      1.19071      1.21441         1.920233     -1.643331      4.846879
      4.52914     12.59366      2.42882         0.687617      0.608726      1.048840
      0.09475      4.16540      0.60720      -151.184256     -2.213901    101.465888
      1.20335      0.69493      1.82161         3.826419      0.242935     -2.535768
     -4.33964     12.09788      3.03602       -13.856789    -10.358782    -65.462212
      2.31195      9.12320      0.60720        -0.852230     -1.084973      0.354797
      3.42055      5.65274      1.82161        -0.078675      0.454171      0.043350
      4.52915      2.18227      3.03602        61.818084   -142.783310   -210.399397
      4.52915     14.08100      0.60720         0.363799      0.824551     -0.082444
      5.63774     10.61054      1.82161         0.918838     -0.580063      2.907419
      6.74634      7.14007      3.03602         0.186714      0.030579     -0.332736
     12.62353      0.45592      3.03602        -1.503113     -7.733781      3.046675
      5.97194      4.91795      4.48705        -0.574063      0.248343     -1.555096
     -0.67965      9.37997      5.93808        43.043575     -8.106741    -21.696522
      5.97194      0.45592      3.03602        -1.503113     -7.733781      3.046675
     -0.67965      4.91795      4.48705        -0.574063      0.248343     -1.555096
      5.97194      9.37997      5.93808        43.043575     -8.106741    -21.696522
      0.98325     10.12364      3.76153        -1.622559     -2.591097      0.537888
     -5.66834     14.58566      5.21256        19.023798      0.398181    -30.695588
      7.63484      4.17427      0.00000        71.194881    -25.676303    -99.303323
      7.63484     10.12364      3.76153        -1.622559     -2.591097      0.537888
      0.98325     14.58566      5.21256        19.023798      0.398181    -30.695588
      0.98325      4.17427      0.00000        71.194881    -25.676303    -99.303323
      9.29774      7.89262      3.03602       183.392878    140.441545    331.785519
      2.64614     12.35465      4.48705        15.477977     12.100903     64.700690
      2.64614      1.94326      5.93808        -0.657960      1.191207     -5.159404
      2.64615      7.89262      3.03602       183.392878    140.441545    331.785519
     -4.00545     12.35465      4.48705        15.477977     12.100903     64.700690
      9.29773      1.94326      5.93808        -0.657960      1.191207     -5.159404
      4.30904      2.68693      3.76153       -65.653986    146.866508    210.510589
     -2.34255      7.14896      5.21256        -0.716382     -0.912645      0.198227
      4.30904     11.61098      0.00000        -3.607370     13.639011     -2.450523
     10.96063      2.68693      3.76153       -65.653986    146.866508    210.510589
      4.30904      7.14896      5.21256        -0.716382     -0.912645      0.198227
     -2.34255     11.61098      0.00000        -3.607370     13.639011     -2.450523
    total drift:                               -0.051523      0.131599      0.062236

  FREE ENERGIE OF THE ION-ELECTRON SYSTEM (eV)
  free  energy   TOTEN  =       579.82025052 eV

  energy  without entropy=      579.82203485  energy(sigma->0) =      579.82114269