 vasp.6.4.3 19Mar24 (build Oct 22 2024 11:23:12) complex

 executed on             LinuxIFC date 2025.06.04  00:51:31

 INCAR:
   SYSTEM = Si and Ge interface calculation
   ISTART = 0
   ICHARG = 2
   LWAVE = .FALSE.
   LREAL = AUTO
   ENCUT = 700
   ENAUG = 900
   ADDGRID = .TRUE.
   LMAXMIX = 6
   LASPH = .TRUE.
   LMIXTAU = .TRUE.
   NCORE = 16
   NELM = 100
   NBANDS = 116
   EDIFF = 1d-7
   AMIX = 0.6
   ISMEAR = 0
   SIGMA = 0.01
   NELECT = 192
   ISPIN = 2
   NUPDOWN = 1
   LVTOT = .FALSE.
   LVHAR = .TRUE.

 POTCAR:    PAW_PBE Sn 08Apr2002
|           W    W    AA    RRRRR   N    N  II  N    N   GGGG   !!!           |
|           W    W   A  A   R    R  NN   N  II  NN   N  G    G  !!!           |
|           W    W  A    A  R    R  N N  N  II  N N  N  G       !!!           |
|           W WW W  AAAAAA  RRRRR   N  N N  II  N  N N  G  GGG   !            |
|           WW  WW  A    A  R   R   N   NN  II  N   NN  G    G                |
|           W    W  A    A  R    R  N    N  II  N    N   GGGG   !!!           |
|     You use a magnetic or noncollinear calculation, but did not specify     |
|     the initial magnetic moment with the MAGMOM tag. Note that a            |
|     default of 0.021 will be used for all atoms. This ferromagnetic         |
|     setup may break the symmetry of the crystal, in particular it may       |
|     rule out finding an antiferromagnetic solution. Thence, we              |
|     recommend setting the initial magnetic moment manually or verifying     |
|     carefully that this magnetic setup is desired.                          |

 POTCAR:    PAW_PBE Sn 08Apr2002
   VRHFIN =Sn: s2p2

   TITEL  = PAW_PBE Sn 08Apr2002
   POMASS =  118.710; ZVAL   =    4.000    mass and valenz
   ENMAX  =  103.236; ENMIN  =   77.427 eV

 Optimization of the real space projectors (new method)

 maximal supplied QI-value         = 12.47
 optimisation between [QCUT,QGAM] = [ 12.47, 27.06] = [ 43.56,205.12] Ry
 Optimized for a Real-space Cutoff    1.58 Angstroem

   l    n(q)    QCUT    max X(q) W(low)/X(q) W(high)/X(q)  e(spline)
   0     13    12.472    14.688    0.45E-04    0.45E-04    0.25E-05
   0     13    12.472     7.308    0.94E-04    0.11E-03    0.61E-05
   1     12    12.472    45.102    0.34E-03    0.14E-03    0.21E-05
   1     12    12.472    30.691    0.31E-03    0.13E-03    0.20E-05
   2     12    12.472     7.156    0.86E-04    0.11E-03    0.17E-05
 WARNING: PSMAXN for non-local potential too small
          PSMAXN should be >   13.5545592237991       NTYP=           1
  PAW_PBE Sn 08Apr2002                  :

 POSCAR: Sn+Sn
  positions in direct lattice

 exchange-correlation table for PE
   RHO(1)=    0.500       N(1)  =     2000
   RHO(2)=  100.500       N(2)  =     4000

 ion  position               nearest neighbor table
   1  0.015  0.000  0.000-  30 1.62  33 2.29  48 2.29  22 2.81   7 2.81
   2  0.515  0.000  0.200-  23 2.81   7 2.81   8 2.81  22 2.81
   3  0.015  0.000  0.400-  28 1.62   8 2.81  23 2.81   9 2.81  24 2.81
   4  0.515  0.500  0.000-  27 1.62  36 2.29  45 2.29  10 2.81  19 2.81
   5  0.015  0.500  0.200-  20 2.81  19 2.81  11 2.81  10 2.81
   6  0.515  0.500  0.400-  25 1.62  11 2.81  20 2.81  12 2.81  21 2.81
   7  0.890  0.125  0.100-  48 1.62   2 2.81  13 2.81  14 2.81   1 2.81
   8  0.390  0.125  0.300-  14 2.81  15 2.81   3 2.81   2 2.81
   9  0.890  0.125  0.500-  46 1.62  40 2.29  28 2.29  15 2.81   3 2.81
  10  0.390  0.625  0.100-  45 1.62   4 2.81  16 2.81   5 2.81  17 2.81
  11  0.890  0.625  0.300-  17 2.81   6 2.81  18 2.81   5 2.81
  12  0.390  0.625  0.500-  43 1.62  37 2.29  25 2.29   6 2.81  18 2.81
  13  0.765  0.250  0.000-  42 1.62  48 2.29  36 2.29  19 2.81   7 2.81
  14  0.265  0.250  0.200-   8 2.81   7 2.81  20 2.81  19 2.81
  15  0.765  0.250  0.400-  40 1.62  20 2.81   8 2.81  21 2.81   9 2.81
  16  0.265  0.750  0.000-  39 1.62  45 2.29  33 2.29  10 2.81  22 2.81
  17  0.765  0.750  0.200-  11 2.81  22 2.81  10 2.81  23 2.81
  18  0.265  0.750  0.400-  37 1.62  23 2.81  11 2.81  24 2.81  12 2.81
  19  0.640  0.375  0.100-  36 1.62  13 2.81   5 2.81   4 2.81  14 2.81
  20  0.140  0.375  0.300-  15 2.81   5 2.81   6 2.81  14 2.81
  21  0.640  0.375  0.500-  34 1.62  25 2.29  40 2.29  15 2.81   6 2.81
  22  0.140  0.875  0.100-  33 1.62  17 2.81  16 2.81   1 2.81   2 2.81
  23  0.640  0.875  0.300-  18 2.81   3 2.81   2 2.81  17 2.81
  24  0.140  0.875  0.500-  31 1.62  28 2.29  37 2.29  18 2.81   3 2.81
  25  0.515  0.500  0.500-   6 1.62  21 2.29  12 2.29  43 2.81  34 2.81
  26  0.015  0.500  0.700-  35 2.81  44 2.81  34 2.81  43 2.81
  27  0.515  0.500  0.900-   4 1.62  45 2.81  44 2.81  35 2.81  36 2.81
  28  0.015  0.000  0.500-   3 1.62  24 2.29   9 2.29  31 2.81  46 2.81
  29  0.515  0.000  0.700-  32 2.81  47 2.81  46 2.81  31 2.81
  30  0.015  0.000  0.900-   1 1.62  47 2.81  32 2.81  48 2.81  33 2.81
  31  0.140  0.875  0.600-  24 1.62  37 2.81  28 2.81  38 2.81  29 2.81
  32  0.640  0.875  0.800-  39 2.81  29 2.81  30 2.81  38 2.81
  33  0.140  0.875  0.000-  22 1.62   1 2.29  16 2.29  39 2.81  30 2.81
  34  0.640  0.375  0.600-  21 1.62  40 2.81  25 2.81  26 2.81  41 2.81
  35  0.140  0.375  0.800-  26 2.81  42 2.81  27 2.81  41 2.81
  36  0.640  0.375  0.000-  19 1.62   4 2.29  13 2.29  42 2.81  27 2.81
  37  0.265  0.750  0.500-  18 1.62  12 2.29  24 2.29  43 2.81  31 2.81
  38  0.765  0.750  0.700-  44 2.81  32 2.81  31 2.81  43 2.81
  39  0.265  0.750  0.900-  16 1.62  32 2.81  44 2.81  33 2.81  45 2.81
  40  0.765  0.250  0.500-  15 1.62   9 2.29  21 2.29  34 2.81  46 2.81
  41  0.265  0.250  0.700-  47 2.81  35 2.81  46 2.81  34 2.81
  42  0.765  0.250  0.900-  13 1.62  35 2.81  36 2.81  47 2.81  48 2.81
  43  0.390  0.625  0.600-  12 1.62  25 2.81  37 2.81  26 2.81  38 2.81
  44  0.890  0.625  0.800-  38 2.81  27 2.81  39 2.81  26 2.81
  45  0.390  0.625  0.000-  10 1.62  16 2.29   4 2.29  27 2.81  39 2.81
  46  0.890  0.125  0.600-   9 1.62  40 2.81  28 2.81  29 2.81  41 2.81
  47  0.390  0.125  0.800-  41 2.81  42 2.81  30 2.81  29 2.81
  48  0.890  0.125  0.000-   7 1.62  13 2.29   1 2.29  42 2.81  30 2.81

  LATTYP: Found a simple orthorhombic cell.
 ALAT       =     6.4892001150
 B/A-ratio  =     2.0000000000
 C/A-ratio  =     2.4999998899

  Lattice vectors:

 A1 = (   6.4892001150,   0.0000000000,   0.0000000000)
 A2 = (   0.0000000000,  12.9784002300,   0.0000000000)
 A3 = (   0.0000000000,   0.0000000000,  16.2229995730)

Analysis of symmetry for initial positions (statically):
 Subroutine PRICEL returns following result:

  LATTYP: Found a simple tetragonal cell.
 ALAT       =     4.5885580161
 C/A-ratio  =     1.7677666400

[...]

   8 primitive cells build up your supercell.

 Routine SETGRP: Setting up the symmetry group for a
 simple orthorhombic supercell.

 Subroutine GETGRP returns: Found  4 space group operations
 (whereof  1 operations were pure point group operations)
 out of a pool of  8 trial point group operations.

The static configuration has the point symmetry C_1 .
 The point group associated with its full space group is C_2h.

Analysis of symmetry for dynamics (positions and initial velocities):
 Subroutine PRICEL returns following result:

[...]

The dynamic configuration has the point symmetry C_1 .
 The point group associated with its full space group is C_2h.

Analysis of structural, dynamic, and magnetic symmetry:
 Subroutine PRICEL returns following result:

  LATTYP: Found a simple tetragonal cell.
 ALAT       =     4.5885580161
 C/A-ratio  =     1.7677666400

  Lattice vectors:

 A1 = (   3.2446001419,  -3.2446008362,   0.0000000000)
 A2 = (   3.2446003106,   3.2445977214,   0.0000000000)
 A3 = (   0.0000000000,   0.0000000000,   8.1114997865)

   8 primitive cells build up your supercell.

 Routine SETGRP: Setting up the symmetry group for a
 simple orthorhombic supercell.

 Subroutine GETGRP returns: Found  4 space group operations
 (whereof  1 operations were pure point group operations)
 out of a pool of  8 trial point group operations.

The overall configuration has the point symmetry C_1 .
 The point group associated with its full space group is C_2h.

 Subroutine INISYM returns: Found  4 space group operations
 (whereof  1 operations are pure point group operations),
 and found     8 'primitive' translations

                                     Primitive cell

  volume of cell :     170.7865

  direct lattice vectors                    reciprocal lattice vectors
     3.244600142 -3.244600836  0.000000000     0.154102116 -0.154102239  0.000000000
     3.244600311  3.244597721  0.000000000     0.154102264  0.154102231  0.000000000
     0.000000000  0.000000000  8.111499786     0.000000000  0.000000000  0.123281764

  length of vectors
     4.588558016  4.588555933  8.111499786     0.217933389  0.217933488  0.123281764

  position of ions in fractional coordinates (direct lattice)
     0.014894703  0.014894717  0.000000000
     0.514894509  0.514894703  0.400000006
     0.014894477  0.014894491  0.799999952
     0.514894711  0.014894605  0.199999988
     0.014894299  0.514894645  0.600000024
     0.514894591  0.014894485  0.000000000

  ion indices of the primitive-cell ions
   primitive index   ion index
                 1           1
                 2          14
                 3          30
                 4          22
                 5          47
                 6          33

 KPOINTS: Automatic KPOINTS generated

Automatic generation of k-mesh.
 Grid dimensions read from file:
 generate k-points for:    5    2    2

 Generating k-lattice:

  Cartesian coordinates                     Fractional coordinates (reciprocal lattice)
     0.030820440  0.015410220  0.000000000     0.200000000 -0.000000000  0.000000000
     0.000000000  0.038525549  0.000000000     0.000000000  0.500000000  0.000000000
     0.000000000  0.000000000  0.030820441     0.000000000  0.000000000  0.500000000

  Length of vectors
     0.034458299  0.038525549  0.030820441

  Shift w.r.t. Gamma in fractional coordinates (k-lattice)
     0.000000000  0.000000000  0.000000000

 WARNING: IBZKPT: internal override: KBLOWUP is changed to .FALSE.
      ... skipping the blow-up phase ...

 Subroutine IBZKPT returns following result:

 Found     12 irreducible k-points:

 Following reciprocal coordinates:
            Coordinates               Weight
  0.000000  0.000000  0.000000      1.000000
  0.200000  0.000000  0.000000      2.000000
  0.400000 -0.000000  0.000000      2.000000
  0.000000  0.500000  0.000000      1.000000
  0.200000  0.500000  0.000000      2.000000
  0.400000  0.500000  0.000000      2.000000
  0.000000  0.000000  0.500000      1.000000
  0.200000  0.000000  0.500000      2.000000
  0.400000 -0.000000  0.500000      2.000000
  0.000000  0.500000  0.500000      1.000000
  0.200000  0.500000  0.500000      2.000000
  0.400000  0.500000  0.500000      2.000000

 Following cartesian coordinates:
            Coordinates               Weight
  0.000000  0.000000  0.000000      1.000000
  0.030820  0.015410  0.000000      2.000000
  0.061641  0.030820  0.000000      2.000000
  0.000000  0.038526  0.000000      1.000000
[...]
     42      -0.3361      1.00000
     43      -0.3153      1.00000
     44      -0.3152      1.00000
     45      -0.0775      1.00000
     46      -0.0774      1.00000
     47      -0.0351      1.00000
     48      -0.0351      1.00000
     49       0.4813      1.00000
     50       0.4813      1.00000
     51       0.7855      1.00000
     52       0.7855      1.00000
     53       1.3830      1.00000
     54       1.3831      1.00000
     55       1.6327      1.00000
     56       1.6327      1.00000
     57       1.6461      1.00000
     58       1.6461      1.00000
     59       1.7718      1.00000
     60       1.7718      1.00000
[...]
    102       6.2296      0.00000
    103       6.2354      0.00000
    104       6.2354      0.00000
    105       6.3405      0.00000
    106       6.3405      0.00000
    107       6.6527      0.00000
    108       6.6527      0.00000
    109       6.8874      0.00000
    110       6.8874      0.00000
    111       6.9583      0.00000
    112       6.9583      0.00000
    113       6.9680      0.00000
    114       6.9680      0.00000
    115       7.2467      0.00000
    116       7.2587      0.00000
 Fermi energy:         5.3985199781

 spin component 2

[...]

 k-point    12 :       0.4000    0.5000    0.5000
  band No.  band energies     occupation
      1      -7.9308      1.00000
      2      -7.9308      1.00000
      3      -7.8037      1.00000
      4      -7.8037      1.00000
      5      -7.5208      1.00000
      6      -7.5207      1.00000
      7      -6.7604      1.00000
      8      -6.7604      1.00000
      9      -6.4540      1.00000
     10      -6.4539      1.00000
     11      -4.8322      1.00000
     12      -4.8322      1.00000
     13      -4.8011      1.00000
     14      -4.8011      1.00000
     15      -3.9889      1.00000
     16      -3.9889      1.00000
     17      -3.7575      1.00000
     18      -3.7575      1.00000
     19      -3.5663      1.00000
     20      -3.5663      1.00000
     21      -3.3356      1.00000
     22      -3.3355      1.00000
     23      -3.2295      1.00000
     24      -3.2295      1.00000
     25      -3.0256      1.00000
     26      -3.0256      1.00000
     27      -2.6314      1.00000
     28      -2.6314      1.00000
     29      -2.5927      1.00000
     30      -2.5926      1.00000
     31      -2.4443      1.00000
     32      -2.4443      1.00000
     33      -1.7162      1.00000
     34      -1.7162      1.00000
     35      -1.2582      1.00000
     36      -1.2582      1.00000
     37      -0.7217      1.00000
     38      -0.7217      1.00000
     39      -0.3557      1.00000
     40      -0.3556      1.00000
     41      -0.3177      1.00000
     42      -0.3177      1.00000
     43      -0.3017      1.00000
     44      -0.3017      1.00000
     45      -0.0546      1.00000
     46      -0.0546      1.00000
     47      -0.0214      1.00000
     48      -0.0214      1.00000
     49       0.5005      1.00000
     50       0.5005      1.00000
     51       0.8029      1.00000
     52       0.8030      1.00000
     53       1.4034      1.00000
     54       1.4034      1.00000
     55       1.6520      1.00000
     56       1.6521      1.00000
     57       1.6608      1.00000
     58       1.6608      1.00000
     59       1.7880      1.00000
     60       1.7881      1.00000
[...]
    102       6.2497      0.00000
    103       6.2568      0.00000
    104       6.2568      0.00000
    105       6.3591      0.00000
    106       6.3591      0.00000
    107       6.6739      0.00000
    108       6.6739      0.00000
    109       6.9043      0.00000
    110       6.9043      0.00000
    111       6.9733      0.00000
    112       6.9733      0.00000
    113       6.9874      0.00000
    114       6.9874      0.00000
    115       7.2674      0.00000
    116       7.2752      0.00000

 soft charge-density along one line, spin component           1
         0         1         2         3         4         5         6         7         8         9
 total charge-density along one line

 soft charge-density along one line, spin component           2
         0         1         2         3         4         5         6         7         8         9
 total charge-density along one line

------------------------ aborting loop because EDIFF is reached ----------------------------------------

  FORCE on cell =-STRESS in cart. coord.  units (eV):
  Direction    XX          YY          ZZ          XY          YZ          ZX
  Alpha Z   210.94478   210.94478   210.94478
  Ewald   -1773.29184 -1773.29184  -505.76530  -801.77258    -0.00011     0.00087
  Hartree   232.04791   232.22488   134.08803  -138.41954     0.00001    -0.00001
  E(xc)    -963.49008  -963.15683 -1086.04343    15.15517     0.00001    -0.00005
  Local   -1028.90834 -1026.64079  -790.73641   804.00023     0.00004     0.00024
  n-local  2780.03025  2777.26413  3043.89884  -146.94842    -0.15057     0.03964
  augment  -713.20374  -712.12361  -360.38808   -14.35849     0.00000     0.00021
  Kinetic  1497.01952  1497.92054  1456.45033    60.97657    -0.00009    -0.00006
  Fock        0.00000     0.00000     0.00000     0.00000     0.00000     0.00000
  Total     241.14846   243.14126  2102.44876  -221.36706     0.00000     0.00000
  in kB     282.78189   285.11873  2465.42909  -259.58530     0.00000     0.00000

 VOLUME and BASIS-vectors are now :
  energy-cutoff  :      700.00
  volume of cell :     1366.29
      direct lattice vectors                 reciprocal lattice vectors
     6.489200115  0.000000000  0.000000000     0.154102198  0.077051099  0.000000000
    -6.489200115 12.978400230  0.000000000     0.000000000  0.077051099  0.000000000
     0.000000000  0.000000000 16.222999573     0.000000000  0.000000000  0.061640882

  length of vectors
     6.489200115 14.510292577 16.222999573     0.172291495  0.077051099  0.061640882

 FORCES acting on ions
    electron-ion (+dipol)            ewald-force                    non-local-force                 convergence-correction
   0.221E-04 0.236E-04 -.192E+02   0.569E-04 0.408E-04 0.610E+02   0.178E-19 -.356E-19 0.327E+02   -.206E-07 0.255E-05 0.286E-05
   0.224E-04 -.625E-05 -.133E+02   -.104E-04 -.117E-04 0.133E+02   -.690E-20 -.404E-19 0.630E+00   -.390E-08 0.253E-05 -.864E-05
   0.188E-03 0.401E-05 0.505E+02   -.604E-04 -.245E-04 -.936E+02   0.585E-20 0.856E-18 -.351E+02   0.678E-08 0.254E-05 0.665E-05
   0.697E-04 0.703E-04 -.192E+02   0.565E-04 0.117E-04 0.610E+02   0.180E-17 -.774E-19 0.327E+02   0.277E-07 -.249E-05 0.274E-05
   0.424E-04 0.422E-04 -.133E+02   -.154E-05 0.240E-04 0.133E+02   0.198E-18 -.163E-19 0.630E+00   -.623E-08 -.248E-05 -.868E-05
   0.167E-03 0.611E-04 0.505E+02   -.449E-04 -.131E-04 -.936E+02   -.423E-18 -.211E-19 -.351E+02   0.217E-08 -.248E-05 0.684E-05
   0.107E-03 0.136E-04 -.505E+02   0.428E-04 -.300E-04 0.936E+02   -.327E-19 0.654E-19 0.351E+02   -.781E-08 0.578E-05 -.133E-04
   0.136E-03 -.836E-05 0.133E+02   0.850E-05 -.430E-04 -.133E+02   -.199E-18 -.432E-18 -.630E+00   0.121E-07 0.574E-05 -.110E-05
   0.186E-03 0.114E-03 0.192E+02   0.118E-05 -.872E-04 -.610E+02   0.312E-17 -.220E-18 -.327E+02   -.699E-07 0.580E-05 -.350E-05
   0.220E-04 0.126E-03 -.505E+02   0.362E-05 0.263E-04 0.936E+02   -.453E-19 0.905E-19 0.351E+02   -.603E-08 -.575E-05 -.134E-04
   0.101E-03 0.763E-04 0.133E+02   0.100E-04 0.121E-04 -.133E+02   0.267E-19 0.244E-19 -.630E+00   -.118E-08 -.571E-05 -.109E-05
   0.100E-03 0.139E-03 0.192E+02   -.240E-04 0.321E-04 -.610E+02   0.138E-17 0.346E-20 -.327E+02   0.547E-07 -.578E-05 -.345E-05
   0.103E-03 0.819E-04 -.192E+02   0.320E-04 -.941E-05 0.610E+02   0.823E-19 -.968E-19 0.327E+02   -.593E-07 0.563E-05 0.277E-05
   0.514E-04 0.139E-04 -.133E+02   -.525E-05 -.506E-05 0.133E+02   -.106E-19 0.416E-18 0.630E+00   0.648E-08 0.557E-05 -.867E-05
   0.185E-03 0.289E-04 0.505E+02   -.289E-04 -.311E-04 -.936E+02   -.193E-18 0.636E-20 -.351E+02   -.347E-09 0.561E-05 0.679E-05
   0.705E-04 0.122E-03 -.192E+02   0.293E-04 0.744E-04 0.610E+02   0.298E-19 -.596E-19 0.327E+02   0.450E-07 -.569E-05 0.283E-05
   -.187E-04 0.872E-04 -.133E+02   -.154E-04 0.433E-04 0.133E+02   0.207E-18 -.148E-19 0.630E+00   0.944E-08 -.563E-05 -.866E-05
   0.139E-03 0.126E-03 0.505E+02   -.492E-04 0.215E-04 -.936E+02   -.218E-18 0.871E-18 -.351E+02   -.155E-07 -.567E-05 0.671E-05
   0.223E-04 0.613E-04 -.505E+02   0.631E-05 -.741E-05 0.936E+02   -.288E-19 0.575E-19 0.351E+02   0.175E-07 0.219E-05 -.135E-04
   0.121E-03 0.286E-04 0.133E+02   0.107E-04 -.179E-04 -.133E+02   0.399E-19 0.143E-20 -.630E+00   -.128E-07 0.218E-05 -.108E-05
   0.876E-04 0.994E-04 0.192E+02   -.315E-04 0.225E-05 -.610E+02   0.138E-17 0.282E-20 -.327E+02   -.503E-08 0.220E-05 -.341E-05
   0.589E-04 0.123E-03 -.505E+02   0.374E-04 0.185E-04 0.936E+02   -.240E-19 0.156E-18 0.351E+02   -.608E-08 -.223E-05 -.133E-04
   0.100E-03 0.727E-04 0.133E+02   0.697E-05 0.256E-06 -.133E+02   0.295E-19 -.411E-18 -.630E+00   0.330E-08 -.220E-05 -.111E-05
   0.193E-03 0.187E-03 0.192E+02   -.307E-04 -.269E-04 -.610E+02   0.311E-17 -.210E-18 -.327E+02   0.177E-07 -.223E-05 -.354E-05
   0.697E-04 0.703E-04 -.192E+02   0.565E-04 0.117E-04 0.610E+02   0.679E-19 -.274E-19 0.327E+02   0.277E-07 -.249E-05 -.574E-05
   0.424E-04 0.422E-04 -.133E+02   -.154E-05 0.240E-04 0.133E+02   0.207E-20 0.430E-18 0.630E+00   -.623E-08 -.248E-05 -.108E-05
   0.167E-03 0.611E-04 0.505E+02   -.449E-04 -.131E-04 -.936E+02   0.154E-19 -.308E-19 -.351E+02   0.217E-08 -.248E-05 0.202E-04
   0.221E-04 0.236E-04 -.192E+02   0.569E-04 0.408E-04 0.610E+02   0.460E-18 -.525E-19 0.327E+02   -.206E-07 0.255E-05 -.562E-05
   0.224E-04 -.625E-05 -.133E+02   -.104E-04 -.117E-04 0.133E+02   -.706E-20 -.130E-19 0.630E+00   -.390E-08 0.253E-05 -.104E-05
   0.188E-03 0.401E-05 0.505E+02   -.604E-04 -.245E-04 -.936E+02   0.171E-19 -.342E-19 -.351E+02   0.678E-08 0.254E-05 0.200E-04
   0.589E-04 0.123E-03 -.505E+02   0.374E-04 0.185E-04 0.936E+02   -.964E-20 0.193E-19 0.351E+02   -.608E-08 -.223E-05 -.137E-04
   0.100E-03 0.727E-04 0.133E+02   0.697E-05 0.256E-06 -.133E+02   -.175E-19 0.351E-19 -.630E+00   0.330E-08 -.220E-05 0.117E-04
   0.193E-03 0.187E-03 0.192E+02   -.307E-04 -.269E-04 -.610E+02   -.948E-20 -.198E-18 -.327E+02   0.177E-07 -.223E-05 0.509E-05
   0.223E-04 0.613E-04 -.505E+02   0.631E-05 -.741E-05 0.936E+02   -.148E-19 0.296E-19 0.351E+02   0.175E-07 0.219E-05 -.139E-04
   0.121E-03 0.286E-04 0.133E+02   0.107E-04 -.179E-04 -.133E+02   -.241E-19 0.754E-19 -.630E+00   -.128E-07 0.218E-05 0.118E-04
   0.876E-04 0.994E-04 0.192E+02   -.315E-04 0.225E-05 -.610E+02   0.168E-17 -.222E-18 -.327E+02   -.503E-08 0.220E-05 0.521E-05
   0.705E-04 0.122E-03 -.192E+02   0.293E-04 0.744E-04 0.610E+02   0.466E-18 -.778E-19 0.327E+02   0.450E-07 -.569E-05 -.565E-05
   -.187E-04 0.872E-04 -.133E+02   -.154E-04 0.433E-04 0.133E+02   0.211E-18 -.155E-19 0.630E+00   0.944E-08 -.563E-05 -.105E-05
   0.139E-03 0.126E-03 0.505E+02   -.492E-04 0.215E-04 -.936E+02   -.190E-18 -.543E-19 -.351E+02   -.155E-07 -.567E-05 0.200E-04
   0.103E-03 0.819E-04 -.192E+02   0.320E-04 -.941E-05 0.610E+02   0.697E-19 -.241E-19 0.327E+02   -.593E-07 0.563E-05 -.571E-05
   0.514E-04 0.139E-04 -.133E+02   -.525E-05 -.506E-05 0.133E+02   -.135E-20 -.408E-20 0.630E+00   0.648E-08 0.557E-05 -.106E-05
   0.185E-03 0.289E-04 0.505E+02   -.289E-04 -.311E-04 -.936E+02   0.111E-19 -.764E-19 -.351E+02   -.347E-09 0.561E-05 0.201E-04
   0.220E-04 0.126E-03 -.505E+02   0.362E-05 0.263E-04 0.936E+02   -.145E-19 0.289E-19 0.351E+02   -.603E-08 -.575E-05 -.138E-04
   0.101E-03 0.763E-04 0.133E+02   0.100E-04 0.121E-04 -.133E+02   0.414E-20 0.358E-19 -.630E+00   -.118E-08 -.571E-05 0.118E-04
   0.100E-03 0.139E-03 0.192E+02   -.240E-04 0.321E-04 -.610E+02   0.172E-17 -.201E-18 -.327E+02   0.547E-07 -.578E-05 0.518E-05
   0.107E-03 0.136E-04 -.505E+02   0.428E-04 -.300E-04 0.936E+02   -.108E-19 0.757E-19 0.351E+02   -.781E-08 0.578E-05 -.138E-04
   0.136E-03 -.836E-05 0.133E+02   0.850E-05 -.430E-04 -.133E+02   0.513E-20 0.744E-19 -.630E+00   0.121E-07 0.574E-05 0.118E-04
   0.186E-03 0.114E-03 0.192E+02   0.118E-05 -.872E-04 -.610E+02   -.533E-19 0.186E-19 -.327E+02   -.699E-07 0.580E-05 0.513E-05
   0.456E-02 0.337E-02 0.464E-02   -.449E-14 0.187E-13 -.128E-12   0.146E-16 0.707E-18 -.853E-13   -.237E-07 -.221E-07 -.246E-05

 POSITION                                       TOTAL-FORCE (eV/Angst)
      0.09665      0.00000      0.00000         0.000000      0.000000     74.501631
      3.34125      0.00000      3.24460         0.000000      0.000000      0.604935
      0.09665      0.00000      6.48920         0.000000     -0.000000    -78.294497
      0.09665      6.48920      0.00000         0.000000     -0.000000     74.501631
     -3.14795      6.48920      3.24460         0.000000      0.000000      0.604935
      0.09665      6.48920      6.48920        -0.000000      0.000000    -78.294497
      4.96355      1.62230      1.62230         0.000000      0.000000     78.294497
      1.71895      1.62230      4.86690         0.000000      0.000000     -0.604935
      4.96355      1.62230      8.11150        -0.000000     -0.000000    -74.501631
     -1.52565      8.11150      1.62230         0.000000     -0.000000     78.294497
      1.71895      8.11150      4.86690         0.000000      0.000000     -0.604935
     -1.52565      8.11150      8.11150        -0.000000     -0.000000    -74.501631
      3.34125      3.24460      0.00000        -0.000000     -0.000000     74.501631
      0.09665      3.24460      3.24460         0.000000      0.000000      0.604935
      3.34125      3.24460      6.48920         0.000000      0.000000    -78.294497
     -3.14795      9.73380      0.00000         0.000000     -0.000000     74.501631
      0.09665      9.73380      3.24460         0.000000      0.000000      0.604935
     -3.14795      9.73380      6.48920        -0.000000      0.000000    -78.294497
      1.71895      4.86690      1.62230         0.000000      0.000000     78.294497
     -1.52565      4.86690      4.86690        -0.000000      0.000000     -0.604935
      1.71895      4.86690      8.11150         0.000000     -0.000000    -74.501631
     -4.77025     11.35610      1.62230        -0.000000      0.000000     78.294497
     -1.52565     11.35610      4.86690         0.000000     -0.000000     -0.604935
     -4.77025     11.35610      8.11150        -0.000000      0.000000    -74.501631
      0.09665      6.48920      8.11150        -0.000000      0.000000     74.501631
     -3.14795      6.48920     11.35610        -0.000000     -0.000000      0.604935
      0.09665      6.48920     14.60070         0.000000     -0.000000    -78.294497
      0.09665      0.00000      8.11150        -0.000000     -0.000000     74.501631
      3.34125      0.00000     11.35610        -0.000000     -0.000000      0.604935
      0.09665      0.00000     14.60070         0.000000     -0.000000    -78.294497
     -4.77025     11.35610      9.73380         0.000000     -0.000000     78.294497
     -1.52565     11.35610     12.97840        -0.000000     -0.000000     -0.604935
     -4.77025     11.35610      0.00000         0.000000     -0.000000    -74.501631
      1.71895      4.86690      9.73380        -0.000000     -0.000000     78.294497
     -1.52565      4.86690     12.97840        -0.000000     -0.000000     -0.604935
      1.71895      4.86690      0.00000         0.000000      0.000000    -74.501631
     -3.14795      9.73380      8.11150        -0.000000     -0.000000     74.501631
      0.09665      9.73380     11.35610        -0.000000      0.000000      0.604935
     -3.14795      9.73380     14.60070         0.000000      0.000000    -78.294497
      3.34125      3.24460      8.11150         0.000000      0.000000     74.501631
      0.09665      3.24460     11.35610        -0.000000     -0.000000      0.604935
      3.34125      3.24460     14.60070         0.000000     -0.000000    -78.294497
     -1.52565      8.11150      9.73380        -0.000000     -0.000000     78.294497
      1.71895      8.11150     12.97840        -0.000000     -0.000000     -0.604935
     -1.52565      8.11150      0.00000         0.000000      0.000000    -74.501631
      4.96355      1.62230      9.73380         0.000000      0.000000     78.294497
      1.71895      1.62230     12.97840        -0.000000      0.000000     -0.604935
      4.96355      1.62230      0.00000        -0.000000     -0.000000    -74.501631
    total drift:                                0.004555      0.003373      0.004636

  FREE ENERGIE OF THE ION-ELECTRON SYSTEM (eV)
  free  energy   TOTEN  =       273.23224829 eV

  energy  without entropy=      273.23328648  energy(sigma->0) =      273.23276739