 vasp.6.4.3 19Mar24 (build Oct 22 2024 11:23:12) complex

 executed on             LinuxIFC date 2025.06.04  00:28:12

 INCAR:
   SYSTEM = Si and Ge interface calculation
   ISTART = 0
   ICHARG = 2
   LWAVE = .FALSE.
   LREAL = AUTO
   ENCUT = 700
   ENAUG = 900
   ADDGRID = .TRUE.
   LMAXMIX = 6
   LASPH = .TRUE.
   LMIXTAU = .TRUE.
   NCORE = 16
   NELM = 100
   NBANDS = 116
   EDIFF = 1d-7
   AMIX = 0.6
   ISMEAR = 0
   SIGMA = 0.01
   NELECT = 192
   ISPIN = 2
   NUPDOWN = 1
   LVTOT = .FALSE.
   LVHAR = .TRUE.

 POTCAR:    PAW_PBE Si 05Jan2001
|           W    W    AA    RRRRR   N    N  II  N    N   GGGG   !!!           |
|           W    W   A  A   R    R  NN   N  II  NN   N  G    G  !!!           |
|           W    W  A    A  R    R  N N  N  II  N N  N  G       !!!           |
|           W WW W  AAAAAA  RRRRR   N  N N  II  N  N N  G  GGG   !            |
|           WW  WW  A    A  R   R   N   NN  II  N   NN  G    G                |
|           W    W  A    A  R    R  N    N  II  N    N   GGGG   !!!           |
|     You use a magnetic or noncollinear calculation, but did not specify     |
|     the initial magnetic moment with the MAGMOM tag. Note that a            |
|     default of 0.021 will be used for all atoms. This ferromagnetic         |
|     setup may break the symmetry of the crystal, in particular it may       |
|     rule out finding an antiferromagnetic solution. Thence, we              |
|     recommend setting the initial magnetic moment manually or verifying     |
|     carefully that this magnetic setup is desired.                          |

 POTCAR:    PAW_PBE Si 05Jan2001
   VRHFIN =Si: s2p2

   TITEL  = PAW_PBE Si 05Jan2001
   POMASS =   28.085; ZVAL   =    4.000    mass and valenz
   ENMAX  =  245.345; ENMIN  =  184.009 eV

 Optimization of the real space projectors (new method)

 maximal supplied QI-value         = 19.84
 optimisation between [QCUT,QGAM] = [ 13.49, 26.99] = [ 50.98,203.92] Ry
 Optimized for a Real-space Cutoff    1.07 Angstroem

   l    n(q)    QCUT    max X(q) W(low)/X(q) W(high)/X(q)  e(spline)
   0      9    13.493   159.560    0.22E-03    0.15E-03    0.72E-07
   0      9    13.493   115.863    0.21E-03    0.15E-03    0.71E-07
   1      8    13.493    88.339    0.15E-03    0.11E-03    0.13E-06
   1      8    13.493    48.592    0.15E-03    0.10E-03    0.13E-06
  PAW_PBE Si 05Jan2001                  :

 POSCAR: Si+Si
  positions in direct lattice

 exchange-correlation table for PE
   RHO(1)=    0.500       N(1)  =     2000
   RHO(2)=  100.500       N(2)  =     4000

 ion  position               nearest neighbor table
   1  0.944  0.912  0.000-  48 1.39  39 2.24   9 2.35  15 2.35  30 2.93
   2  0.694  0.523  0.100-  34 2.24  16 2.35  13 2.35  10 2.35
   3  0.444  0.134  0.200-  41 2.24  14 2.35  17 2.35  11 2.35
   4  0.194  0.745  0.300-  37 2.06  36 2.24   7 2.35  15 2.35  18 2.35  12 2.35
   5  0.944  0.357  0.400-  32 2.06   8 2.35  16 2.35
   6  0.694  0.968  0.500-  43 1.39  39 2.06   9 2.35  17 2.35  25 2.93
   7  0.194  0.662  0.000-  36 1.39  46 2.06   4 2.35  20 2.35  42 2.93
   8  0.944  0.273  0.100-  29 2.06   5 2.35  21 2.35
   9  0.694  0.884  0.200-  48 2.06  43 2.24   6 2.35  19 2.35   1 2.35  22 2.35
  10  0.444  0.495  0.300-  26 2.24  20 2.35   2 2.35  23 2.35
  11  0.194  0.107  0.400-  45 2.24  21 2.35  24 2.35   3 2.35
  12  0.944  0.718  0.500-  31 1.39  28 2.24  22 2.35   4 2.35  37 2.93
  13  0.694  0.662  0.000-  42 1.39  28 2.06  22 2.35   2 2.35  36 2.93
  14  0.444  0.273  0.100-  47 2.06  23 2.35   3 2.35
  15  0.194  0.884  0.200-  30 2.06  25 2.24  24 2.35   1 2.35   4 2.35  19 2.35
  16  0.944  0.495  0.300-  44 2.24   5 2.35  20 2.35   2 2.35
  17  0.694  0.107  0.400-  27 2.24   3 2.35  21 2.35   6 2.35
  18  0.444  0.718  0.500-  37 1.39  46 2.24   4 2.35  22 2.35  31 2.93
  19  0.444  0.912  0.000-  30 1.39  33 2.24   9 2.35  15 2.35  48 2.93
  20  0.194  0.523  0.100-  40 2.24  10 2.35  16 2.35   7 2.35
  21  0.944  0.134  0.200-  35 2.24  11 2.35   8 2.35  17 2.35
  22  0.694  0.745  0.300-  31 2.06  42 2.24  13 2.35  12 2.35   9 2.35  18 2.35
  23  0.444  0.357  0.400-  38 2.06  14 2.35  10 2.35
  24  0.194  0.968  0.500-  25 1.39  33 2.06  15 2.35  11 2.35  43 2.93
  25  0.056  0.912  0.500-  24 1.39  15 2.24  39 2.35  33 2.35   6 2.93
  26  0.306  0.523  0.600-  10 2.24  40 2.35  37 2.35  34 2.35
  27  0.556  0.134  0.700-  17 2.24  38 2.35  41 2.35  35 2.35
  28  0.806  0.745  0.800-  13 2.06  12 2.24  31 2.35  42 2.35  39 2.35  36 2.35
  29  0.056  0.357  0.900-   8 2.06  32 2.35  40 2.35
  30  0.306  0.968  1.000-  19 1.39  15 2.06  33 2.35  41 2.35   1 2.93
  31  0.806  0.662  0.500-  12 1.39  22 2.06  28 2.35  44 2.35  18 2.93
  32  0.056  0.273  0.600-   5 2.06  29 2.35  45 2.35
  33  0.306  0.884  0.700-  24 2.06  19 2.24  30 2.35  43 2.35  25 2.35  46 2.35
  34  0.556  0.495  0.800-   2 2.24  44 2.35  47 2.35  26 2.35
  35  0.806  0.107  0.900-  21 2.24  45 2.35  48 2.35  27 2.35
  36  0.056  0.718  0.000-   7 1.39   4 2.24  46 2.35  28 2.35  13 2.93
  37  0.306  0.662  0.500-  18 1.39   4 2.06  46 2.35  26 2.35  12 2.93
  38  0.556  0.273  0.600-  23 2.06  47 2.35  27 2.35
  39  0.806  0.884  0.700-   6 2.06   1 2.24  48 2.35  25 2.35  43 2.35  28 2.35
  40  0.056  0.495  0.800-  20 2.24  29 2.35  26 2.35  44 2.35
  41  0.306  0.107  0.900-   3 2.24  27 2.35  45 2.35  30 2.35
  42  0.556  0.718  0.000-  13 1.39  22 2.24  28 2.35  46 2.35   7 2.93
  43  0.556  0.912  0.500-   6 1.39   9 2.24  33 2.35  39 2.35  24 2.93
  44  0.806  0.523  0.600-  16 2.24  34 2.35  31 2.35  40 2.35
  45  0.056  0.134  0.700-  11 2.24  32 2.35  35 2.35  41 2.35
  46  0.306  0.745  0.800-   7 2.06  18 2.24  37 2.35  36 2.35  33 2.35  42 2.35
  47  0.556  0.357  0.900-  14 2.06  38 2.35  34 2.35
  48  0.806  0.968  1.000-   1 1.39   9 2.06  39 2.35  35 2.35  19 2.93

  LATTYP: Found a simple orthorhombic cell.
 ALAT       =     6.4005002980
 B/A-ratio  =     1.1999990761
 C/A-ratio  =     2.5455821435

  Lattice vectors:

 A1 = (   0.0000000000,   0.0000000000,   6.4005002980)
 A2 = (   7.6805944440,   0.0000000000,   0.0000000000)
 A3 = (   0.0000000000,  16.2929992680,   0.0000000000)

Analysis of symmetry for initial positions (statically):
 Subroutine PRICEL returns following result:

[...]

   2 primitive cells build up your supercell.

 Routine SETGRP: Setting up the symmetry group for a
 simple orthorhombic supercell.

 Subroutine GETGRP returns: Found  4 space group operations
 (whereof  1 operations were pure point group operations)
 out of a pool of  8 trial point group operations.

The static configuration has the point symmetry C_1 .
 The point group associated with its full space group is C_2h.

Analysis of symmetry for dynamics (positions and initial velocities):
 Subroutine PRICEL returns following result:

[...]

The dynamic configuration has the point symmetry C_1 .
 The point group associated with its full space group is C_2h.

Analysis of structural, dynamic, and magnetic symmetry:
 Subroutine PRICEL returns following result:

  LATTYP: Found a simple orthorhombic cell.
 ALAT       =     3.8402974524
 B/A-ratio  =     1.6666678499
 C/A-ratio  =     4.2426399178

  Lattice vectors:

 A1 = (  -3.8402974524,   0.0000000000,   0.0000000000)
 A2 = (   0.0000000000,   0.0000000000,   6.4005002980)
 A3 = (   0.0000000000,  16.2929992680,   0.0000000000)

   2 primitive cells build up your supercell.

 Routine SETGRP: Setting up the symmetry group for a
 simple orthorhombic supercell.

 Subroutine GETGRP returns: Found  4 space group operations
 (whereof  1 operations were pure point group operations)
 out of a pool of  8 trial point group operations.

The overall configuration has the point symmetry C_1 .
 The point group associated with its full space group is C_2h.

 Subroutine INISYM returns: Found  4 space group operations
 (whereof  1 operations are pure point group operations),
 and found     2 'primitive' translations

                                     Primitive cell

  volume of cell :     400.4791

  direct lattice vectors                    reciprocal lattice vectors
    -3.840297452  0.000000000  0.000000000    -0.260396496  0.000000000  0.000000000
     0.000000000  0.000000000  6.400500298     0.000000000  0.000000000  0.156237787
     0.000000000 16.292999268  0.000000000     0.000000000  0.061376054  0.000000000

  length of vectors
     3.840297452  6.400500298 16.292999268     0.260396496  0.156237787  0.061376054

  position of ions in fractional coordinates (direct lattice)
     0.112972015  0.000000013  0.912132978
     0.612972045  0.100000024  0.523244023
     0.112972135  0.200000033  0.134355128
     0.612972163  0.299999952  0.745466113
     0.112972373  0.400000036  0.356577158
     0.612972641  0.500000060  0.967688084
     0.612971747  0.000000000  0.662133038
     0.112972015  0.099999987  0.273244023
     0.612971955  0.199999958  0.884355068
     0.112972135  0.299999982  0.495466053
     0.612972401  0.399999917  0.106577039
     0.112972611  0.500000060  0.717687964
     0.887028127  0.500000119  0.912132978
     0.387028195  0.600000024  0.523244023
     0.887027985  0.700000048  0.134355128
     0.387027957  0.800000072  0.745466113
     0.887027747  0.899999976  0.356577158
     0.387027599  0.999999881  0.967688084
     0.387028075  0.500000119  0.662133038
     0.887027985  0.600000024  0.273243994
     0.387027957  0.699999928  0.884355128
     0.887027747  0.800000072  0.495466053
     0.387027837  0.899999857  0.106577039
     0.887027271  0.000000000  0.717687964

  ion indices of the primitive-cell ions
   primitive index   ion index
                 1           1
                 2          20
                 3          21
                 4           4
                 5           5
                 6          24
                 7          13
                 8           8
                 9          15
                10          16
                11          11
                12          12
                13          25
                14          44
                15          45
                16          28
                17          29
                18          48
                19          31
                20          32
                21          39
                22          40
                23          35
                24          36

 KPOINTS: Automatic KPOINTS generated

Automatic generation of k-mesh.
 Grid dimensions read from file:
 generate k-points for:    4    2    5

 Generating k-lattice:

  Cartesian coordinates                     Fractional coordinates (reciprocal lattice)
     0.032549564  0.000000000  0.000000000     0.250000000  0.000000000  0.000000000
     0.000000000  0.030688027  0.000000000     0.000000000  0.500000000  0.000000000
     0.000000000  0.000000000  0.031247557     0.000000000  0.000000000  0.200000000

  Length of vectors
     0.032549564  0.030688027  0.031247557

  Shift w.r.t. Gamma in fractional coordinates (k-lattice)
     0.000000000  0.000000000  0.000000000

 Subroutine IBZKPT returns following result:

 Found     18 irreducible k-points:

 Following reciprocal coordinates:
[...]
     42       1.5661      1.00000
     43       1.8609      1.00000
     44       1.8609      1.00000
     45       2.1191      1.00000
     46       2.1191      1.00000
     47       2.2758      1.00000
     48       2.2758      1.00000
     49       2.4324      1.00000
     50       2.4324      1.00000
     51       2.6007      1.00000
     52       2.6007      1.00000
     53       2.9490      1.00000
     54       2.9490      1.00000
     55       3.0161      1.00000
     56       3.0161      1.00000
     57       3.6306      1.00000
     58       3.6306      1.00000
     59       3.8891      1.00000
     60       3.8891      1.00000
[...]
    102       8.4129      0.00000
    103       8.6374      0.00000
    104       8.6374      0.00000
    105       8.6559      0.00000
    106       8.6559      0.00000
    107       8.9293      0.00000
    108       8.9293      0.00000
    109       9.1049      0.00000
    110       9.1049      0.00000
    111       9.3522      0.00000
    112       9.3522      0.00000
    113       9.4141      0.00000
    114       9.4141      0.00000
    115       9.5973      0.00000
    116       9.6178      0.00000
 Fermi energy:         7.9032492848

 spin component 2

[...]

 k-point    18 :       0.5000    0.5000    0.4000
  band No.  band energies     occupation
      1      -6.3374      1.00000
      2      -6.3374      1.00000
      3      -5.7697      1.00000
      4      -5.7697      1.00000
      5      -5.7317      1.00000
      6      -5.7317      1.00000
      7      -5.2235      1.00000
      8      -5.2235      1.00000
      9      -3.5792      1.00000
     10      -3.5792      1.00000
     11      -3.3533      1.00000
     12      -3.3533      1.00000
     13      -2.9540      1.00000
     14      -2.9540      1.00000
     15      -2.7437      1.00000
     16      -2.7437      1.00000
     17      -1.9343      1.00000
     18      -1.9343      1.00000
     19      -1.5455      1.00000
     20      -1.5455      1.00000
     21      -1.3447      1.00000
     22      -1.3447      1.00000
     23      -0.9151      1.00000
     24      -0.9151      1.00000
     25      -0.8662      1.00000
     26      -0.8662      1.00000
     27      -0.2278      1.00000
     28      -0.2278      1.00000
     29       0.3410      1.00000
     30       0.3410      1.00000
     31       0.4478      1.00000
     32       0.4478      1.00000
     33       0.9772      1.00000
     34       0.9772      1.00000
     35       1.2756      1.00000
     36       1.2756      1.00000
     37       1.3419      1.00000
     38       1.3419      1.00000
     39       1.4971      1.00000
     40       1.4971      1.00000
     41       1.5886      1.00000
     42       1.5886      1.00000
     43       1.8837      1.00000
     44       1.8837      1.00000
     45       2.1399      1.00000
     46       2.1399      1.00000
     47       2.2988      1.00000
     48       2.2988      1.00000
     49       2.4532      1.00000
     50       2.4532      1.00000
     51       2.6240      1.00000
     52       2.6240      1.00000
     53       2.9701      1.00000
     54       2.9701      1.00000
     55       3.0383      1.00000
     56       3.0383      1.00000
     57       3.6513      1.00000
     58       3.6513      1.00000
     59       3.9084      1.00000
     60       3.9084      1.00000
[...]
    102       8.4404      0.00000
    103       8.6672      0.00000
    104       8.6672      0.00000
    105       8.6822      0.00000
    106       8.6822      0.00000
    107       8.9575      0.00000
    108       8.9576      0.00000
    109       9.1316      0.00000
    110       9.1316      0.00000
    111       9.3785      0.00000
    112       9.3785      0.00000
    113       9.4397      0.00000
    114       9.4397      0.00000
    115       9.6252      0.00000
    116       9.6282      0.00000

 soft charge-density along one line, spin component           1
         0         1         2         3         4         5         6         7         8         9
 total charge-density along one line

 soft charge-density along one line, spin component           2
         0         1         2         3         4         5         6         7         8         9
 total charge-density along one line

------------------------ aborting loop because EDIFF is reached ----------------------------------------

  FORCE on cell =-STRESS in cart. coord.  units (eV):
  Direction    XX          YY          ZZ          XY          YZ          ZX
  Alpha Z    96.83385    96.83385    96.83385
  Ewald   -1267.47638 -2535.86234 -1126.60972     0.00029  -179.90176    -0.00029
  Hartree   675.18165  -506.05988   842.18069    -0.00000    -4.03957     0.00001
  E(xc)    -648.63788  -647.83295  -641.52916    -0.00000     2.09074     0.00000
  Local   -1816.64918   561.54175 -2328.11015    -0.00007   173.94329     0.00014
  n-local  2166.80720  2162.42799  2058.73323    -0.33476   -48.91293    -1.78529
  augment  -304.86624  -310.56785  -313.95127     0.00001     1.86587    -0.00000
  Kinetic  1539.66119  1550.15098  1515.30425    -0.81847    28.07344     3.88476
  Fock        0.00000     0.00000     0.00000     0.00000     0.00000     0.00000
  Total     440.85421   370.63157   102.85172     0.00000   -26.88092     0.00000
  in kB     881.85216   741.38397   205.73698     0.00000   -53.77061     0.00000

 VOLUME and BASIS-vectors are now :
  energy-cutoff  :      700.00
  volume of cell :      800.96
      direct lattice vectors                 reciprocal lattice vectors
     7.680594444  0.000000000  0.000000000     0.130198256  0.000000000  0.000000000
     0.000000000 16.292999268  0.000000000     0.000000000  0.061376054  0.000000000
     0.000000000  0.000000000  6.400500298     0.000000000  0.000000000  0.156237787

  length of vectors
     7.680594444 16.292999268  6.400500298     0.130198256  0.061376054  0.156237787

 FORCES acting on ions
    electron-ion (+dipol)            ewald-force                    non-local-force                 convergence-correction
   -.711E+02 -.123E+01 -.119E+01   0.802E+02 -.419E+01 0.189E+01   0.396E+02 -.354E+02 0.465E+00   -.477E-04 0.346E-03 -.658E-05
   -.103E+02 0.878E+02 -.730E+01   0.965E+01 -.859E+02 0.610E+01   0.132E+01 -.173E+01 0.231E+01   -.146E-04 0.128E-03 0.950E-05
   -.931E+01 -.710E+02 -.680E+01   0.837E+01 0.712E+02 0.579E+01   0.129E+01 0.620E+00 0.182E+01   0.915E-05 -.193E-03 0.671E-05
   0.218E+01 0.111E+02 0.246E+01   -.456E+01 -.118E+02 -.105E+01   0.140E+01 0.371E+01 -.268E+01   0.174E-04 -.297E-03 -.121E-04
   0.161E+02 0.936E+01 0.733E+00   -.146E+02 -.131E+02 -.135E+01   -.351E+01 0.494E+01 -.196E+01   -.419E-04 0.213E-04 -.103E-04
   -.494E+02 -.141E+03 0.179E+01   0.563E+02 0.148E+03 -.135E+01   0.391E+02 0.357E+02 -.306E+01   -.807E-04 0.244E-03 -.467E-05
   -.494E+02 0.141E+03 -.179E+01   0.563E+02 -.148E+03 0.135E+01   0.391E+02 -.357E+02 0.306E+01   -.811E-04 -.244E-03 0.471E-05
   0.161E+02 -.936E+01 -.733E+00   -.146E+02 0.131E+02 0.135E+01   -.351E+01 -.494E+01 0.196E+01   -.419E-04 -.209E-04 0.103E-04
   0.218E+01 -.111E+02 -.246E+01   -.456E+01 0.118E+02 0.105E+01   0.140E+01 -.371E+01 0.268E+01   0.178E-04 0.298E-03 0.120E-04
   -.931E+01 0.710E+02 0.680E+01   0.837E+01 -.712E+02 -.579E+01   0.129E+01 -.620E+00 -.182E+01   0.913E-05 0.193E-03 -.674E-05
   -.103E+02 -.878E+02 0.730E+01   0.965E+01 0.859E+02 -.610E+01   0.132E+01 0.173E+01 -.231E+01   -.152E-04 -.129E-03 -.948E-05
   -.711E+02 0.123E+01 0.119E+01   0.802E+02 0.419E+01 -.189E+01   0.396E+02 0.354E+02 -.465E+00   -.477E-04 -.346E-03 0.656E-05
   -.494E+02 0.141E+03 -.179E+01   0.563E+02 -.148E+03 0.135E+01   0.391E+02 -.357E+02 0.306E+01   -.806E-04 -.244E-03 0.470E-05
   0.161E+02 -.936E+01 -.733E+00   -.146E+02 0.131E+02 0.135E+01   -.351E+01 -.494E+01 0.196E+01   -.415E-04 -.210E-04 0.103E-04
   0.218E+01 -.111E+02 -.246E+01   -.456E+01 0.118E+02 0.105E+01   0.140E+01 -.371E+01 0.268E+01   0.175E-04 0.298E-03 0.120E-04
   -.931E+01 0.710E+02 0.680E+01   0.837E+01 -.712E+02 -.579E+01   0.129E+01 -.620E+00 -.182E+01   0.889E-05 0.193E-03 -.674E-05
   -.103E+02 -.878E+02 0.730E+01   0.965E+01 0.859E+02 -.610E+01   0.132E+01 0.173E+01 -.231E+01   -.147E-04 -.129E-03 -.949E-05
   -.711E+02 0.123E+01 0.119E+01   0.802E+02 0.419E+01 -.189E+01   0.396E+02 0.354E+02 -.465E+00   -.477E-04 -.345E-03 0.655E-05
   -.711E+02 -.123E+01 -.119E+01   0.802E+02 -.419E+01 0.189E+01   0.396E+02 -.354E+02 0.465E+00   -.477E-04 0.346E-03 -.658E-05
   -.103E+02 0.878E+02 -.730E+01   0.965E+01 -.859E+02 0.610E+01   0.132E+01 -.173E+01 0.231E+01   -.153E-04 0.128E-03 0.950E-05
   -.931E+01 -.710E+02 -.680E+01   0.837E+01 0.712E+02 0.579E+01   0.129E+01 0.620E+00 0.182E+01   0.887E-05 -.193E-03 0.670E-05
   0.218E+01 0.111E+02 0.246E+01   -.456E+01 -.118E+02 -.105E+01   0.140E+01 0.371E+01 -.268E+01   0.179E-04 -.297E-03 -.121E-04
   0.161E+02 0.936E+01 0.733E+00   -.146E+02 -.131E+02 -.135E+01   -.351E+01 0.494E+01 -.196E+01   -.415E-04 0.212E-04 -.103E-04
   -.494E+02 -.141E+03 0.179E+01   0.563E+02 0.148E+03 -.135E+01   0.391E+02 0.357E+02 -.306E+01   -.811E-04 0.244E-03 -.466E-05
   0.711E+02 -.123E+01 -.119E+01   -.802E+02 -.419E+01 0.189E+01   -.396E+02 -.354E+02 0.465E+00   0.476E-04 0.346E-03 -.637E-05
   0.103E+02 0.878E+02 -.730E+01   -.965E+01 -.859E+02 0.610E+01   -.132E+01 -.173E+01 0.231E+01   0.148E-04 0.128E-03 0.966E-05
   0.931E+01 -.710E+02 -.680E+01   -.837E+01 0.712E+02 0.579E+01   -.129E+01 0.620E+00 0.182E+01   -.877E-05 -.193E-03 0.675E-05
   -.218E+01 0.111E+02 0.246E+01   0.456E+01 -.118E+02 -.105E+01   -.140E+01 0.371E+01 -.268E+01   -.175E-04 -.297E-03 -.121E-04
   -.161E+02 0.936E+01 0.733E+00   0.146E+02 -.131E+02 -.135E+01   0.351E+01 0.494E+01 -.196E+01   0.413E-04 0.213E-04 -.104E-04
   0.494E+02 -.141E+03 0.179E+01   -.563E+02 0.148E+03 -.135E+01   -.391E+02 0.357E+02 -.306E+01   0.807E-04 0.244E-03 -.489E-05
   0.494E+02 0.141E+03 -.179E+01   -.563E+02 -.148E+03 0.135E+01   -.391E+02 -.357E+02 0.306E+01   0.811E-04 -.244E-03 0.486E-05
   -.161E+02 -.936E+01 -.733E+00   0.146E+02 0.131E+02 0.135E+01   0.351E+01 -.494E+01 0.196E+01   0.414E-04 -.210E-04 0.104E-04
   -.218E+01 -.111E+02 -.246E+01   0.456E+01 0.118E+02 0.105E+01   -.140E+01 -.371E+01 0.268E+01   -.178E-04 0.298E-03 0.121E-04
   0.931E+01 0.710E+02 0.680E+01   -.837E+01 -.712E+02 -.579E+01   -.129E+01 -.620E+00 -.182E+01   -.871E-05 0.193E-03 -.672E-05
   0.103E+02 -.878E+02 0.730E+01   -.965E+01 0.859E+02 -.610E+01   -.132E+01 0.173E+01 -.231E+01   0.150E-04 -.129E-03 -.966E-05
   0.711E+02 0.123E+01 0.119E+01   -.802E+02 0.419E+01 -.189E+01   -.396E+02 0.354E+02 -.465E+00   0.476E-04 -.346E-03 0.639E-05
   0.494E+02 0.141E+03 -.179E+01   -.563E+02 -.148E+03 0.135E+01   -.391E+02 -.357E+02 0.306E+01   0.807E-04 -.244E-03 0.485E-05
   -.161E+02 -.936E+01 -.733E+00   0.146E+02 0.131E+02 0.135E+01   0.351E+01 -.494E+01 0.196E+01   0.420E-04 -.210E-04 0.104E-04
   -.218E+01 -.111E+02 -.246E+01   0.456E+01 0.118E+02 0.105E+01   -.140E+01 -.371E+01 0.268E+01   -.175E-04 0.298E-03 0.121E-04
   0.931E+01 0.710E+02 0.680E+01   -.837E+01 -.712E+02 -.579E+01   -.129E+01 -.620E+00 -.182E+01   -.931E-05 0.193E-03 -.671E-05
   0.103E+02 -.878E+02 0.730E+01   -.965E+01 0.859E+02 -.610E+01   -.132E+01 0.173E+01 -.231E+01   0.149E-04 -.129E-03 -.967E-05
   0.711E+02 0.123E+01 0.119E+01   -.802E+02 0.419E+01 -.189E+01   -.396E+02 0.354E+02 -.465E+00   0.478E-04 -.346E-03 0.640E-05
   0.711E+02 -.123E+01 -.119E+01   -.802E+02 -.419E+01 0.189E+01   -.396E+02 -.354E+02 0.465E+00   0.479E-04 0.346E-03 -.637E-05
   0.103E+02 0.878E+02 -.730E+01   -.965E+01 -.859E+02 0.610E+01   -.132E+01 -.173E+01 0.231E+01   0.151E-04 0.128E-03 0.966E-05
   0.931E+01 -.710E+02 -.680E+01   -.837E+01 0.712E+02 0.579E+01   -.129E+01 0.620E+00 0.182E+01   -.925E-05 -.193E-03 0.675E-05
   -.218E+01 0.111E+02 0.246E+01   0.456E+01 -.118E+02 -.105E+01   -.140E+01 0.371E+01 -.268E+01   -.178E-04 -.297E-03 -.121E-04
   -.161E+02 0.936E+01 0.733E+00   0.146E+02 -.131E+02 -.135E+01   0.351E+01 0.494E+01 -.196E+01   0.420E-04 0.212E-04 -.104E-04
   0.494E+02 -.141E+03 0.179E+01   -.563E+02 0.148E+03 -.135E+01   -.391E+02 0.357E+02 -.306E+01   0.810E-04 0.244E-03 -.489E-05
   0.600E-03 -.394E-02 0.267E-03   0.121E-12 -.853E-13 -.402E-13   0.213E-13 -.142E-13 0.444E-15   -.264E-08 0.489E-06 -.136E-08

 POSITION                                       TOTAL-FORCE (eV/Angst)
      7.24675     14.86138      0.00000        48.702999    -40.810583      1.161838
      5.32660      8.52521      0.64005         0.693950      0.207749      1.113073
      3.40645      2.18905      1.28010         0.345692      0.829377      0.807855
      1.48630     12.14588      1.92015        -0.977598      3.026851     -1.270170
      7.24675      5.80971      2.56020        -1.928692      1.225113     -2.574102
      5.32660     15.76654      3.20025        45.954645     43.498249     -2.620726
      1.48630     10.78813      0.00000        45.954645    -43.498249      2.620726
      7.24675      4.45196      0.64005        -1.928692     -1.225113      2.574102
      5.32660     14.40880      1.28010        -0.977598     -3.026851      1.270170
      3.40645      8.07263      1.92015         0.345692     -0.829377     -0.807855
      1.48630      1.73646      2.56020         0.693950     -0.207749     -1.113073
      7.24675     11.69329      3.20025        48.702999     40.810583     -1.161838
      5.32660     10.78813      0.00000        45.954645    -43.498249      2.620726
      3.40645      4.45196      0.64005        -1.928692     -1.225113      2.574102
      1.48630     14.40880      1.28010        -0.977598     -3.026851      1.270170
      7.24675      8.07263      1.92015         0.345692     -0.829377     -0.807855
      5.32660      1.73646      2.56020         0.693950     -0.207749     -1.113073
      3.40645     11.69329      3.20025        48.702999     40.810583     -1.161838
      3.40645     14.86138      0.00000        48.702999    -40.810583      1.161838
      1.48630      8.52521      0.64005         0.693950      0.207749      1.113073
      7.24675      2.18905      1.28010         0.345692      0.829377      0.807855
      5.32660     12.14588      1.92015        -0.977598      3.026851     -1.270170
      3.40645      5.80971      2.56020        -1.928692      1.225113     -2.574102
      1.48630     15.76654      3.20025        45.954645     43.498249     -2.620726
      0.43385     14.86138      3.20025       -48.702999    -40.810583      1.161838
      2.35399      8.52521      3.84030        -0.693950      0.207749      1.113073
      4.27414      2.18905      4.48035        -0.345692      0.829377      0.807855
      6.19429     12.14588      5.12040         0.977598      3.026851     -1.270170
      0.43385      5.80971      5.76045         1.928692      1.225113     -2.574102
      2.35400     15.76654      6.40050       -45.954645     43.498249     -2.620726
      6.19429     10.78813      3.20025       -45.954645    -43.498249      2.620726
      0.43385      4.45196      3.84030         1.928692     -1.225113      2.574102
      2.35399     14.40880      4.48035         0.977598     -3.026851      1.270170
      4.27415      8.07263      5.12040        -0.345692     -0.829377     -0.807855
      6.19429      1.73646      5.76045        -0.693950     -0.207749     -1.113073
      0.43385     11.69329      0.00000       -48.702999     40.810583     -1.161838
      2.35399     10.78813      3.20025       -45.954645    -43.498249      2.620726
      4.27414      4.45196      3.84030         1.928692     -1.225113      2.574102
      6.19429     14.40880      4.48035         0.977598     -3.026851      1.270170
      0.43385      8.07263      5.12040        -0.345692     -0.829377     -0.807855
      2.35400      1.73646      5.76045        -0.693950     -0.207749     -1.113073
      4.27415     11.69329      0.00000       -48.702999     40.810583     -1.161838
      4.27414     14.86138      3.20025       -48.702999    -40.810583      1.161838
      6.19429      8.52521      3.84030        -0.693950      0.207749      1.113073
      0.43385      2.18905      4.48035        -0.345692      0.829377      0.807855
      2.35399     12.14588      5.12040         0.977598      3.026851     -1.270170
      4.27415      5.80971      5.76045         1.928692      1.225113     -2.574102
      6.19429     15.76654      6.40050       -45.954645     43.498249     -2.620726
    total drift:                                0.000600     -0.003942      0.000267

  FREE ENERGIE OF THE ION-ELECTRON SYSTEM (eV)
  free  energy   TOTEN  =       -91.68203379 eV

  energy  without entropy=      -91.68104666  energy(sigma->0) =      -91.68154023