 vasp.6.4.3 19Mar24 (build Oct 22 2024 11:23:12) complex

 executed on             LinuxIFC date 2025.06.03  23:16:41

 INCAR:
   SYSTEM = Si and Ge interface calculation
   ISTART = 0
   ICHARG = 2
   LWAVE = .FALSE.
   LREAL = AUTO
   ENCUT = 700
   ENAUG = 900
   ADDGRID = .TRUE.
   LMAXMIX = 6
   LASPH = .TRUE.
   LMIXTAU = .TRUE.
   NCORE = 16
   NELM = 100
   NBANDS = 116
   EDIFF = 1d-7
   AMIX = 0.6
   ISMEAR = 0
   SIGMA = 0.01
   NELECT = 192
   ISPIN = 2
   NUPDOWN = 1
   LVTOT = .FALSE.
   LVHAR = .TRUE.

 POTCAR:    PAW_PBE Ge 05Jan2001
|           W    W    AA    RRRRR   N    N  II  N    N   GGGG   !!!           |
|           W    W   A  A   R    R  NN   N  II  NN   N  G    G  !!!           |
|           W    W  A    A  R    R  N N  N  II  N N  N  G       !!!           |
|           W WW W  AAAAAA  RRRRR   N  N N  II  N  N N  G  GGG   !            |
|           WW  WW  A    A  R   R   N   NN  II  N   NN  G    G                |
|           W    W  A    A  R    R  N    N  II  N    N   GGGG   !!!           |
|     You use a magnetic or noncollinear calculation, but did not specify     |
|     the initial magnetic moment with the MAGMOM tag. Note that a            |
|     default of 0.021 will be used for all atoms. This ferromagnetic         |
|     setup may break the symmetry of the crystal, in particular it may       |
|     rule out finding an antiferromagnetic solution. Thence, we              |
|     recommend setting the initial magnetic moment manually or verifying     |
|     carefully that this magnetic setup is desired.                          |

 POTCAR:    PAW_PBE Ge 05Jan2001
   VRHFIN =Ge: s2p2

   TITEL  = PAW_PBE Ge 05Jan2001
   POMASS =   72.610; ZVAL   =    4.000    mass and valenz
   ENMAX  =  173.807; ENMIN  =  130.355 eV

 Optimization of the real space projectors (new method)

 maximal supplied QI-value         = 16.25
 optimisation between [QCUT,QGAM] = [ 13.49, 26.98] = [ 50.95,203.80] Ry
 Optimized for a Real-space Cutoff    1.25 Angstroem

   l    n(q)    QCUT    max X(q) W(low)/X(q) W(high)/X(q)  e(spline)
   0     10    13.489    65.336    0.91E-04    0.11E-03    0.34E-06
   0     10    13.489    52.220    0.89E-04    0.11E-03    0.34E-06
   1     10    13.489    36.409    0.22E-03    0.27E-03    0.14E-06
   1     10    13.489    21.334    0.21E-03    0.27E-03    0.14E-06
   2      9    13.489     4.673    0.11E-03    0.12E-03    0.19E-06
  PAW_PBE Ge 05Jan2001                  :

 POSCAR: Ge+Ge
  positions in direct lattice

 exchange-correlation table for PE
   RHO(1)=    0.500       N(1)  =     2000
   RHO(2)=  100.500       N(2)  =     4000

 ion  position               nearest neighbor table
   1  0.661  0.661  0.000-  42 1.06  10 2.45  28 2.45
   2  0.494  0.494  0.300-  10 2.45  31 2.45  11 2.45  29 2.45  48 2.85
   3  0.328  0.328  0.600-  32 2.45  11 2.45  12 2.45  30 2.45
   4  0.328  0.328  0.000-  44 1.87  38 2.37  16 2.45  31 2.45  48 2.55  41 2.57  45 2.73
   5  0.161  0.161  0.300-  32 2.45  34 2.45  17 2.45  16 2.45
   6  0.994  0.994  0.600-  37 1.47  35 2.45  33 2.45  17 2.45  18 2.45  46 2.82
   7  0.994  0.994  0.000-  37 2.39  34 2.45  13 2.45  47 2.57  46 2.82
   8  0.828  0.828  0.300-  13 2.45  35 2.45  14 2.45  28 2.45
   9  0.661  0.661  0.600-  36 2.45  14 2.45  15 2.45  29 2.45
  10  0.411  0.661  0.150-  22 2.45   2 2.45   1 2.45  26 2.45  48 2.69  42 2.82
  11  0.244  0.494  0.450-  23 2.45   3 2.45   2 2.45  27 2.45
  12  0.078  0.328  0.750-  41 0.99  24 2.45   3 2.45  44 2.85
  13  0.744  0.994  0.150-   8 2.45   7 2.45  20 2.45  25 2.45
  14  0.578  0.828  0.450-  21 2.45  26 2.45   9 2.45   8 2.45
  15  0.411  0.661  0.750-  27 2.45   9 2.45  42 2.82
  16  0.078  0.328  0.150-  45 2.23   4 2.45  23 2.45   5 2.45  19 2.45  41 2.85
  17  0.911  0.161  0.450-  24 2.45   5 2.45   6 2.45  20 2.45
  18  0.744  0.994  0.750-  43 1.06  37 1.92  40 2.16   6 2.45  21 2.45
  19  0.828  0.328  0.000-  47 1.87  41 2.37  31 2.45  16 2.45  45 2.55  38 2.57  48 2.73
  20  0.661  0.161  0.300-  31 2.45  13 2.45  17 2.45  32 2.45
  21  0.494  0.994  0.600-  40 1.47  14 2.45  32 2.45  18 2.45  33 2.45  43 2.82
  22  0.161  0.661  0.000-  39 1.06  10 2.45  28 2.45
  23  0.994  0.494  0.300-  28 2.45  11 2.45  16 2.45  29 2.45  45 2.85
  24  0.828  0.328  0.600-  12 2.45  17 2.45  29 2.45  30 2.45
  25  0.494  0.994  0.000-  40 2.39  34 2.45  13 2.45  44 2.57  43 2.82
  26  0.328  0.828  0.300-  34 2.45  14 2.45  35 2.45  10 2.45
  27  0.161  0.661  0.600-  15 2.45  36 2.45  11 2.45  35 2.45
  28  0.911  0.661  0.150-  23 2.45  22 2.45   1 2.45   8 2.45  45 2.69  39 2.82
  29  0.744  0.494  0.450-  24 2.45  23 2.45   2 2.45   9 2.45
  30  0.578  0.328  0.750-  38 0.99  24 2.45   3 2.45  47 2.85
  31  0.578  0.328  0.150-  48 2.23   2 2.45  19 2.45  20 2.45   4 2.45  38 2.85
  32  0.411  0.161  0.450-   5 2.45   3 2.45  21 2.45  20 2.45
  33  0.244  0.994  0.750-  46 1.06  40 1.92  37 2.16   6 2.45  21 2.45
  34  0.244  0.994  0.150-  26 2.45  25 2.45   5 2.45   7 2.45
  35  0.078  0.828  0.450-   8 2.45   6 2.45  26 2.45  27 2.45
  36  0.911  0.661  0.750-   9 2.45  27 2.45  39 2.82
  37  0.963  0.027  0.750-   6 1.47  18 1.92  33 2.16   7 2.39  46 2.45  47 2.45  43 2.45
  38  0.574  0.304  0.850-  30 0.99   4 2.37  47 2.45  44 2.45  48 2.45  19 2.57  31 2.85
  39  0.185  0.582  0.950-  22 1.06  48 2.45  45 2.45  28 2.82  36 2.82
  40  0.463  0.027  0.750-  21 1.47  33 1.92  18 2.16  25 2.39  43 2.45  46 2.45  44 2.45
  41  0.074  0.304  0.850-  12 0.99  19 2.37  44 2.45  47 2.45  45 2.45   4 2.57  16 2.85
  42  0.685  0.582  0.950-   1 1.06  45 2.45  48 2.45  10 2.82  15 2.82
  43  0.768  0.915  0.800-  18 1.06  40 2.45  37 2.45  21 2.82  25 2.82
  44  0.380  0.193  0.900-   4 1.87  40 2.45  38 2.45  41 2.45  25 2.57  12 2.85
  45  0.991  0.471  0.000-  16 2.23  42 2.45  39 2.45  41 2.45  19 2.55  28 2.69   4 2.73  23 2.85

  46  0.268  0.915  0.800-  33 1.06  37 2.45  40 2.45   6 2.82   7 2.82
  47  0.880  0.193  0.900-  19 1.87  37 2.45  38 2.45  41 2.45   7 2.57  30 2.85
  48  0.491  0.471  0.000-  31 2.23  39 2.45  42 2.45  38 2.45   4 2.55  10 2.69  19 2.73   2 2.85

  LATTYP: Found a base centered orthorhombic cell.
 ALAT       =     8.0013380050
 B/A-ratio  =     2.9999998809
 C/A-ratio  =     1.1785114466

  Lattice vectors:

 A1 = (   4.0006690020, -12.0020065310,   0.0000000000)
 A2 = (   4.0006690030,  12.0020065310,   0.0000000000)
 A3 = (   0.0000000000,   0.0000000000,   9.4296684270)

Analysis of symmetry for initial positions (statically):
 Subroutine PRICEL returns following result:

  LATTYP: Found a simple orthorhombic cell.
 ALAT       =     4.0006685304
 B/A-ratio  =     2.3570231713
 C/A-ratio  =     3.0000002349

[...]

   2 primitive cells build up your supercell.

 Routine SETGRP: Setting up the symmetry group for a
 base centered orthorhombic supercell.

 Subroutine GETGRP returns: Found  1 space group operations
 (whereof  1 operations were pure point group operations)
 out of a pool of  8 trial point group operations.

The static configuration has the point symmetry C_1 .

Analysis of symmetry for dynamics (positions and initial velocities):
 Subroutine PRICEL returns following result:

[...]

The dynamic configuration has the point symmetry C_1 .

Analysis of structural, dynamic, and magnetic symmetry:
 Subroutine PRICEL returns following result:

  LATTYP: Found a simple orthorhombic cell.
 ALAT       =     4.0006685304
 B/A-ratio  =     2.3570231713
 C/A-ratio  =     3.0000002349

  Lattice vectors:

 A1 = (  -4.0006685304,   0.0000000000,   0.0000000000)
 A2 = (   0.0000000000,   0.0000000000,   9.4296684270)
 A3 = (   0.0000004726,  12.0020065310,   0.0000000000)

   2 primitive cells build up your supercell.

 Routine SETGRP: Setting up the symmetry group for a
 base centered orthorhombic supercell.

 Subroutine GETGRP returns: Found  1 space group operations
 (whereof  1 operations were pure point group operations)
 out of a pool of  8 trial point group operations.

The overall configuration has the point symmetry C_1 .

 Subroutine INISYM returns: Found  1 space group operations
 (whereof  1 operations are pure point group operations),
 and found     2 'primitive' translations

                                     Primitive cell

  volume of cell :     452.7754

  direct lattice vectors                    reciprocal lattice vectors
    -4.000668530  0.000000000  0.000000000    -0.249958224  0.000000010  0.000000000
     0.000000000  0.000000000  9.429668427     0.000000000  0.000000000  0.106048268
     0.000000473 12.002006531  0.000000000     0.000000000  0.083319401  0.000000000

  length of vectors
     4.000668530  9.429668427 12.002006531     0.249958224  0.106048268  0.083319401

  position of ions in fractional coordinates (direct lattice)
     0.017083490  0.000000000  0.660972118
     0.517083677  0.299999923  0.494305462
     0.017083540  0.599999905  0.327638775
     0.017083480  0.000000000  0.327638835
     0.517083548  0.299999923  0.160972178
     0.017083766  0.599999905  0.994305491
     0.017083528  0.000000000  0.994305491
     0.517083330  0.299999923  0.827638865
     0.017083668  0.599999905  0.660972178
     0.517083666  0.149999961  0.660972059
     0.017083440  0.449999899  0.494305402
     0.517083658  0.749999940  0.327638716
     0.517083351  0.149999961  0.994305491
     0.017083627  0.449999899  0.827638865
     0.517083669  0.749999940  0.660972118
     0.517083419  0.149999961  0.327638835
     0.017083401  0.449999899  0.160972148
     0.517083648  0.749999940  0.994305432
     0.047768556  0.749999881  0.026538121
     0.547768576  0.849999905  0.304315925
     0.047768609  0.949999928  0.582093775
     0.547768590  0.799999833  0.915427029
     0.047768503  0.899999976  0.193204761
     0.547768715  0.000000000  0.470982671

  ion indices of the primitive-cell ions
   primitive index   ion index
                 1           1
                 2           2
                 3          24
                 4          19
                 5          20
                 6          21
                 7          25
                 8           8
                 9           9
                10          10
                11          29
                12          30
                13          13
                14          14
                15          36
                16          31
                17          17
                18          18
                19          40
                20          38
                21          42
                22          43
                23          47
                24          48

 KPOINTS: Automatic KPOINTS generated

Automatic generation of k-mesh.
 Grid dimensions read from file:
 generate k-points for:    4    3    3

 Generating k-lattice:

  Cartesian coordinates                     Fractional coordinates (reciprocal lattice)
     0.031244774 -0.010414925  0.000000000     0.250000000  0.000000000  0.000000000
     0.000000000  0.027773134  0.000000000     0.000000000  0.333333333  0.000000000
     0.000000000  0.000000000  0.035349423     0.000000000  0.000000000  0.333333333

  Length of vectors
[...]
     42      -1.3586      1.00000
     43      -1.2965      1.00000
     44      -1.1436      1.00000
     45      -0.9691      1.00000
     46      -0.8612      1.00000
     47      -0.6921      1.00000
     48      -0.6501      1.00000
     49      -0.4537      1.00000
     50      -0.3979      1.00000
     51      -0.0680      1.00000
     52       0.0106      1.00000
     53       0.2627      1.00000
     54       0.3571      1.00000
     55       0.5314      1.00000
     56       0.7515      1.00000
     57       0.9178      1.00000
     58       1.1772      1.00000
     59       1.3016      1.00000
     60       1.4027      1.00000
[...]
    102       6.1278      0.00000
    103       6.1320      0.00000
    104       6.2241      0.00000
    105       6.4532      0.00000
    106       6.6009      0.00000
    107       6.6400      0.00000
    108       6.7576      0.00000
    109       6.9013      0.00000
    110       6.9166      0.00000
    111       7.0730      0.00000
    112       7.0873      0.00000
    113       7.1788      0.00000
    114       7.2271      0.00000
    115       7.3957      0.00000
    116       7.4636      0.00000
 Fermi energy:         5.4704630011

 spin component 2

[...]

 k-point    19 :      -0.2500   -0.3333    0.3333
  band No.  band energies     occupation
      1     -11.9578      1.00000
      2     -11.1206      1.00000
      3     -10.4607      1.00000
      4      -9.3889      1.00000
      5      -8.6733      1.00000
      6      -8.0845      1.00000
      7      -7.8248      1.00000
      8      -7.2033      1.00000
      9      -7.0611      1.00000
     10      -6.9261      1.00000
     11      -6.2861      1.00000
     12      -6.2309      1.00000
     13      -5.9164      1.00000
     14      -5.8384      1.00000
     15      -5.6866      1.00000
     16      -5.4951      1.00000
     17      -5.4846      1.00000
     18      -5.2064      1.00000
     19      -5.1495      1.00000
     20      -4.9699      1.00000
     21      -4.9293      1.00000
     22      -4.5278      1.00000
     23      -4.3200      1.00000
     24      -4.2770      1.00000
     25      -4.1216      1.00000
     26      -4.0712      1.00000
     27      -3.7168      1.00000
     28      -3.6661      1.00000
     29      -3.4240      1.00000
     30      -3.4194      1.00000
     31      -3.0676      1.00000
     32      -3.0111      1.00000
     33      -2.5393      1.00000
     34      -2.2979      1.00000
     35      -2.2711      1.00000
     36      -2.2117      1.00000
     37      -2.0232      1.00000
     38      -1.9813      1.00000
     39      -1.6829      1.00000
     40      -1.5243      1.00000
     41      -1.3626      1.00000
     42      -1.3356      1.00000
     43      -1.2774      1.00000
     44      -1.1230      1.00000
     45      -0.9495      1.00000
     46      -0.8396      1.00000
     47      -0.6723      1.00000
     48      -0.6289      1.00000
     49      -0.4325      1.00000
     50      -0.3766      1.00000
     51      -0.0453      1.00000
     52       0.0330      1.00000
     53       0.2814      1.00000
     54       0.3754      1.00000
     55       0.5512      1.00000
     56       0.7719      1.00000
     57       0.9396      1.00000
     58       1.1966      1.00000
     59       1.3192      1.00000
     60       1.4214      1.00000
[...]
    102       6.1530      0.00000
    103       6.1574      0.00000
    104       6.2493      0.00000
    105       6.4761      0.00000
    106       6.6235      0.00000
    107       6.6638      0.00000
    108       6.7812      0.00000
    109       6.9238      0.00000
    110       6.9372      0.00000
    111       7.0962      0.00000
    112       7.1101      0.00000
    113       7.2024      0.00000
    114       7.2486      0.00000
    115       7.4221      0.00000
    116       7.4804      0.00000

 soft charge-density along one line, spin component           1
         0         1         2         3         4         5         6         7         8         9
 total charge-density along one line

 soft charge-density along one line, spin component           2
         0         1         2         3         4         5         6         7         8         9
 total charge-density along one line

------------------------ aborting loop because EDIFF is reached ----------------------------------------

  FORCE on cell =-STRESS in cart. coord.  units (eV):
  Direction    XX          YY          ZZ          XY          YZ          ZX
  Alpha Z   486.29936   486.29936   486.29936
  Ewald   -1193.15246 -1675.71487 -1689.02011    92.64765   155.42437   -60.56760
  Hartree   634.20747   198.46971    -9.50512     0.84633   120.45966    -0.38432
  E(xc)    -706.57123  -709.72248  -709.86547    -0.96903    -1.06542     0.68580
  Local   -1962.60131  -524.44900  -263.61302    -2.86132  -335.55080     2.32860
  n-local  1309.79663  1329.82625  1340.53159     8.69315    13.33092    -5.80770
  augment    25.36195    67.30168    72.10961     6.31133     0.34517    -4.16312
  Kinetic  1648.04241  1640.66073  1635.56900    -4.76340    -4.03403     0.50675
  Fock        0.00000     0.00000     0.00000     0.00000     0.00000     0.00000
  Total     241.38282   812.67139   862.50584    99.90471   -51.09013   -67.40161
  in kB     427.07490  1437.84693  1526.01825   176.75987   -90.39298  -119.25262

 VOLUME and BASIS-vectors are now :
  energy-cutoff  :      700.00
  volume of cell :      905.55
      direct lattice vectors                 reciprocal lattice vectors
     8.001338005  0.000000000  0.000000000     0.124979097 -0.041659701  0.000000000
     4.000669003 12.002006531  0.000000000     0.000000000  0.083319401  0.000000000
     0.000000000  0.000000000  9.429668427     0.000000000  0.000000000  0.106048268

  length of vectors
     8.001338005 12.651225760  9.429668427     0.131739536  0.083319401  0.106048268

 FORCES acting on ions
    electron-ion (+dipol)            ewald-force                    non-local-force                 convergence-correction
   -.318E+01 -.791E+02 -.166E+02   0.204E+02 0.210E+03 0.813E+02   0.469E+01 0.368E+02 0.183E+02   0.361E-04 0.416E-03 0.359E-03
   -.296E+00 -.133E+02 -.429E+02   0.331E+00 0.132E+02 0.437E+02   -.377E-01 0.177E+00 -.625E-01   -.413E-05 -.248E-03 0.364E-03
   0.522E+00 -.236E+02 0.544E+02   -.705E+00 0.239E+02 -.552E+02   -.286E-01 0.233E+00 -.221E+00   0.406E-04 -.349E-03 -.266E-03
   0.363E+01 -.147E+02 -.579E+02   -.378E+01 0.197E+02 0.614E+02   -.878E-01 0.682E+01 0.596E+01   0.457E-04 -.535E-03 0.842E-04
   0.655E-01 0.101E+02 -.116E+02   -.679E-01 -.104E+02 0.116E+02   -.218E-01 0.179E+00 0.138E+00   0.105E-04 -.285E-03 0.157E-03
   -.273E+01 0.282E+02 0.103E+03   0.590E+01 -.380E+02 -.141E+03   0.253E+01 -.666E+01 -.300E+02   -.266E-04 0.285E-03 -.462E-03
   -.421E+00 0.404E+02 -.657E+02   0.304E+00 -.411E+02 0.661E+02   0.144E+00 -.250E+00 0.241E+01   -.333E-04 0.198E-03 0.396E-03
   -.551E-01 0.301E+01 -.302E+01   -.117E-01 -.303E+01 0.285E+01   0.599E-01 0.386E+00 0.312E+00   0.675E-05 0.498E-03 0.791E-05
   -.173E-01 -.385E+00 0.250E+02   0.205E-01 0.429E+00 -.242E+02   -.512E-01 -.702E-01 -.904E+00   0.203E-04 0.837E-04 -.403E-03
   0.429E+00 -.440E+02 -.454E+02   -.850E+00 0.448E+02 0.461E+02   0.209E+00 0.623E+00 0.928E+00   -.276E-04 0.338E-03 0.505E-03
   -.198E-01 -.134E+02 -.161E+00   -.468E-01 0.138E+02 0.609E+00   0.836E-01 -.147E+00 -.466E+00   -.828E-06 -.291E-03 -.861E-04
   -.324E+01 -.365E+02 0.811E+02   0.260E+02 0.873E+02 -.255E+03   0.473E+01 0.118E+02 -.369E+02   0.246E-04 -.399E-03 -.501E-03
   0.195E+00 0.208E+02 -.338E+02   -.945E-01 -.208E+02 0.338E+02   -.111E+00 -.112E-01 0.682E-01   -.111E-05 0.218E-03 0.262E-03
   0.109E+00 0.158E+02 0.216E+02   -.428E-01 -.162E+02 -.219E+02   0.643E-02 0.196E+00 -.171E-01   0.183E-04 0.402E-03 -.308E-03
   0.938E+00 -.111E+02 0.290E+02   -.993E+00 0.120E+02 -.283E+02   -.155E-01 -.323E+00 -.674E+00   -.230E-04 0.817E-04 -.359E-03
   -.121E+01 0.235E+02 -.765E+02   0.139E+01 -.248E+02 0.780E+02   0.118E-02 -.175E+01 0.219E+01   0.251E-04 -.501E-03 0.510E-03
   -.202E+00 -.309E+01 0.312E+02   0.192E+00 0.249E+01 -.314E+02   0.551E-01 0.720E+00 -.467E+00   -.166E-04 -.155E-03 -.246E-03
   0.641E+01 0.735E+01 0.221E+02   0.777E+01 0.122E+03 -.861E+02   0.773E+00 0.343E+02 -.177E+02   -.247E-04 0.278E-03 -.124E-03
   0.363E+01 -.147E+02 -.579E+02   -.378E+01 0.197E+02 0.614E+02   -.878E-01 0.682E+01 0.596E+01   -.342E-04 -.552E-03 0.962E-04
   0.655E-01 0.101E+02 -.116E+02   -.679E-01 -.104E+02 0.116E+02   -.218E-01 0.179E+00 0.138E+00   0.273E-06 -.286E-03 0.156E-03
   -.273E+01 0.282E+02 0.103E+03   0.590E+01 -.380E+02 -.141E+03   0.253E+01 -.666E+01 -.300E+02   0.544E-04 0.293E-03 -.458E-03
   -.318E+01 -.791E+02 -.166E+02   0.204E+02 0.210E+03 0.813E+02   0.469E+01 0.368E+02 0.183E+02   -.149E-04 0.385E-03 0.350E-03
   -.296E+00 -.133E+02 -.429E+02   0.331E+00 0.132E+02 0.437E+02   -.377E-01 0.177E+00 -.625E-01   0.284E-04 -.231E-03 0.362E-03
   0.522E+00 -.236E+02 0.544E+02   -.705E+00 0.239E+02 -.552E+02   -.286E-01 0.233E+00 -.221E+00   -.318E-04 -.355E-03 -.279E-03
   -.421E+00 0.404E+02 -.657E+02   0.304E+00 -.411E+02 0.661E+02   0.144E+00 -.250E+00 0.241E+01   0.369E-04 0.211E-03 0.391E-03
   -.552E-01 0.301E+01 -.302E+01   -.117E-01 -.303E+01 0.285E+01   0.599E-01 0.386E+00 0.312E+00   -.360E-05 0.498E-03 0.110E-04
   -.172E-01 -.385E+00 0.250E+02   0.205E-01 0.429E+00 -.242E+02   -.512E-01 -.702E-01 -.904E+00   -.245E-04 0.738E-04 -.389E-03
   0.429E+00 -.440E+02 -.454E+02   -.850E+00 0.448E+02 0.461E+02   0.209E+00 0.623E+00 0.928E+00   0.352E-04 0.349E-03 0.492E-03
   -.197E-01 -.134E+02 -.161E+00   -.469E-01 0.138E+02 0.609E+00   0.836E-01 -.147E+00 -.466E+00   -.561E-05 -.290E-03 -.892E-04
   -.324E+01 -.365E+02 0.811E+02   0.260E+02 0.873E+02 -.255E+03   0.473E+01 0.118E+02 -.369E+02   -.250E-04 -.424E-03 -.471E-03
   -.121E+01 0.235E+02 -.765E+02   0.139E+01 -.248E+02 0.780E+02   0.118E-02 -.175E+01 0.219E+01   -.118E-04 -.511E-03 0.484E-03
   -.202E+00 -.309E+01 0.312E+02   0.192E+00 0.249E+01 -.314E+02   0.551E-01 0.720E+00 -.467E+00   0.187E-04 -.148E-03 -.242E-03
   0.641E+01 0.735E+01 0.221E+02   0.777E+01 0.122E+03 -.861E+02   0.773E+00 0.343E+02 -.177E+02   -.148E-04 0.297E-03 -.140E-03
   0.195E+00 0.208E+02 -.338E+02   -.945E-01 -.208E+02 0.338E+02   -.111E+00 -.112E-01 0.682E-01   0.298E-05 0.219E-03 0.280E-03
   0.109E+00 0.158E+02 0.216E+02   -.428E-01 -.162E+02 -.219E+02   0.643E-02 0.196E+00 -.171E-01   -.161E-04 0.395E-03 -.307E-03
   0.938E+00 -.111E+02 0.290E+02   -.993E+00 0.120E+02 -.283E+02   -.155E-01 -.323E+00 -.674E+00   0.297E-04 0.111E-03 -.350E-03
   -.539E+01 -.831E+01 -.344E+01   0.485E+01 0.207E+02 0.381E+02   0.156E+01 0.100E+02 0.263E+02   -.249E-04 0.237E-03 -.117E-03
   0.378E+00 0.130E+01 0.150E+02   -.224E+02 -.534E+02 0.156E+03   -.451E+01 -.108E+02 0.346E+02   -.195E-04 -.460E-03 -.348E-03
   0.188E+01 -.115E+02 0.293E+02   -.187E+02 -.119E+03 -.944E+02   -.509E+01 -.358E+02 -.191E+02   -.171E-04 -.526E-04 0.666E-04
   -.539E+01 -.831E+01 -.344E+01   0.485E+01 0.207E+02 0.381E+02   0.156E+01 0.100E+02 0.263E+02   0.951E-04 0.249E-03 -.113E-03
   0.378E+00 0.130E+01 0.150E+02   -.224E+02 -.534E+02 0.156E+03   -.451E+01 -.108E+02 0.346E+02   0.220E-04 -.453E-03 -.325E-03
   0.188E+01 -.115E+02 0.293E+02   -.187E+02 -.119E+03 -.944E+02   -.509E+01 -.358E+02 -.191E+02   0.533E-05 -.575E-04 0.606E-04
   0.179E+01 0.100E+03 -.290E+02   -.187E+02 -.233E+03 0.944E+02   -.482E+01 -.389E+02 0.200E+02   -.244E-04 0.363E-03 0.650E-04
   0.125E+01 0.443E+02 -.173E+02   -.154E+01 -.501E+02 0.150E+02   -.446E+00 -.775E+01 -.306E+01   0.417E-04 -.322E-03 -.453E-04
   -.586E+00 -.367E+02 -.919E+01   0.857E+00 0.385E+02 0.836E+01   -.604E-02 0.122E+01 -.988E+00   0.490E-04 -.326E-03 0.186E-03
   0.179E+01 0.100E+03 -.290E+02   -.187E+02 -.233E+03 0.944E+02   -.482E+01 -.389E+02 0.200E+02   -.362E-04 0.346E-03 0.732E-04
   0.125E+01 0.443E+02 -.173E+02   -.154E+01 -.501E+02 0.150E+02   -.446E+00 -.775E+01 -.306E+01   -.652E-04 -.338E-03 -.473E-04
   -.586E+00 -.367E+02 -.919E+01   0.857E+00 0.385E+02 0.836E+01   -.604E-02 0.122E+01 -.988E+00   -.335E-04 -.379E-03 0.169E-03
   0.490E+00 -.219E+01 -.139E+01   0.435E-13 0.192E-12 0.178E-14   -.765E+00 0.214E+01 0.139E+01   0.869E-04 -.112E-02 -.586E-03

 POSITION                                       TOTAL-FORCE (eV/Angst)
      7.93299      7.93299      0.00000        21.885845    168.017833     82.931776
      5.93266      5.93266      2.82890         0.003369      0.042820      0.724797
      3.93232      3.93232      5.65780        -0.205509      0.466264     -1.091606
      3.93232      3.93232      0.00000        -0.233782     11.856420      9.486571
      1.93199      1.93199      2.82890        -0.018507     -0.142380      0.131492
     11.93366     11.93366      5.65780         5.703789    -16.450469    -67.505535
     11.93366     11.93366      0.00000         0.032937     -0.880492      2.820034
      9.93333      9.93333      2.82890        -0.001206      0.369688      0.138922
      7.93299      7.93299      5.65780        -0.042272     -0.025672     -0.107472
      5.93266      7.93299      1.41445        -0.206843      1.466246      1.614599
      3.93232      5.93266      4.24335         0.022774      0.246504     -0.018462
      1.93199      3.93232      7.07225        27.452166     62.608251   -210.538020
      9.93333     11.93366      1.41445        -0.004694      0.041112      0.105213
      7.93299      9.93333      4.24335         0.077917     -0.182721     -0.362894
      5.93266      7.93299      7.07225        -0.065088      0.567401     -0.013498
      1.93199      3.93232      1.41445         0.189276     -3.029830      3.637373
      7.93299      1.93199      4.24335         0.050346      0.117802     -0.651159
      9.93333     11.93366      7.07225        14.952433    163.376305    -81.710446
      7.93299      3.93232      0.00000        -0.233782     11.856420      9.486571
      5.93266      1.93199      2.82890        -0.018507     -0.142380      0.131492
      7.93299     11.93366      5.65780         5.703789    -16.450469    -67.505535
      3.93232      7.93299      0.00000        21.885845    168.017833     82.931776
      9.93333      5.93266      2.82890         0.003369      0.042820      0.724797
      7.93299      3.93232      5.65780        -0.205509      0.466264     -1.091606
      7.93299     11.93366      0.00000         0.032937     -0.880492      2.820034
      5.93266      9.93333      2.82890        -0.001206      0.369688      0.138922
      3.93232      7.93299      5.65780        -0.042272     -0.025672     -0.107472
      9.93333      7.93299      1.41445        -0.206843      1.466246      1.614599
      7.93299      5.93266      4.24335         0.022774      0.246504     -0.018462
      5.93266      3.93232      7.07225        27.452166     62.608251   -210.538020
      5.93266      3.93232      1.41445         0.189276     -3.029830      3.637373
      3.93232      1.93199      4.24335         0.050346      0.117802     -0.651159
      5.93266     11.93366      7.07225        14.952433    163.376305    -81.710446
      5.93266     11.93366      1.41445        -0.004694      0.041112      0.105213
      3.93232      9.93333      4.24335         0.077917     -0.182721     -0.362894
      9.93333      7.93299      7.07225        -0.065088      0.567401     -0.013498
      7.81023      0.31851      7.07225         1.024038     22.487322     60.966516
      5.80990      3.65240      8.01522       -26.496154    -62.901868    205.365068
      3.80956      6.98629      8.95818       -21.919619   -165.887124    -84.161825
      3.80956      0.31851      7.07225         1.024038     22.487322     60.966516
      1.80923      3.65240      8.01522       -26.496154    -62.901868    205.365068
      7.81023      6.98629      8.95818       -21.919619   -165.887124    -84.161825
      9.81057     10.98696      7.54373       -21.740733   -171.601671     85.414398
      3.80956      2.31884      8.48670        -0.730298    -13.596431     -5.358543
      9.81056      5.65274      0.00000         0.269812      3.034690     -1.817300
      5.80990     10.98696      7.54373       -21.740733   -171.601671     85.414398
      7.81023      2.31884      8.48670        -0.730298    -13.596431     -5.358543
      5.80990      5.65274      0.00000         0.269812      3.034690     -1.817300
    total drift:                               -0.274644     -0.046436     -0.002564

  FREE ENERGIE OF THE ION-ELECTRON SYSTEM (eV)
  free  energy   TOTEN  =       297.44583326 eV

  energy  without entropy=      297.44751917  energy(sigma->0) =      297.44667622