 vasp.6.4.3 19Mar24 (build Oct 22 2024 11:23:12) complex

 executed on             LinuxIFC date 2025.06.04  00:24:02

 INCAR:
   SYSTEM = Si and Ge interface calculation
   ISTART = 0
   ICHARG = 2
   LWAVE = .FALSE.
   LREAL = AUTO
   ENCUT = 700
   ENAUG = 900
   ADDGRID = .TRUE.
   LMAXMIX = 6
   LASPH = .TRUE.
   LMIXTAU = .TRUE.
   NCORE = 16
   NELM = 100
   NBANDS = 116
   EDIFF = 1d-7
   AMIX = 0.6
   ISMEAR = 0
   SIGMA = 0.01
   NELECT = 192
   ISPIN = 2
   NUPDOWN = 1
   LVTOT = .FALSE.
   LVHAR = .TRUE.

 POTCAR:    PAW_PBE Si 05Jan2001
|           W    W    AA    RRRRR   N    N  II  N    N   GGGG   !!!           |
|           W    W   A  A   R    R  NN   N  II  NN   N  G    G  !!!           |
|           W    W  A    A  R    R  N N  N  II  N N  N  G       !!!           |
|           W WW W  AAAAAA  RRRRR   N  N N  II  N  N N  G  GGG   !            |
|           WW  WW  A    A  R   R   N   NN  II  N   NN  G    G                |
|           W    W  A    A  R    R  N    N  II  N    N   GGGG   !!!           |
|     You use a magnetic or noncollinear calculation, but did not specify     |
|     the initial magnetic moment with the MAGMOM tag. Note that a            |
|     default of 0.021 will be used for all atoms. This ferromagnetic         |
|     setup may break the symmetry of the crystal, in particular it may       |
|     rule out finding an antiferromagnetic solution. Thence, we              |
|     recommend setting the initial magnetic moment manually or verifying     |
|     carefully that this magnetic setup is desired.                          |

 POTCAR:    PAW_PBE Si 05Jan2001
   VRHFIN =Si: s2p2

   TITEL  = PAW_PBE Si 05Jan2001
   POMASS =   28.085; ZVAL   =    4.000    mass and valenz
   ENMAX  =  245.345; ENMIN  =  184.009 eV

 Optimization of the real space projectors (new method)

 maximal supplied QI-value         = 19.84
 optimisation between [QCUT,QGAM] = [ 13.49, 26.99] = [ 50.98,203.92] Ry
 Optimized for a Real-space Cutoff    1.07 Angstroem

   l    n(q)    QCUT    max X(q) W(low)/X(q) W(high)/X(q)  e(spline)
   0      9    13.493   159.560    0.22E-03    0.15E-03    0.72E-07
   0      9    13.493   115.863    0.21E-03    0.15E-03    0.71E-07
   1      8    13.493    88.339    0.15E-03    0.11E-03    0.13E-06
   1      8    13.493    48.592    0.15E-03    0.10E-03    0.13E-06
  PAW_PBE Si 05Jan2001                  :

 POSCAR: Si+Si
  positions in direct lattice

 exchange-correlation table for PE
   RHO(1)=    0.500       N(1)  =     2000
   RHO(2)=  100.500       N(2)  =     4000

 ion  position               nearest neighbor table
   1  0.661  0.661  0.000-  42 1.02  10 2.35  28 2.35  45 2.84  36 2.97  15 2.97  48 2.99
   2  0.494  0.494  0.300-  10 2.35  31 2.35  11 2.35  29 2.35  48 2.73
   3  0.327  0.327  0.600-  32 2.35  11 2.35  12 2.35  30 2.35  38 2.91  41 3.06  44 3.13
   4  0.327  0.327  0.000-  44 1.80  38 2.27  31 2.35  16 2.35  48 2.45  41 2.46  45 2.62  30 2.97
                            12 2.97  39 2.97
   5  0.161  0.161  0.300-  34 2.35  16 2.35  17 2.35  32 2.35
   6  0.994  0.994  0.600-  37 1.41  33 2.35  35 2.35  17 2.35  18 2.35  46 2.71  43 2.87
   7  0.994  0.994  0.000-  37 2.30  34 2.35  13 2.35  47 2.47  46 2.71  43 2.87  33 2.97  18 2.97

   8  0.827  0.827  0.300-  13 2.35  35 2.35  14 2.35  28 2.35
   9  0.661  0.661  0.600-  36 2.35  14 2.35  29 2.35  15 2.35
  10  0.411  0.661  0.150-   2 2.35  22 2.35   1 2.35  26 2.35  48 2.58  42 2.71  39 2.87
  11  0.244  0.494  0.450-  23 2.35   3 2.35   2 2.35  27 2.35
  12  0.077  0.327  0.750-  41 0.95  24 2.35   3 2.35  44 2.74  45 2.81  47 2.89  19 2.97   4 2.97

[...]

  16  0.077  0.327  0.150-  45 2.14  23 2.35   5 2.35   4 2.35  19 2.35  41 2.73
  17  0.911  0.161  0.450-  24 2.35   5 2.35   6 2.35  20 2.35  37 3.13
  18  0.744  0.994  0.750-  43 1.02  37 1.84  40 2.07   6 2.35  21 2.35  25 2.97   7 2.97
  19  0.827  0.327  0.000-  47 1.80  41 2.27  31 2.35  16 2.35  45 2.45  38 2.46  48 2.62  12 2.97
                            30 2.97  42 2.97
  20  0.661  0.161  0.300-  31 2.35  13 2.35  32 2.35  17 2.35
  21  0.494  0.994  0.600-  40 1.41  14 2.35  32 2.35  18 2.35  33 2.35  43 2.71  46 2.87
  22  0.161  0.661  0.000-  39 1.02  28 2.35  10 2.35  48 2.84  15 2.97  36 2.97  45 2.99
  23  0.994  0.494  0.300-  28 2.35  16 2.35  29 2.35  11 2.35  45 2.73
  24  0.827  0.327  0.600-  29 2.35  12 2.35  17 2.35  30 2.35  41 2.91  38 3.06  47 3.13
  25  0.494  0.994  0.000-  40 2.30  13 2.35  34 2.35  44 2.47  43 2.71  46 2.87  18 2.97  33 2.97

[...]

  45  0.991  0.471  1.000-  16 2.14  42 2.35  39 2.35  41 2.35  19 2.45  28 2.58   4 2.62  23 2.73
                            12 2.81   1 2.84  22 2.99  36 3.15
  46  0.268  0.915  0.800-  33 1.02  37 2.35  40 2.35   7 2.71   6 2.71  21 2.87  25 2.87  15 2.97

  47  0.880  0.193  0.900-  19 1.80  38 2.35  41 2.35  37 2.35   7 2.47  30 2.74  12 2.89  24 3.13

  48  0.491  0.471  1.000-  31 2.14  39 2.35  38 2.35  42 2.35   4 2.45  10 2.58  19 2.62   2 2.73
                            30 2.81  22 2.84   1 2.99  15 3.15

  LATTYP: Found a base centered orthorhombic cell.
 ALAT       =     7.6805944440
 B/A-ratio  =     2.9999998761
 C/A-ratio  =     1.1785112831

  Lattice vectors:

 A1 = (   3.8402974600, -11.5208911900,   0.0000000000)
 A2 = (   3.8402969840,  11.5208911900,   0.0000000000)
 A3 = (   0.0000000000,   0.0000000000,   9.0516672130)

Analysis of symmetry for initial positions (statically):
 Subroutine PRICEL returns following result:

  LATTYP: Found a simple orthorhombic cell.
 ALAT       =     3.8402967612
 B/A-ratio  =     2.3570228490
 C/A-ratio  =     3.0000002361

[...]

   2 primitive cells build up your supercell.

 Routine SETGRP: Setting up the symmetry group for a
 base centered orthorhombic supercell.

 Subroutine GETGRP returns: Found  1 space group operations
 (whereof  1 operations were pure point group operations)
 out of a pool of  8 trial point group operations.

The static configuration has the point symmetry C_1 .

Analysis of symmetry for dynamics (positions and initial velocities):
 Subroutine PRICEL returns following result:

[...]

The dynamic configuration has the point symmetry C_1 .

Analysis of structural, dynamic, and magnetic symmetry:
 Subroutine PRICEL returns following result:

  LATTYP: Found a simple orthorhombic cell.
 ALAT       =     3.8402967612
 B/A-ratio  =     2.3570228490
 C/A-ratio  =     3.0000002361

  Lattice vectors:

 A1 = (  -3.8402967612,   0.0000000000,   0.0000000000)
 A2 = (   0.0000000000,   0.0000000000,   9.0516672130)
 A3 = (   0.0000002228,  11.5208911900,   0.0000000000)

   2 primitive cells build up your supercell.

 Routine SETGRP: Setting up the symmetry group for a
 base centered orthorhombic supercell.

 Subroutine GETGRP returns: Found  1 space group operations
 (whereof  1 operations were pure point group operations)
 out of a pool of  8 trial point group operations.

The overall configuration has the point symmetry C_1 .

 Subroutine INISYM returns: Found  1 space group operations
 (whereof  1 operations are pure point group operations),
 and found     2 'primitive' translations

                                     Primitive cell

  volume of cell :     400.4787

  direct lattice vectors                    reciprocal lattice vectors
    -3.840296761  0.000000000  0.000000000    -0.260396543  0.000000005  0.000000000
     0.000000000  0.000000000  9.051667213     0.000000000  0.000000000  0.110476885
     0.000000223 11.520891190  0.000000000     0.000000000  0.086798841  0.000000000

  length of vectors
     3.840296761  9.051667213 11.520891190     0.260396543  0.110476885  0.086798841

  position of ions in fractional coordinates (direct lattice)
     0.017796953  0.000000000  0.660734296
     0.517797082  0.299999923  0.494067639
     0.017797093  0.599999905  0.327400982
     0.017796825  0.000000000  0.327401012
     0.517797014  0.299999923  0.160734355
     0.017797172  0.599999905  0.994067669
     0.017796814  0.000000000  0.994067729
     0.517796795  0.299999923  0.827401042
     0.017797014  0.599999905  0.660734355
     0.517796953  0.149999991  0.660734296
     0.017796783  0.449999928  0.494067580
     0.517797122  0.749999881  0.327400893
     0.517796934  0.149999991  0.994067669
     0.017797093  0.449999928  0.827401042
     0.517797131  0.749999881  0.660734296
     0.517796915  0.149999991  0.327400982
     0.017796848  0.449999928  0.160734341
     0.517797052  0.749999881  0.994067669
     0.047768562  0.749999881  0.026538113
     0.547768664  0.849999964  0.304315954
     0.047768847  0.949999988  0.582093775
     0.547768646  0.799999893  0.915426970
     0.047768859  0.899999917  0.193204880
     0.547769189  0.999999940  0.470982671

  ion indices of the primitive-cell ions
   primitive index   ion index
                 1           1
                 2           2
                 3          24
                 4          19
                 5          20
                 6          21
                 7          25
                 8           8
                 9           9
                10          10
                11          29
                12          30
                13          13
                14          14
                15          36
                16          31
                17          17
                18          18
                19          40
                20          38
                21          42
                22          43
                23          47
                24          48

 KPOINTS: Automatic KPOINTS generated

Automatic generation of k-mesh.
 Grid dimensions read from file:
 generate k-points for:    4    3    3

 Generating k-lattice:

  Cartesian coordinates                     Fractional coordinates (reciprocal lattice)
     0.032549564 -0.010849854  0.000000000     0.250000000 -0.000000000  0.000000000
     0.000000000  0.028932947  0.000000000     0.000000000  0.333333333  0.000000000
     0.000000000  0.000000000  0.036825628     0.000000000  0.000000000  0.333333333

  Length of vectors
     0.034310253  0.028932947  0.036825628

  Shift w.r.t. Gamma in fractional coordinates (k-lattice)
     0.000000000  0.000000000  0.000000000

 WARNING: IBZKPT: internal override: KBLOWUP is changed to .FALSE.
      ... skipping the blow-up phase ...

 Subroutine IBZKPT returns following result:

 Found     19 irreducible k-points:

 Following reciprocal coordinates:
            Coordinates               Weight
  0.000000  0.000000  0.000000      1.000000
  0.250000 -0.000000  0.000000      2.000000
  0.500000 -0.000000  0.000000      1.000000
  0.000000  0.333333  0.000000      2.000000
  0.250000  0.333333  0.000000      2.000000
  0.500000  0.333333  0.000000      2.000000
 -0.250000  0.333333  0.000000      2.000000
  0.000000  0.000000  0.333333      2.000000
  0.250000 -0.000000  0.333333      2.000000
  0.500000 -0.000000  0.333333      2.000000
 -0.250000  0.000000  0.333333      2.000000
  0.000000  0.333333  0.333333      2.000000
  0.250000  0.333333  0.333333      2.000000
  0.500000  0.333333  0.333333      2.000000
[...]
     42       1.4968      1.00000
     43       1.6201      1.00000
     44       1.7217      1.00000
     45       1.9054      1.00000
     46       1.9619      1.00000
     47       2.2092      1.00000
     48       2.2855      1.00000
     49       2.4098      1.00000
     50       2.4411      1.00000
     51       2.6483      1.00000
     52       2.9159      1.00000
     53       2.9713      1.00000
     54       2.9854      1.00000
     55       3.1906      1.00000
     56       3.4324      1.00000
     57       3.6689      1.00000
     58       3.7830      1.00000
     59       3.9065      1.00000
     60       3.9454      1.00000
[...]
    102       8.4331      0.00000
    103       8.5301      0.00000
    104       8.5654      0.00000
    105       8.7961      0.00000
    106       8.8113      0.00000
    107       9.0182      0.00000
    108       9.1531      0.00000
    109       9.1825      0.00000
    110       9.2999      0.00000
    111       9.3702      0.00000
    112       9.5379      0.00000
    113       9.5915      0.00000
    114       9.7364      0.00000
    115       9.7619      0.00000
    116       9.9401      0.00000
 Fermi energy:         7.8381279951

 spin component 2

[...]

 k-point    19 :      -0.2500   -0.3333    0.3333
  band No.  band energies     occupation
      1      -7.4446      1.00000
      2      -6.9465      1.00000
      3      -6.5990      1.00000
      4      -5.9160      1.00000
      5      -5.2301      1.00000
      6      -4.4125      1.00000
      7      -4.0529      1.00000
      8      -4.0123      1.00000
      9      -3.7117      1.00000
     10      -3.6402      1.00000
     11      -3.1762      1.00000
     12      -2.9848      1.00000
     13      -2.6849      1.00000
     14      -2.6542      1.00000
     15      -2.4610      1.00000
     16      -2.2251      1.00000
     17      -2.0816      1.00000
     18      -1.9840      1.00000
     19      -1.9212      1.00000
     20      -1.7530      1.00000
     21      -1.7405      1.00000
     22      -1.3571      1.00000
     23      -1.0903      1.00000
     24      -1.0847      1.00000
     25      -0.9859      1.00000
     26      -0.8634      1.00000
     27      -0.6329      1.00000
     28      -0.5221      1.00000
     29      -0.3575      1.00000
     30      -0.3143      1.00000
     31      -0.0042      1.00000
     32      -0.0036      1.00000
     33       0.4104      1.00000
     34       0.4386      1.00000
     35       0.5574      1.00000
     36       0.6602      1.00000
     37       0.6877      1.00000
     38       1.0198      1.00000
     39       1.1827      1.00000
     40       1.3343      1.00000
     41       1.4811      1.00000
     42       1.5170      1.00000
     43       1.6442      1.00000
     44       1.7440      1.00000
     45       1.9281      1.00000
     46       1.9833      1.00000
     47       2.2300      1.00000
     48       2.3076      1.00000
     49       2.4341      1.00000
     50       2.4674      1.00000
     51       2.6719      1.00000
     52       2.9365      1.00000
     53       2.9985      1.00000
     54       3.0084      1.00000
     55       3.2141      1.00000
     56       3.4534      1.00000
     57       3.6917      1.00000
     58       3.8026      1.00000
     59       3.9292      1.00000
     60       3.9618      1.00000
[...]
    102       8.4656      0.00000
    103       8.5565      0.00000
    104       8.5946      0.00000
    105       8.8221      0.00000
    106       8.8444      0.00000
    107       9.0490      0.00000
    108       9.1817      0.00000
    109       9.2064      0.00000
    110       9.3298      0.00000
    111       9.3979      0.00000
    112       9.5651      0.00000
    113       9.6152      0.00000
    114       9.7575      0.00000
    115       9.7868      0.00000
    116       9.9603      0.00000

 soft charge-density along one line, spin component           1
         0         1         2         3         4         5         6         7         8         9
 total charge-density along one line

 soft charge-density along one line, spin component           2
         0         1         2         3         4         5         6         7         8         9
 total charge-density along one line

------------------------ aborting loop because EDIFF is reached ----------------------------------------

  FORCE on cell =-STRESS in cart. coord.  units (eV):
  Direction    XX          YY          ZZ          XY          YZ          ZX
  Alpha Z    96.83392    96.83392    96.83392
  Ewald   -1243.80270 -1745.21486 -1756.52335    94.71369   163.23089   -61.78264
  Hartree   712.97806   207.32487    -8.39148     0.42487   129.86193    -0.12443
  E(xc)    -658.79673  -664.52956  -665.22245    -1.06160    -0.58041     0.78235
  Local   -2311.01363  -756.57089  -516.23374   -10.19163  -368.00413     8.44342
  n-local  2200.65231  2165.53917  2200.92005     2.12589    40.00357    -2.53396
  augment  -330.84546  -302.69517  -303.92843     3.84196    -3.88731    -1.97993
  Kinetic  1662.10665  1635.56056  1631.73539    -7.01465    -3.86745     2.59828
  Fock        0.00000     0.00000     0.00000     0.00000     0.00000     0.00000
  Total     128.11241   636.24804   679.18989    82.83852   -43.24290   -54.59691
  in kB     256.26678  1272.70441  1358.60218   165.70417   -86.49996  -109.21171

 VOLUME and BASIS-vectors are now :
  energy-cutoff  :      700.00
  volume of cell :      800.96
      direct lattice vectors                 reciprocal lattice vectors
     7.680594444  0.000000000  0.000000000     0.130198256 -0.043399418  0.000000000
     3.840296984 11.520891190  0.000000000     0.000000000  0.086798841  0.000000000
     0.000000000  0.000000000  9.051667213     0.000000000  0.000000000  0.110476885

  length of vectors
     7.680594444 12.144085587  9.051667213     0.137241012  0.086798841  0.110476885

 FORCES acting on ions
    electron-ion (+dipol)            ewald-force                    non-local-force                 convergence-correction
   -.865E+01 -.129E+03 -.378E+02   0.218E+02 0.229E+03 0.890E+02   0.593E+01 0.458E+02 0.213E+02   0.744E-05 0.364E-03 -.187E-04
   -.333E+00 -.141E+02 -.465E+02   0.352E+00 0.143E+02 0.474E+02   -.228E-01 -.341E-01 -.745E+00   -.227E-05 0.944E-04 0.266E-03
   0.449E+00 -.253E+02 0.590E+02   -.747E+00 0.259E+02 -.600E+02   0.191E+00 -.233E+00 0.119E+00   -.243E-04 -.159E-03 -.968E-04
   0.444E+01 -.261E+02 -.684E+02   -.398E+01 0.216E+02 0.668E+02   -.589E+00 0.164E+02 0.980E+01   -.396E-04 -.253E-03 -.176E-04
   0.861E-01 0.112E+02 -.123E+02   -.721E-01 -.113E+02 0.126E+02   -.136E-01 0.286E-01 -.989E-01   -.190E-05 -.832E-04 0.258E-03
   -.613E+01 0.404E+02 0.146E+03   0.624E+01 -.414E+02 -.153E+03   0.464E+01 -.136E+02 -.503E+02   0.367E-05 -.347E-05 0.197E-03
   -.502E+00 0.455E+02 -.717E+02   0.314E+00 -.445E+02 0.717E+02   0.295E+00 -.137E+01 0.201E+01   0.274E-05 0.404E-05 -.300E-03
   -.352E-01 0.324E+01 -.330E+01   -.125E-01 -.326E+01 0.311E+01   0.122E+00 0.352E+00 0.233E+00   0.213E-05 -.578E-05 0.171E-03
   -.383E-01 -.433E+00 0.266E+02   0.222E-01 0.520E+00 -.263E+02   -.127E-01 -.138E+00 -.295E+00   0.655E-05 0.150E-03 0.125E-04
   -.195E+00 -.475E+02 -.490E+02   -.902E+00 0.487E+02 0.501E+02   0.118E+01 -.654E+00 -.477E+00   -.777E-05 0.197E-03 0.172E-03
   -.886E-01 -.150E+02 0.130E+00   -.497E-01 0.150E+02 0.651E+00   0.162E+00 0.165E-01 -.816E+00   -.268E-05 0.324E-04 0.178E-03
   -.101E+02 -.555E+02 0.139E+03   0.276E+02 0.943E+02 -.277E+03   0.664E+01 0.161E+02 -.474E+02   0.164E-04 -.193E-03 -.491E-03
   0.167E+00 0.223E+02 -.365E+02   -.993E-01 -.225E+02 0.367E+02   -.101E+00 0.134E+00 -.277E+00   0.176E-05 -.297E-04 -.776E-04
   0.628E-01 0.176E+02 0.237E+02   -.454E-01 -.176E+02 -.238E+02   0.392E-01 -.314E+00 -.150E+00   0.331E-05 0.617E-04 0.254E-03
   0.119E+01 -.120E+02 0.289E+02   -.106E+01 0.131E+02 -.308E+02   -.142E+00 -.725E+00 0.238E+01   -.124E-04 0.230E-03 -.256E-03
   -.151E+01 0.278E+02 -.846E+02   0.147E+01 -.268E+02 0.846E+02   0.181E+00 -.382E+01 0.280E+01   0.938E-05 -.151E-03 0.258E-03
   -.294E+00 -.400E+01 0.337E+02   0.204E+00 0.269E+01 -.341E+02   0.674E-01 0.147E+01 -.125E+00   0.431E-05 -.900E-04 0.299E-03
   0.684E+01 -.329E+02 0.451E+02   0.846E+01 0.133E+03 -.942E+02   -.418E+01 0.420E+02 -.239E+02   -.145E-04 -.132E-03 -.979E-04
   0.444E+01 -.261E+02 -.684E+02   -.398E+01 0.216E+02 0.668E+02   -.589E+00 0.164E+02 0.980E+01   0.412E-05 -.260E-03 -.218E-04
   0.861E-01 0.112E+02 -.123E+02   -.721E-01 -.113E+02 0.126E+02   -.136E-01 0.286E-01 -.989E-01   0.243E-06 -.885E-04 0.261E-03
   -.613E+01 0.404E+02 0.146E+03   0.624E+01 -.414E+02 -.153E+03   0.464E+01 -.136E+02 -.503E+02   0.631E-05 -.409E-05 0.197E-03
   -.865E+01 -.129E+03 -.378E+02   0.218E+02 0.229E+03 0.890E+02   0.593E+01 0.458E+02 0.213E+02   0.770E-05 0.362E-03 -.178E-04
   -.333E+00 -.141E+02 -.465E+02   0.352E+00 0.143E+02 0.474E+02   -.228E-01 -.341E-01 -.745E+00   0.400E-05 0.886E-04 0.266E-03
   0.449E+00 -.253E+02 0.590E+02   -.747E+00 0.259E+02 -.600E+02   0.191E+00 -.233E+00 0.119E+00   0.129E-04 -.163E-03 -.954E-04
   -.503E+00 0.455E+02 -.717E+02   0.314E+00 -.445E+02 0.717E+02   0.295E+00 -.137E+01 0.201E+01   0.466E-05 0.519E-05 -.298E-03
   -.352E-01 0.324E+01 -.330E+01   -.124E-01 -.326E+01 0.311E+01   0.122E+00 0.352E+00 0.233E+00   -.300E-05 -.801E-05 0.170E-03
   -.384E-01 -.433E+00 0.266E+02   0.222E-01 0.520E+00 -.263E+02   -.127E-01 -.138E+00 -.295E+00   0.202E-05 0.150E-03 0.154E-04
   -.195E+00 -.475E+02 -.490E+02   -.902E+00 0.487E+02 0.501E+02   0.118E+01 -.654E+00 -.477E+00   0.439E-05 0.196E-03 0.171E-03
   -.886E-01 -.150E+02 0.130E+00   -.498E-01 0.150E+02 0.651E+00   0.162E+00 0.165E-01 -.816E+00   0.459E-05 0.289E-04 0.180E-03
   -.101E+02 -.555E+02 0.139E+03   0.276E+02 0.943E+02 -.277E+03   0.664E+01 0.161E+02 -.474E+02   0.227E-04 -.189E-03 -.507E-03
   -.151E+01 0.278E+02 -.846E+02   0.147E+01 -.268E+02 0.846E+02   0.181E+00 -.382E+01 0.280E+01   0.490E-05 -.148E-03 0.272E-03
   -.294E+00 -.400E+01 0.337E+02   0.204E+00 0.269E+01 -.341E+02   0.674E-01 0.147E+01 -.125E+00   -.231E-05 -.908E-04 0.297E-03
   0.684E+01 -.329E+02 0.451E+02   0.846E+01 0.133E+03 -.942E+02   -.418E+01 0.420E+02 -.239E+02   -.188E-04 -.128E-03 -.954E-04
   0.167E+00 0.223E+02 -.365E+02   -.993E-01 -.225E+02 0.367E+02   -.101E+00 0.134E+00 -.277E+00   -.331E-05 -.250E-04 -.764E-04
   0.628E-01 0.176E+02 0.237E+02   -.455E-01 -.176E+02 -.238E+02   0.392E-01 -.314E+00 -.150E+00   -.141E-05 0.605E-04 0.254E-03
   0.119E+01 -.120E+02 0.289E+02   -.106E+01 0.131E+02 -.308E+02   -.142E+00 -.725E+00 0.238E+01   -.201E-05 0.227E-03 -.257E-03
   -.782E+01 -.198E+02 -.354E+02   0.512E+01 0.228E+02 0.413E+02   0.453E+01 0.145E+02 0.493E+02   0.621E-05 -.109E-03 -.130E-03
   0.628E+01 0.165E+02 -.332E+02   -.238E+02 -.575E+02 0.170E+03   -.559E+01 -.142E+02 0.470E+02   -.117E-05 -.355E-03 -.326E-03
   0.803E+01 0.287E+02 0.538E+02   -.200E+02 -.130E+03 -.103E+03   -.731E+01 -.433E+02 -.237E+02   -.159E-04 0.239E-03 -.190E-03
   -.782E+01 -.198E+02 -.354E+02   0.512E+01 0.228E+02 0.413E+02   0.453E+01 0.145E+02 0.493E+02   0.106E-06 -.110E-03 -.134E-03
   0.628E+01 0.165E+02 -.332E+02   -.238E+02 -.575E+02 0.170E+03   -.559E+01 -.142E+02 0.470E+02   0.600E-06 -.350E-03 -.336E-03
   0.803E+01 0.287E+02 0.538E+02   -.200E+02 -.130E+03 -.103E+03   -.731E+01 -.433E+02 -.237E+02   -.107E-04 0.242E-03 -.190E-03
   0.751E+01 0.154E+03 -.558E+02   -.200E+02 -.254E+03 0.103E+03   -.519E+01 -.471E+02 0.258E+02   0.101E-05 0.147E-03 -.268E-03
   0.228E+01 0.574E+02 -.134E+02   -.165E+01 -.547E+02 0.162E+02   -.154E+01 -.154E+02 -.895E+01   -.195E-04 -.468E-03 -.298E-03
   -.452E+00 -.410E+02 -.944E+01   0.904E+00 0.416E+02 0.909E+01   -.489E+00 0.173E+01 -.198E+01   0.195E-04 0.129E-03 -.509E-05
   0.751E+01 0.154E+03 -.558E+02   -.200E+02 -.254E+03 0.103E+03   -.519E+01 -.471E+02 0.258E+02   -.482E-05 0.152E-03 -.270E-03
   0.228E+01 0.574E+02 -.134E+02   -.165E+01 -.547E+02 0.162E+02   -.154E+01 -.154E+02 -.895E+01   0.203E-04 -.473E-03 -.301E-03
   -.452E+00 -.410E+02 -.944E+01   0.904E+00 0.416E+02 0.909E+01   -.489E+00 0.173E+01 -.198E+01   0.432E-05 0.151E-03 0.887E-05
   0.242E+01 0.458E+01 -.320E+01   0.471E-13 0.639E-13 -.135E-12   -.239E+01 -.469E+01 0.320E+01   -.127E-06 -.759E-03 -.101E-02

 POSITION                                       TOTAL-FORCE (eV/Angst)
      7.61225      7.61225      0.00000        19.064377    146.038158     72.474050
      5.69210      5.69210      2.71550        -0.004438      0.175817      0.126829
      3.77195      3.77195      5.43100        -0.107231      0.352790     -0.837998
      3.77195      3.77195      0.00000        -0.127399     11.858063      8.166009
      1.85180      1.85180      2.71550        -0.000155     -0.038589      0.136578
     11.45254     11.45255      5.43100         4.744264    -14.648806    -57.031158
     11.45255     11.45255      0.00000         0.106084     -0.420519      2.044893
      9.53240      9.53240      2.71550         0.074244      0.334117      0.049355
      7.61225      7.61225      5.43100        -0.029349     -0.047614      0.031116
      5.69210      7.61225      1.35775         0.080870      0.568423      0.616784
      3.77195      5.69210      4.07325         0.023195      0.036079     -0.035071
      1.85180      3.77195      6.78875        24.198099     54.922790   -185.821472
      9.53240     11.45255      1.35775        -0.034585     -0.067401     -0.110370
      7.61225      9.53240      4.07325         0.055993     -0.302878     -0.189777
      5.69210      7.61225      6.78875        -0.008213      0.383709      0.555195
      1.85180      3.77195      1.35775         0.143610     -2.879282      2.777257
      7.61225      1.85180      4.07325        -0.023352      0.156653     -0.480273
      9.53240     11.45255      6.78875        11.121618    142.148287    -72.998403
      7.61225      3.77195      0.00000        -0.127399     11.858063      8.166009
      5.69210      1.85180      2.71550        -0.000155     -0.038589      0.136578
      7.61225     11.45255      5.43100         4.744264    -14.648806    -57.031158
      3.77195      7.61225      0.00000        19.064377    146.038158     72.474050
      9.53240      5.69210      2.71550        -0.004438      0.175817      0.126829
      7.61225      3.77195      5.43100        -0.107231      0.352790     -0.837998
      7.61225     11.45255      0.00000         0.106084     -0.420519      2.044893
      5.69210      9.53240      2.71550         0.074244      0.334117      0.049355
      3.77195      7.61225      5.43100        -0.029349     -0.047614      0.031116
      9.53240      7.61225      1.35775         0.080870      0.568423      0.616784
      7.61225      5.69210      4.07325         0.023195      0.036079     -0.035071
      5.69210      3.77195      6.78875        24.198099     54.922790   -185.821472
      5.69210      3.77195      1.35775         0.143610     -2.879282      2.777257
      3.77195      1.85180      4.07325        -0.023352      0.156653     -0.480273
      5.69210     11.45254      6.78875        11.121618    142.148287    -72.998403
      5.69210     11.45255      1.35775        -0.034585     -0.067401     -0.110370
      3.77195      9.53240      4.07325         0.055993     -0.302878     -0.189777
      9.53240      7.61225      6.78875        -0.008213      0.383709      0.555195
      7.49715      0.30574      6.78875         1.832995     17.452935     55.141949
      5.57700      3.50599      7.69392       -23.127843    -55.149213    183.730051
      3.65685      6.70624      8.59908       -19.316999   -144.307946    -73.090570
      3.65685      0.30574      6.78875         1.832995     17.452935     55.141949
      1.73670      3.50599      7.69392       -23.127843    -55.149213    183.730051
      7.49715      6.70624      8.59908       -19.316999   -144.307946    -73.090570
      9.41730     10.54653      7.24133       -17.714309   -146.208396     73.227898
      3.65685      2.22589      8.14650        -0.913550    -12.615060     -6.152615
      9.41730      5.42614      9.05167        -0.037928      2.257881     -2.330256
      5.57700     10.54654      7.24133       -17.714309   -146.208396     73.227898
      7.49715      2.22589      8.14650        -0.913550    -12.615060     -6.152615
      5.57700      5.42614      9.05167        -0.037928      2.257881     -2.330256
    total drift:                                0.026776     -0.114344      0.006709

  FREE ENERGIE OF THE ION-ELECTRON SYSTEM (eV)
  free  energy   TOTEN  =       176.13755016 eV

  energy  without entropy=      176.13877856  energy(sigma->0) =      176.13816436