 vasp.6.4.3 19Mar24 (build Oct 22 2024 11:23:12) complex

 executed on             LinuxIFC date 2025.06.04  00:14:06

 INCAR:
   SYSTEM = Si and Ge interface calculation
   ISTART = 0
   ICHARG = 2
   LWAVE = .FALSE.
   LREAL = AUTO
   ENCUT = 700
   ENAUG = 900
   ADDGRID = .TRUE.
   LMAXMIX = 6
   LASPH = .TRUE.
   LMIXTAU = .TRUE.
   NCORE = 16
   NELM = 100
   NBANDS = 116
   EDIFF = 1d-7
   AMIX = 0.6
   ISMEAR = 0
   SIGMA = 0.01
   NELECT = 192
   ISPIN = 2
   NUPDOWN = 1
   LVTOT = .FALSE.
   LVHAR = .TRUE.

 POTCAR:    PAW_PBE Ge 05Jan2001
|           W    W    AA    RRRRR   N    N  II  N    N   GGGG   !!!           |
|           W    W   A  A   R    R  NN   N  II  NN   N  G    G  !!!           |
|           W    W  A    A  R    R  N N  N  II  N N  N  G       !!!           |
|           W WW W  AAAAAA  RRRRR   N  N N  II  N  N N  G  GGG   !            |
|           WW  WW  A    A  R   R   N   NN  II  N   NN  G    G                |
|           W    W  A    A  R    R  N    N  II  N    N   GGGG   !!!           |
|     You use a magnetic or noncollinear calculation, but did not specify     |
|     the initial magnetic moment with the MAGMOM tag. Note that a            |
|     default of 0.021 will be used for all atoms. This ferromagnetic         |
|     setup may break the symmetry of the crystal, in particular it may       |
|     rule out finding an antiferromagnetic solution. Thence, we              |
|     recommend setting the initial magnetic moment manually or verifying     |
|     carefully that this magnetic setup is desired.                          |

 POTCAR:    PAW_PBE Ge 05Jan2001
   VRHFIN =Ge: s2p2

   TITEL  = PAW_PBE Ge 05Jan2001
   POMASS =   72.610; ZVAL   =    4.000    mass and valenz
   ENMAX  =  173.807; ENMIN  =  130.355 eV

 Optimization of the real space projectors (new method)

 maximal supplied QI-value         = 16.25
 optimisation between [QCUT,QGAM] = [ 13.49, 26.98] = [ 50.95,203.80] Ry
 Optimized for a Real-space Cutoff    1.25 Angstroem

   l    n(q)    QCUT    max X(q) W(low)/X(q) W(high)/X(q)  e(spline)
   0     10    13.489    65.336    0.91E-04    0.11E-03    0.34E-06
   0     10    13.489    52.220    0.89E-04    0.11E-03    0.34E-06
   1     10    13.489    36.409    0.22E-03    0.27E-03    0.14E-06
   1     10    13.489    21.334    0.21E-03    0.27E-03    0.14E-06
   2      9    13.489     4.673    0.11E-03    0.12E-03    0.19E-06
  PAW_PBE Ge 05Jan2001                  :

 POSCAR: Ge+Ge
  positions in direct lattice

 exchange-correlation table for PE
   RHO(1)=    0.500       N(1)  =     2000
   RHO(2)=  100.500       N(2)  =     4000

 ion  position               nearest neighbor table
   1  0.014  0.014  0.000-  30 0.39  33 2.29  45 2.29  16 2.45  22 2.45  10 2.45  39 2.82
   2  0.348  0.348  0.222-  17 2.45  23 2.45   4 2.45  11 2.45
   3  0.681  0.681  0.444-  28 1.68  31 2.29  43 2.29  18 2.45  24 2.45   5 2.45  12 2.45  37 2.82

   4  0.348  0.348  0.056-  27 1.68  42 2.08   7 2.45  13 2.45  19 2.45   2 2.45  48 2.66  36 2.66

[...]

  47  0.819  0.319  0.778-  38 2.45  45 2.45  26 2.45  32 2.45
  48  0.486  0.986  0.000-  19 0.39  16 2.08  39 2.45  33 2.45  27 2.45  10 2.66   4 2.66

  LATTYP: Found a hexagonal cell.
 ALAT       =     8.0013382827
 C/A-ratio  =     1.8371169555

  Lattice vectors:

 A1 = (  -4.0006690030,  -6.9293622970,   0.0000000000)
 A2 = (   8.0013380050,   0.0000000000,   0.0000000000)
 A3 = (   0.0000000000,   0.0000000000,  14.6993942260)

Analysis of symmetry for initial positions (statically):
 Subroutine PRICEL returns following result:

[...]

   4 primitive cells build up your supercell.

 Routine SETGRP: Setting up the symmetry group for a
 hexagonal supercell.

 Subroutine GETGRP returns: Found  4 space group operations
 (whereof  2 operations were pure point group operations)
 out of a pool of 24 trial point group operations.

The static configuration has the point symmetry C_1h.
 The point group associated with its full space group is C_2v.

Analysis of symmetry for dynamics (positions and initial velocities):
 Subroutine PRICEL returns following result:

[...]

The dynamic configuration has the point symmetry C_1h.
 The point group associated with its full space group is C_2v.

Analysis of structural, dynamic, and magnetic symmetry:
 Subroutine PRICEL returns following result:

  LATTYP: Found a hexagonal cell.
 ALAT       =     4.0006684052
 C/A-ratio  =     3.6742345871

  Lattice vectors:

 A1 = (  -2.0003341334,  -3.4646805110,   0.0000000000)
 A2 = (   4.0006682664,   0.0000000000,   0.0000000000)
 A3 = (   0.0000000000,   0.0000000000,  14.6993942260)

   4 primitive cells build up your supercell.

 Routine SETGRP: Setting up the symmetry group for a
 hexagonal supercell.

 Subroutine GETGRP returns: Found  4 space group operations
 (whereof  2 operations were pure point group operations)
 out of a pool of 24 trial point group operations.

The overall configuration has the point symmetry C_1h.
 The point group associated with its full space group is C_2v.

 Subroutine INISYM returns: Found  4 space group operations
 (whereof  2 operations are pure point group operations),
 and found     4 'primitive' translations

                                     Primitive cell

  volume of cell :     203.7489

  direct lattice vectors                    reciprocal lattice vectors
    -2.000334133 -3.464680511  0.000000000     0.000000000 -0.288626901  0.000000000
     4.000668266  0.000000000  0.000000000     0.249958240 -0.144313451  0.000000000
     0.000000000  0.000000000 14.699394226     0.000000000  0.000000000  0.068030014

  length of vectors
     4.000668405  4.000668266 14.699394226     0.288626901  0.288626911  0.068030014

  position of ions in fractional coordinates (direct lattice)
     0.971534659  0.028465341  0.000000000
     0.304867790  0.695132330  0.222222283
     0.638201409  0.361798591  0.444444478
     0.304867790  0.695132090  0.055555485
     0.638201409  0.361798353  0.277777761
     0.971534963  0.028465037  0.500000060
     0.028465027  0.971534973  0.500000060
     0.695132050  0.304867770  0.722222388
     0.361798463  0.638201299  0.944444537
     0.695131990  0.304868010  0.555555642
     0.361798463  0.638201537  0.777777910
     0.028464907  0.971534853  0.000000119

  ion indices of the primitive-cell ions
   primitive index   ion index
                 1           1
                 2           8
                 3           9
                 4          10
                 5          11
                 6           6
                 7          25
                 8          38
                 9          39
                10          40
                11          41
                12          30

 KPOINTS: Automatic KPOINTS generated

Automatic generation of k-mesh.
 Grid dimensions read from file:
 generate k-points for:    5    5    2

 Generating k-lattice:

  Cartesian coordinates                     Fractional coordinates (reciprocal lattice)
     0.024995819 -0.014431342  0.000000000     0.200000000 -0.000000000  0.000000000
     0.000000000  0.028862685  0.000000000     0.000000000  0.200000000  0.000000000
     0.000000000  0.000000000  0.034015007     0.000000000  0.000000000  0.500000000

  Length of vectors
     0.028862686  0.028862685  0.034015007

  Shift w.r.t. Gamma in fractional coordinates (k-lattice)
     0.000000000  0.000000000  0.000000000

 Subroutine IBZKPT returns following result:

 Found     18 irreducible k-points:

 Following reciprocal coordinates:
            Coordinates               Weight
  0.000000  0.000000  0.000000      1.000000
  0.200000 -0.000000  0.000000      4.000000
  0.200000  0.200000  0.000000      2.000000
  0.400000 -0.000000  0.000000      4.000000
  0.400000  0.400000  0.000000      2.000000
  0.400000  0.200000  0.000000      4.000000
 -0.200000  0.200000  0.000000      2.000000
 -0.400000  0.200000  0.000000      4.000000
  0.400000 -0.400000  0.000000      2.000000
  0.000000  0.000000  0.500000      1.000000
  0.200000 -0.000000  0.500000      4.000000
  0.200000  0.200000  0.500000      2.000000
  0.400000 -0.000000  0.500000      4.000000
  0.400000  0.400000  0.500000      2.000000
  0.400000  0.200000  0.500000      4.000000
 -0.200000  0.200000  0.500000      2.000000
 -0.400000  0.200000  0.500000      4.000000
  0.400000 -0.400000  0.500000      2.000000

 Following cartesian coordinates:
            Coordinates               Weight
  0.000000  0.000000  0.000000      1.000000
  0.024996 -0.014431  0.000000      4.000000
  0.024996  0.014431  0.000000      2.000000
  0.049992 -0.028863  0.000000      4.000000
  0.049992  0.028863  0.000000      2.000000
  0.049992 -0.000000  0.000000      4.000000
 -0.024996  0.043294  0.000000      2.000000
 -0.049992  0.057725  0.000000      4.000000
  0.049992 -0.086588  0.000000      2.000000
  0.000000  0.000000  0.034015      1.000000
  0.024996 -0.014431  0.034015      4.000000
  0.024996  0.014431  0.034015      2.000000
  0.049992 -0.028863  0.034015      4.000000
  0.049992  0.028863  0.034015      2.000000
  0.049992 -0.000000  0.034015      4.000000
 -0.024996  0.043294  0.034015      2.000000
 -0.049992  0.057725  0.034015      4.000000
  0.049992 -0.086588  0.034015      2.000000

 SYSTEM =  Si and Ge interface calculation
 POSCAR =  Ge+Ge

 Startparameter for this run:
   NWRITE =      2    write-flag & timer
   PREC   = normal    normal or accurate (medium, high low for compatibility)
   ISTART =      0    job   : 0-new  1-cont  2-samecut
   ICHARG =      2    charge: 1-file 2-atom 10-const
   ISPIN  =      2    spin polarized calculation?
   LNONCOLLINEAR =      F non collinear calculations
   LSORBIT =      F    spin-orbit coupling
   INIWAV =      1    electr: 0-lowe 1-rand  2-diag
   LASPH  =      T    aspherical Exc in radial PAW
 Electronic Relaxation 1
   ENCUT  =  700.0 eV  51.45 Ry    7.17 a.u.  17.26 17.26 31.71*2*pi/ulx,y,z
   ENINI  =  700.0     initial cutoff
   ENAUG  =  900.0 eV  augmentation charge cutoff
   NELM   =    100;   NELMIN=  2; NELMDL= -5     # of ELM steps
   EDIFF  = 0.1E-06   stopping-criterion for ELM
   LREAL  =      T    real-space projection
   NLSPLINE    = F    spline interpolate recip. space projectors
   LCOMPAT=      F    compatible to vasp.4.4
   GGA_COMPAT  = T    GGA compatible to vasp.4.4-vasp.4.6
   LMAXPAW     = -100 max onsite density
   LMAXMIX     =    6 max onsite mixed and CHGCAR
   VOSKOWN=      0    Vosko Wilk Nusair interpolation
   ROPT   =   -0.00050
 Ionic relaxation
   EDIFFG = 0.1E-05   stopping-criterion for IOM
   NSW    =      0    number of steps for IOM
   NBLOCK =      1;   KBLOCK =      1    inner block; outer block
   IBRION =     -1    ionic relax: 0-MD 1-quasi-New 2-CG
   NFREE  =      0    steps in history (QN), initial steepest desc. (CG)
   ISIF   =      2    stress and relaxation
   IWAVPR =     10    prediction:  0-non 1-charg 2-wave 3-comb
   ISYM   =      2    0-nonsym 1-usesym 2-fastsym
   LCORR  =      T    Harris-Foulkes like correction to forces

   POTIM  = 0.5000    time-step for ionic-motion
   TEIN   =    0.0    initial temperature
[...]
     42      -0.9406      1.00000
     43      -0.4282      1.00000
     44      -0.4281      1.00000
     45       0.1623      1.00000
     46       0.1623      1.00000
     47       0.1624      1.00000
     48       0.1624      1.00000
     49       0.3283      1.00000
     50       0.3284      1.00000
     51       1.5850      1.00000
     52       1.5850      1.00000
     53       2.3049      1.00000
     54       2.3049      1.00000
     55       2.3049      1.00000
     56       2.3049      1.00000
     57       2.5121      1.00000
     58       2.5121      1.00000
     59       2.5542      1.00000
     60       2.5542      1.00000
[...]
    102       6.6093      0.00000
    103       6.6986      0.00000
    104       6.6986      0.00000
    105       7.1505      0.00000
    106       7.1505      0.00000
    107       7.1506      0.00000
    108       7.1506      0.00000
    109       7.7103      0.00000
    110       7.7104      0.00000
    111       8.0078      0.00000
    112       8.0079      0.00000
    113       8.8182      0.00000
    114       8.8182      0.00000
    115       8.8182      0.00000
    116       8.8182      0.00000
 Fermi energy:         6.4262633840

 spin component 2

[...]

 k-point    18 :       0.4000   -0.4000    0.5000
  band No.  band energies     occupation
      1     -10.3048      1.00000
      2     -10.3048      1.00000
      3     -10.3047      1.00000
      4     -10.3047      1.00000
      5     -10.1018      1.00000
      6     -10.1017      1.00000
      7      -9.7606      1.00000
      8      -9.7604      1.00000
      9      -4.9840      1.00000
     10      -4.9840      1.00000
     11      -4.9840      1.00000
     12      -4.9840      1.00000
     13      -4.5121      1.00000
     14      -4.5120      1.00000
     15      -4.4860      1.00000
     16      -4.4859      1.00000
     17      -4.4479      1.00000
     18      -4.4478      1.00000
     19      -3.9787      1.00000
     20      -3.9785      1.00000
     21      -3.7746      1.00000
     22      -3.7746      1.00000
     23      -3.7745      1.00000
     24      -3.7745      1.00000
     25      -3.5656      1.00000
     26      -3.5655      1.00000
     27      -3.1518      1.00000
     28      -3.1518      1.00000
     29      -2.8056      1.00000
     30      -2.8056      1.00000
     31      -2.8054      1.00000
     32      -2.8054      1.00000
     33      -2.5544      1.00000
     34      -2.5544      1.00000
     35      -2.5543      1.00000
     36      -2.5543      1.00000
     37      -2.3446      1.00000
     38      -2.3446      1.00000
     39      -2.2301      1.00000
     40      -2.2301      1.00000
     41      -0.9105      1.00000
     42      -0.9104      1.00000
     43      -0.4134      1.00000
     44      -0.4134      1.00000
     45       0.1749      1.00000
     46       0.1749      1.00000
     47       0.1750      1.00000
     48       0.1750      1.00000
     49       0.3402      1.00000
     50       0.3402      1.00000
     51       1.6006      1.00000
     52       1.6007      1.00000
     53       2.3188      1.00000
     54       2.3188      1.00000
     55       2.3188      1.00000
     56       2.3188      1.00000
     57       2.5176      1.00000
     58       2.5177      1.00000
     59       2.5642      1.00000
     60       2.5643      1.00000
[...]
    102       6.6247      0.00000
    103       6.7353      0.00000
    104       6.7354      0.00000
    105       7.1817      0.00000
    106       7.1817      0.00000
    107       7.1818      0.00000
    108       7.1818      0.00000
    109       7.7495      0.00000
    110       7.7495      0.00000
    111       8.0457      0.00000
    112       8.0458      0.00000
    113       8.8283      0.00000
    114       8.8283      0.00000
    115       8.8283      0.00000
    116       8.8284      0.00000

 soft charge-density along one line, spin component           1
         0         1         2         3         4         5         6         7         8         9
 total charge-density along one line

 soft charge-density along one line, spin component           2
         0         1         2         3         4         5         6         7         8         9
 total charge-density along one line

------------------------ aborting loop because EDIFF is reached ----------------------------------------

  FORCE on cell =-STRESS in cart. coord.  units (eV):
  Direction    XX          YY          ZZ          XY          YZ          ZX
  Alpha Z   540.33273   540.33273   540.33273
  Ewald    2063.06532  -282.13214 -3329.63726  2030.99955    -0.00488    -0.00832
  Hartree   749.22803   746.23212  -484.46117     2.59459    -0.00001    -0.00003
  E(xc)    -743.16872  -739.33512  -746.09978    -3.31998     0.00000    -0.00000
  Local   -2359.74375 -2341.06021   971.00245   -16.18023    -0.00005    -0.00016
  n-local  1653.09209  1654.41172  1706.00060     8.50323     0.00032     0.00078
  augment     2.48736    20.72837    60.18074   -15.79720     0.00006     0.00010
  Kinetic  1760.47214  1763.65303  1806.98477    -8.36913    -0.00010    -0.00048
  Fock        0.00000     0.00000     0.00000     0.00000     0.00000     0.00000
  Total    3667.59796  1360.99775   524.30308  1997.57458     0.00000     0.00000
  in kB    7210.02851  2675.54751  1030.71281  3926.97613     0.00000     0.00000

 VOLUME and BASIS-vectors are now :
  energy-cutoff  :      700.00
  volume of cell :      815.00
      direct lattice vectors                 reciprocal lattice vectors
     8.001338005  0.000000000  0.000000000     0.124979097 -0.072156712  0.000000000
     4.000669003  6.929362297  0.000000000     0.000000000  0.144313424  0.000000000
     0.000000000  0.000000000 14.699394226     0.000000000  0.000000000  0.068030014

  length of vectors
     8.001338005  8.001338283 14.699394226     0.144313429  0.144313424  0.068030014

 FORCES acting on ions
    electron-ion (+dipol)            ewald-force                    non-local-force                 convergence-correction
   -.168E+02 -.972E+01 -.209E+01   0.127E+04 0.733E+03 0.153E+01   -.262E+00 -.151E+00 0.100E+01   -.508E-05 -.288E-05 -.445E-05
   0.273E+00 0.158E+00 -.174E+02   -.278E+00 -.161E+00 0.173E+02   -.106E+00 -.613E-01 0.583E+00   0.267E-06 0.177E-06 -.309E-04
   -.256E+01 -.148E+01 0.942E+02   0.631E+01 0.364E+01 -.112E+03   0.225E+01 0.130E+01 -.178E+02   -.594E-05 -.350E-05 0.510E-04
   0.402E+01 0.232E+01 -.949E+02   -.132E+01 -.762E+00 0.113E+03   0.833E-01 0.481E-01 0.182E+02   0.815E-06 0.469E-06 -.635E-04
   0.981E-01 0.566E-01 0.173E+02   -.101E+00 -.581E-01 -.172E+02   -.691E-01 -.399E-01 -.551E+00   -.357E-06 -.293E-06 -.182E-04
   -.105E+02 -.609E+01 0.289E+01   0.126E+04 0.728E+03 -.276E+01   -.206E+01 -.119E+01 -.139E+01   -.233E-05 -.133E-05 0.915E-05
   -.168E+02 -.972E+01 -.209E+01   0.127E+04 0.733E+03 0.153E+01   -.262E+00 -.151E+00 0.100E+01   -.499E-05 -.293E-05 -.444E-05
   0.273E+00 0.158E+00 -.174E+02   -.278E+00 -.161E+00 0.173E+02   -.106E+00 -.613E-01 0.583E+00   0.263E-06 0.129E-06 -.309E-04
   -.256E+01 -.148E+01 0.942E+02   0.631E+01 0.364E+01 -.112E+03   0.225E+01 0.130E+01 -.178E+02   -.604E-05 -.342E-05 0.510E-04
   0.402E+01 0.232E+01 -.949E+02   -.132E+01 -.762E+00 0.113E+03   0.833E-01 0.481E-01 0.182E+02   0.738E-06 0.428E-06 -.635E-04
   0.982E-01 0.566E-01 0.173E+02   -.101E+00 -.581E-01 -.172E+02   -.691E-01 -.399E-01 -.551E+00   -.443E-06 -.169E-06 -.182E-04
   -.105E+02 -.609E+01 0.289E+01   0.126E+04 0.728E+03 -.276E+01   -.206E+01 -.119E+01 -.139E+01   -.232E-05 -.136E-05 0.915E-05
   -.168E+02 -.972E+01 -.209E+01   0.127E+04 0.733E+03 0.153E+01   -.262E+00 -.151E+00 0.100E+01   -.502E-05 -.285E-05 -.445E-05
   0.274E+00 0.158E+00 -.174E+02   -.278E+00 -.161E+00 0.173E+02   -.106E+00 -.613E-01 0.583E+00   0.146E-06 0.577E-07 -.309E-04
   -.256E+01 -.148E+01 0.942E+02   0.631E+01 0.364E+01 -.112E+03   0.225E+01 0.130E+01 -.178E+02   -.596E-05 -.349E-05 0.510E-04
   0.402E+01 0.232E+01 -.949E+02   -.132E+01 -.762E+00 0.113E+03   0.833E-01 0.481E-01 0.182E+02   0.701E-06 0.319E-06 -.635E-04
   0.982E-01 0.566E-01 0.173E+02   -.101E+00 -.581E-01 -.172E+02   -.691E-01 -.399E-01 -.551E+00   -.372E-06 -.227E-06 -.182E-04
   -.105E+02 -.609E+01 0.289E+01   0.126E+04 0.728E+03 -.276E+01   -.206E+01 -.119E+01 -.139E+01   -.227E-05 -.132E-05 0.914E-05
   -.168E+02 -.972E+01 -.209E+01   0.127E+04 0.733E+03 0.153E+01   -.262E+00 -.151E+00 0.100E+01   -.493E-05 -.290E-05 -.447E-05
   0.274E+00 0.158E+00 -.174E+02   -.278E+00 -.161E+00 0.173E+02   -.106E+00 -.613E-01 0.583E+00   0.143E-06 0.109E-06 -.309E-04
   -.256E+01 -.148E+01 0.942E+02   0.631E+01 0.364E+01 -.112E+03   0.225E+01 0.130E+01 -.178E+02   -.605E-05 -.345E-05 0.510E-04
   0.402E+01 0.232E+01 -.949E+02   -.132E+01 -.762E+00 0.113E+03   0.833E-01 0.481E-01 0.182E+02   0.625E-06 0.446E-06 -.635E-04
   0.983E-01 0.566E-01 0.173E+02   -.101E+00 -.581E-01 -.172E+02   -.691E-01 -.399E-01 -.551E+00   -.458E-06 -.252E-06 -.182E-04
   -.105E+02 -.609E+01 0.289E+01   0.126E+04 0.728E+03 -.276E+01   -.206E+01 -.119E+01 -.139E+01   -.226E-05 -.129E-05 0.916E-05
   0.168E+02 0.972E+01 -.209E+01   -.127E+04 -.733E+03 0.154E+01   0.262E+00 0.151E+00 0.100E+01   0.490E-05 0.284E-05 0.943E-05
   -.273E+00 -.158E+00 -.174E+02   0.278E+00 0.161E+00 0.173E+02   0.106E+00 0.613E-01 0.583E+00   -.191E-06 -.143E-06 0.147E-04
   0.256E+01 0.148E+01 0.942E+02   -.631E+01 -.364E+01 -.112E+03   -.225E+01 -.130E+01 -.178E+02   0.608E-05 0.352E-05 0.534E-04
   -.402E+01 -.232E+01 -.949E+02   0.132E+01 0.762E+00 0.113E+03   -.833E-01 -.481E-01 0.182E+02   -.687E-06 -.443E-06 -.350E-04
   -.979E-01 -.566E-01 0.173E+02   0.101E+00 0.581E-01 -.172E+02   0.691E-01 0.399E-01 -.551E+00   0.415E-06 0.259E-06 0.226E-04
   0.105E+02 0.609E+01 0.289E+01   -.126E+04 -.728E+03 -.275E+01   0.206E+01 0.119E+01 -.139E+01   0.230E-05 0.138E-05 -.472E-05
   0.168E+02 0.972E+01 -.209E+01   -.127E+04 -.733E+03 0.154E+01   0.262E+00 0.151E+00 0.100E+01   0.495E-05 0.283E-05 0.944E-05
   -.273E+00 -.158E+00 -.174E+02   0.278E+00 0.161E+00 0.173E+02   0.106E+00 0.613E-01 0.583E+00   -.163E-06 -.126E-06 0.147E-04
   0.256E+01 0.148E+01 0.942E+02   -.631E+01 -.364E+01 -.112E+03   -.225E+01 -.130E+01 -.178E+02   0.601E-05 0.339E-05 0.534E-04
   -.402E+01 -.232E+01 -.949E+02   0.132E+01 0.762E+00 0.113E+03   -.833E-01 -.481E-01 0.182E+02   -.673E-06 -.428E-06 -.350E-04
   -.979E-01 -.566E-01 0.173E+02   0.101E+00 0.581E-01 -.172E+02   0.691E-01 0.399E-01 -.551E+00   0.398E-06 0.217E-06 0.226E-04
   0.105E+02 0.609E+01 0.289E+01   -.126E+04 -.728E+03 -.275E+01   0.206E+01 0.119E+01 -.139E+01   0.233E-05 0.141E-05 -.472E-05
   0.168E+02 0.972E+01 -.209E+01   -.127E+04 -.733E+03 0.154E+01   0.262E+00 0.151E+00 0.100E+01   0.488E-05 0.281E-05 0.943E-05
   -.273E+00 -.158E+00 -.174E+02   0.278E+00 0.161E+00 0.173E+02   0.106E+00 0.613E-01 0.583E+00   -.248E-06 -.110E-06 0.147E-04
   0.256E+01 0.148E+01 0.942E+02   -.631E+01 -.364E+01 -.112E+03   -.225E+01 -.130E+01 -.178E+02   0.602E-05 0.347E-05 0.534E-04
   -.402E+01 -.232E+01 -.949E+02   0.132E+01 0.762E+00 0.113E+03   -.833E-01 -.481E-01 0.182E+02   -.762E-06 -.394E-06 -.350E-04
   -.980E-01 -.566E-01 0.173E+02   0.101E+00 0.581E-01 -.172E+02   0.691E-01 0.399E-01 -.551E+00   0.420E-06 0.224E-06 0.226E-04
   0.105E+02 0.609E+01 0.289E+01   -.126E+04 -.728E+03 -.275E+01   0.206E+01 0.119E+01 -.139E+01   0.240E-05 0.134E-05 -.470E-05
   0.168E+02 0.972E+01 -.209E+01   -.127E+04 -.733E+03 0.154E+01   0.262E+00 0.151E+00 0.100E+01   0.493E-05 0.287E-05 0.946E-05
   -.273E+00 -.158E+00 -.174E+02   0.278E+00 0.161E+00 0.173E+02   0.106E+00 0.613E-01 0.583E+00   -.219E-06 -.942E-07 0.147E-04
   0.256E+01 0.148E+01 0.942E+02   -.631E+01 -.364E+01 -.112E+03   -.225E+01 -.130E+01 -.178E+02   0.595E-05 0.351E-05 0.534E-04
   -.402E+01 -.232E+01 -.949E+02   0.132E+01 0.762E+00 0.113E+03   -.833E-01 -.481E-01 0.182E+02   -.748E-06 -.392E-06 -.350E-04
   -.980E-01 -.566E-01 0.173E+02   0.101E+00 0.581E-01 -.172E+02   0.691E-01 0.399E-01 -.551E+00   0.403E-06 0.245E-06 0.226E-04
   0.105E+02 0.609E+01 0.289E+01   -.126E+04 -.728E+03 -.275E+01   0.206E+01 0.119E+01 -.139E+01   0.243E-05 0.134E-05 -.474E-05
   0.401E-02 0.155E-02 -.364E+00   0.136E-11 -.114E-11 0.231E-12   0.222E-14 0.266E-14 0.420E+00   0.116E-08 0.674E-09 0.140E-04

 POSITION                                       TOTAL-FORCE (eV/Angst)
      0.17082      0.09862      0.00000      1252.026507    722.857874      0.445244
      4.17149      2.40841      3.26653        -0.111071     -0.064127      0.473772
      8.17216      4.71820      6.53307         5.996468      3.462062    -35.845648
      4.17149      2.40841      0.81663         2.780412      1.605272     36.662494
      8.17216      4.71820      4.08317        -0.071646     -0.041365     -0.478955
      0.17082      0.09862      7.34970      1248.765084    720.974891     -1.256907
      6.17182      3.56330      0.00000      1252.026507    722.857874      0.445244
     10.17249      5.87309      3.26653        -0.111071     -0.064127      0.473772
      2.17115      1.25352      6.53306         5.996468      3.462062    -35.845648
     10.17249      5.87309      0.81663         2.780412      1.605272     36.662494
      2.17115      1.25352      4.08316        -0.071646     -0.041365     -0.478955
      6.17182      3.56330      7.34970      1248.765084    720.974891     -1.256907
      2.17115      3.56330      0.00000      1252.026507    722.857874      0.445244
      6.17182      5.87309      3.26653        -0.111071     -0.064127      0.473772
      6.17182      1.25352      6.53306         5.996468      3.462062    -35.845648
      6.17182      5.87309      0.81663         2.780412      1.605272     36.662494
      6.17182      1.25352      4.08317        -0.071646     -0.041365     -0.478955
      2.17115      3.56330      7.34970      1248.765084    720.974891     -1.256907
      4.17149      0.09862      0.00000      1252.026507    722.857874      0.445244
      8.17216      2.40841      3.26653        -0.111071     -0.064127      0.473772
      4.17149      4.71820      6.53306         5.996468      3.462062    -35.845648
      8.17216      2.40841      0.81663         2.780412      1.605272     36.662494
      4.17149      4.71820      4.08317        -0.071646     -0.041365     -0.478955
      4.17149      0.09862      7.34970      1248.765084    720.974891     -1.256907
     11.83119      6.83074      7.34970     -1252.026507   -722.857874      0.445244
      7.83052      4.52095     10.61623         0.111071      0.064127      0.473772
      3.82985      2.21116     13.88276        -5.996468     -3.462062    -35.845648
      7.83052      4.52095      8.16633        -2.780412     -1.605272     36.662494
      3.82985      2.21116     11.43286         0.071646      0.041365     -0.478955
     11.83119      6.83074      0.00000     -1248.765084   -720.974891     -1.256907
      9.83085      3.36606      7.34970     -1252.026507   -722.857874      0.445244
      5.83018      1.05627     10.61623         0.111071      0.064127      0.473772
      5.83018      5.67584     13.88276        -5.996468     -3.462062    -35.845648
      5.83018      1.05627      8.16633        -2.780412     -1.605272     36.662494
      5.83018      5.67584     11.43286         0.071646      0.041365     -0.478955
      9.83085      3.36606      0.00000     -1248.765084   -720.974891     -1.256907
      5.83018      3.36606      7.34970     -1252.026507   -722.857874      0.445244
      1.82951      1.05627     10.61623         0.111071      0.064127      0.473772
      9.83085      5.67584     13.88276        -5.996468     -3.462062    -35.845648
      1.82951      1.05627      8.16633        -2.780412     -1.605272     36.662494
      9.83085      5.67584     11.43286         0.071646      0.041365     -0.478955
      5.83018      3.36606      0.00000     -1248.765084   -720.974891     -1.256907
      7.83052      6.83074      7.34970     -1252.026507   -722.857874      0.445244
      3.82985      4.52095     10.61623         0.111071      0.064127      0.473772
      7.83052      2.21116     13.88276        -5.996468     -3.462062    -35.845648
      3.82985      4.52095      8.16633        -2.780412     -1.605272     36.662494
      7.83052      2.21116     11.43286         0.071646      0.041365     -0.478955
      7.83052      6.83074      0.00000     -1248.765084   -720.974891     -1.256907
    total drift:                                0.004009      0.001552      0.055563

  FREE ENERGIE OF THE ION-ELECTRON SYSTEM (eV)
  free  energy   TOTEN  =      3264.44013239 eV

  energy  without entropy=     3264.44190406  energy(sigma->0) =     3264.44101822