 vasp.6.4.3 19Mar24 (build Oct 22 2024 11:23:12) complex

 executed on             LinuxIFC date 2025.06.09  09:26:38

 INCAR:
   SYSTEM = Si and Ge interface calculation
   ISTART = 0
   ICHARG = 2
   LWAVE = .FALSE.
   LREAL = AUTO
   ENCUT = 700
   ENAUG = 900
   ADDGRID = .TRUE.
   LMAXMIX = 6
   LASPH = .TRUE.
   LMIXTAU = .TRUE.
   NCORE = 16
   NELM = 100
   NBANDS = 519
   EDIFF = 1d-7
   AMIX = 0.6
   ISMEAR = 0
   SIGMA = 0.01
   NELECT = 864
   ISPIN = 2
   NUPDOWN = 1
   LVTOT = .FALSE.
   LVHAR = .TRUE.

 POTCAR:    PAW_PBE Ge 05Jan2001
 POTCAR:    PAW_PBE Si 05Jan2001
|           W    W    AA    RRRRR   N    N  II  N    N   GGGG   !!!           |
|           W    W   A  A   R    R  NN   N  II  NN   N  G    G  !!!           |
|           W    W  A    A  R    R  N N  N  II  N N  N  G       !!!           |
|           W WW W  AAAAAA  RRRRR   N  N N  II  N  N N  G  GGG   !            |
|           WW  WW  A    A  R   R   N   NN  II  N   NN  G    G                |
|           W    W  A    A  R    R  N    N  II  N    N   GGGG   !!!           |
|     You use a magnetic or noncollinear calculation, but did not specify     |
|     the initial magnetic moment with the MAGMOM tag. Note that a            |
|     default of 4.63e-3 will be used for all atoms. This ferromagnetic       |
|     setup may break the symmetry of the crystal, in particular it may       |
|     rule out finding an antiferromagnetic solution. Thence, we              |
|     recommend setting the initial magnetic moment manually or verifying     |
|     carefully that this magnetic setup is desired.                          |

 POTCAR:    PAW_PBE Ge 05Jan2001
   VRHFIN =Ge: s2p2

   TITEL  = PAW_PBE Ge 05Jan2001
   POMASS =   72.610; ZVAL   =    4.000    mass and valenz
   ENMAX  =  173.807; ENMIN  =  130.355 eV

 POTCAR:    PAW_PBE Si 05Jan2001
   VRHFIN =Si: s2p2

   TITEL  = PAW_PBE Si 05Jan2001
   POMASS =   28.085; ZVAL   =    4.000    mass and valenz
   ENMAX  =  245.345; ENMIN  =  184.009 eV

 Optimization of the real space projectors (new method)

 maximal supplied QI-value         = 16.25
 optimisation between [QCUT,QGAM] = [ 13.49, 26.98] = [ 50.95,203.80] Ry
 Optimized for a Real-space Cutoff    1.25 Angstroem

   l    n(q)    QCUT    max X(q) W(low)/X(q) W(high)/X(q)  e(spline)
   0     10    13.489    65.336    0.91E-04    0.11E-03    0.34E-06
   0     10    13.489    52.220    0.89E-04    0.11E-03    0.34E-06
   1     10    13.489    36.409    0.22E-03    0.27E-03    0.14E-06
   1     10    13.489    21.334    0.21E-03    0.27E-03    0.14E-06
   2      9    13.489     4.673    0.11E-03    0.12E-03    0.19E-06
 Optimization of the real space projectors (new method)

 maximal supplied QI-value         = 19.84
 optimisation between [QCUT,QGAM] = [ 13.49, 26.99] = [ 50.98,203.92] Ry
 Optimized for a Real-space Cutoff    1.07 Angstroem

   l    n(q)    QCUT    max X(q) W(low)/X(q) W(high)/X(q)  e(spline)
   0      9    13.493   159.560    0.22E-03    0.15E-03    0.72E-07
   0      9    13.493   115.863    0.21E-03    0.15E-03    0.71E-07
   1      8    13.493    88.339    0.15E-03    0.11E-03    0.13E-06
   1      8    13.493    48.592    0.15E-03    0.10E-03    0.13E-06
  PAW_PBE Ge 05Jan2001                  :
  PAW_PBE Si 05Jan2001                  :

 POSCAR: Ge+Si
  positions in direct lattice

 exchange-correlation table for PE
   RHO(1)=    0.500       N(1)  =     2000
   RHO(2)=  100.500       N(2)  =     4000

 ion  position               nearest neighbor table
   1  0.990  0.986  0.000- 103 2.45 121 2.45 110 2.45 193 2.81
   2  0.865  0.820  0.111- 104 2.45 111 2.45 122 2.45 103 2.45
   3  0.740  0.653  0.221- 112 2.45 105 2.45 123 2.45 104 2.45
   4  0.615  0.486  0.332- 106 2.45 113 2.45 105 2.45 124 2.45
   5  0.490  0.320  0.443- 125 2.45 106 2.45 114 2.45 107 2.45
   6  0.365  0.153  0.553- 188 1.94 108 2.45 126 2.45 107 2.45
   7  0.990  0.320  0.000-  91 2.45 109 2.45 116 2.45 157 2.86
   8  0.865  0.153  0.111-  92 2.45 110 2.45 117 2.45  91 2.45
   9  0.740  0.986  0.221-  93 2.45 118 2.45 111 2.45  92 2.45
  10  0.615  0.820  0.332-  94 2.45  93 2.45 119 2.45 112 2.45
  11  0.490  0.653  0.443-  94 2.45 120 2.45 113 2.45  95 2.45
  12  0.365  0.486  0.553-  96 2.45 114 2.45  95 2.45 170 2.92
  13  0.990  0.653  0.000- 211 1.90  97 2.45 115 2.45 122 2.45
  14  0.865  0.486  0.111-  98 2.45 123 2.45 116 2.45  97 2.45
  15  0.740  0.320  0.221-  99 2.45 117 2.45 124 2.45  98 2.45
  16  0.615  0.153  0.332- 100 2.45 125 2.45 118 2.45  99 2.45
  17  0.490  0.986  0.443- 119 2.45 126 2.45 100 2.45 101 2.45
  18  0.365  0.820  0.553- 102 2.45 120 2.45 101 2.45 206 2.97
  19  0.490  0.986  0.000- 128 2.45  85 2.45 139 2.45 187 2.57
  20  0.365  0.820  0.111- 129 2.45 140 2.45  86 2.45  85 2.45
  21  0.240  0.653  0.221- 130 2.45  87 2.45 141 2.45  86 2.45
  22  0.115  0.486  0.332- 131 2.45  88 2.45 142 2.45  87 2.45
  23  0.990  0.320  0.443- 132 2.45  88 2.45  89 2.45 143 2.45
  24  0.865  0.153  0.553-  89 2.45 144 2.45  90 2.45 194 2.93
  25  0.490  0.320  0.000- 134 2.45  73 2.45 127 2.45 151 2.63 204 2.77
  26  0.365  0.153  0.111- 135 2.45 128 2.45  74 2.45  73 2.45
  27  0.240  0.986  0.221- 136 2.45  75 2.45 129 2.45  74 2.45
  28  0.115  0.820  0.332- 137 2.45  75 2.45 130 2.45  76 2.45
  29  0.990  0.653  0.443-  76 2.45 138 2.45  77 2.45 131 2.45
  30  0.865  0.486  0.553-  77 2.45 132 2.45  78 2.45 176 2.50 183 2.80
  31  0.490  0.653  0.000- 140 2.45  79 2.45 133 2.45
  32  0.365  0.486  0.111- 141 2.45 134 2.45  80 2.45  79 2.45
  33  0.240  0.320  0.221- 142 2.45  81 2.45 135 2.45  80 2.45
  34  0.115  0.153  0.332- 143 2.45 136 2.45  82 2.45  81 2.45
  35  0.990  0.986  0.443- 144 2.45  82 2.45  83 2.45 137 2.45
  36  0.865  0.820  0.553-  83 2.45 138 2.45  84 2.45 212 2.56
  37  0.240  0.986  0.000- 181 2.34  74 2.45  85 2.45 121 2.45
  38  0.115  0.820  0.111-  75 2.45 122 2.45  86 2.45 121 2.45
  39  0.990  0.653  0.221-  76 2.45  87 2.45 123 2.45 122 2.45
  40  0.865  0.486  0.332-  77 2.45  88 2.45 124 2.45 123 2.45
  41  0.740  0.320  0.443- 124 2.45  89 2.45 125 2.45  78 2.45
  42  0.615  0.153  0.553-  90 2.45 126 2.45 125 2.45 194 2.58
  43  0.240  0.320  0.000- 145 2.40  80 2.45  73 2.45 109 2.45
  44  0.115  0.153  0.111-  81 2.45 110 2.45  74 2.45 109 2.45
  45  0.990  0.986  0.221-  75 2.45  82 2.45 111 2.45 110 2.45
  46  0.865  0.820  0.332-  83 2.45 111 2.45  76 2.45 112 2.45
  47  0.740  0.653  0.443- 112 2.45  84 2.45  77 2.45 113 2.45
  48  0.615  0.486  0.553-  78 2.45 114 2.45 113 2.45 195 2.91
  49  0.240  0.653  0.000- 199 2.18  86 2.45  79 2.45 115 2.45
  50  0.115  0.486  0.111-  87 2.45 116 2.45  80 2.45 115 2.45
  51  0.990  0.320  0.221-  81 2.45 117 2.45  88 2.45 116 2.45
  52  0.865  0.153  0.332-  89 2.45  82 2.45 118 2.45 117 2.45
  53  0.740  0.986  0.443- 118 2.45  90 2.45  83 2.45 119 2.45
  54  0.615  0.820  0.553-  84 2.45 120 2.45 119 2.45 177 2.98
  55  0.740  0.986  0.000-  92 2.45 139 2.45 103 2.45 156 3.00
  56  0.615  0.820  0.111-  93 2.45 140 2.45 139 2.45 104 2.45
  57  0.490  0.653  0.221-  94 2.45 141 2.45 140 2.45 105 2.45
  58  0.365  0.486  0.332-  95 2.45 142 2.45 141 2.45 106 2.45
  59  0.240  0.320  0.443-  96 2.45 142 2.45 143 2.45 107 2.45
  60  0.115  0.153  0.553- 182 2.10 144 2.45 143 2.45 108 2.45
[...]
 202  0.808  0.606  0.753- 183 2.32 155 2.32 158 2.33 192 2.33
 203  0.641  0.956  0.800- 156 2.32 184 2.32 159 2.33 187 2.33
 204  0.475  0.306  0.848- 151 2.32 185 2.32 160 2.33  25 2.77
 205  0.641  0.656  0.895- 192 2.32 149 2.33 133 2.43  67 2.46
 206  0.475  0.906  0.658- 159 2.32 196 2.33  18 2.97
 207  0.308  0.256  0.705- 188 2.32 160 2.32 197 2.33
 208  0.141  0.606  0.753- 189 2.32 161 2.32 146 2.33 198 2.33
 209  0.975  0.956  0.800- 162 2.32 190 2.32 147 2.33 193 2.33
 210  0.808  0.306  0.848- 157 2.32 191 2.32 148 2.33  61 2.97
 211  0.975  0.656  0.895-  13 1.90 198 2.32 155 2.33  97 2.97
 212  0.808  0.906  0.658- 147 2.32 184 2.33  36 2.56
 213  0.641  0.256  0.705- 194 2.32 148 2.32 185 2.33
 214  0.475  0.606  0.753- 195 2.32 149 2.32 152 2.33 186 2.33
 215  0.308  0.956  0.800- 150 2.32 196 2.32 153 2.33 181 2.33
 216  0.141  0.306  0.848- 145 2.32 197 2.32 154 2.33 109 3.02

  LATTYP: Found a simple orthorhombic cell.
 ALAT       =    16.0026760100
 B/A-ratio  =     1.0606601112
 C/A-ratio  =     1.1293439305

  Lattice vectors:

 A1 = (  16.0026760100,   0.0000000000,   0.0000000000)
 A2 = (   0.0000000000,  16.9734001160,   0.0000000000)
 A3 = (   0.0000000000,   0.0000000000,  18.0725250240)

Analysis of symmetry for initial positions (statically):
 Subroutine PRICEL returns:
 Original cell was already a primitive cell.

 Routine SETGRP: Setting up the symmetry group for a
 simple orthorhombic supercell.

 Subroutine GETGRP returns: Found  1 space group operations
 (whereof  1 operations were pure point group operations)
 out of a pool of  8 trial point group operations.

The static configuration has the point symmetry C_1 .

Analysis of symmetry for dynamics (positions and initial velocities):
 Subroutine PRICEL returns:
 Original cell was already a primitive cell.

[...]

The dynamic configuration has the point symmetry C_1 .

Analysis of structural, dynamic, and magnetic symmetry:
 Subroutine PRICEL returns:
 Original cell was already a primitive cell.

 Routine SETGRP: Setting up the symmetry group for a
 simple orthorhombic supercell.

 Subroutine GETGRP returns: Found  1 space group operations
 (whereof  1 operations were pure point group operations)
 out of a pool of  8 trial point group operations.

The overall configuration has the point symmetry C_1 .

 Subroutine INISYM returns: Found  1 space group operations
 (whereof  1 operations are pure point group operations),
 and found     1 'primitive' translations

                                     Primitive cell

  volume of cell :    4908.8560

  direct lattice vectors                    reciprocal lattice vectors
    16.002676010  0.000000000  0.000000000     0.062489549  0.000000000  0.000000000
     0.000000000 16.973400116  0.000000000     0.000000000  0.058915715  0.000000000
     0.000000000  0.000000000 18.072525024     0.000000000  0.000000000  0.055332611

  length of vectors
    16.002676010 16.973400116 18.072525024     0.062489549  0.058915715  0.055332611

  position of ions in fractional coordinates (direct lattice)
     0.989689231  0.986252308  0.000000021
     0.864689231  0.819585621  0.110683732
     0.739689231  0.652918935  0.221367493
     0.614689231  0.486252248  0.332051188
     0.489689291  0.319585562  0.442734867
     0.364689231  0.152918875  0.553418636
     0.989689231  0.319585651  0.000000021
     0.864689231  0.152918950  0.110683732
     0.739689231  0.986252248  0.221367493
     0.614689231  0.819585562  0.332051188
     0.489689291  0.652918935  0.442734867
     0.364689231  0.486252189  0.553418636
     0.989689231  0.652918994  0.000000021
     0.864689231  0.486252308  0.110683732
     0.739689231  0.319585592  0.221367493
     0.614689231  0.152918935  0.332051188
     0.489689291  0.986252248  0.442734867
     0.364689231  0.819585562  0.553418636
[...]
     0.000000000  0.000000000 18.072525024     0.000000000  0.000000000  0.055332611

  length of vectors
    16.002676010 16.973400116 18.072525024     0.062489549  0.058915715  0.055332611

 FORCES acting on ions
    electron-ion (+dipol)            ewald-force                    non-local-force                 convergence-correction
   -.593E+01 -.152E+02 -.304E+01   0.577E+01 0.157E+02 0.267E+01   0.774E+00 0.469E+00 -.682E-01   -.174E-04 -.165E-04 0.101E-04
   0.315E+00 0.133E+01 0.279E+01   -.459E+00 -.190E+01 -.237E+01   0.138E+00 0.364E+00 -.360E+00   -.691E-05 -.336E-05 0.213E-06
   0.897E-01 -.184E+00 0.483E+00   0.688E-01 0.137E+00 -.357E+00   -.808E-01 0.300E-01 -.116E+00   -.350E-05 0.210E-06 0.308E-05
   0.104E+00 -.242E+00 -.419E+00   0.174E-01 0.142E+00 0.413E+00   -.567E-01 -.305E-01 0.465E-01   0.866E-06 0.251E-05 0.214E-05
   -.371E+00 0.163E+01 -.293E+01   0.505E+00 -.196E+01 0.276E+01   -.189E+00 0.206E+00 0.279E+00   -.548E-05 0.918E-05 -.135E-05
   0.100E+02 -.119E+02 0.314E+02   -.100E+02 0.117E+02 -.324E+02   -.158E+01 0.432E-01 -.732E+01   -.175E-04 0.143E-04 -.460E-05
   -.759E+01 -.135E+02 0.264E+01   0.744E+01 0.135E+02 -.265E+01   -.535E+00 0.950E+00 -.712E+00   -.476E-05 0.120E-04 0.126E-04
   0.105E+01 0.165E+01 0.270E+01   -.911E+00 -.139E+01 -.322E+01   -.861E-01 -.405E+00 0.423E+00   -.846E-05 0.100E-05 0.132E-04
   -.948E-01 -.124E+00 0.380E+00   0.161E-01 0.132E+00 -.406E+00   0.694E-01 -.121E+00 0.342E-02   -.644E-06 -.397E-05 0.453E-07
   0.836E-01 -.284E+00 -.299E+00   -.664E-02 0.129E+00 0.411E+00   -.336E-01 -.149E-02 -.106E+00   -.103E-05 -.836E-05 -.518E-05
   -.104E+01 0.165E+01 -.232E+01   0.987E+00 -.122E+01 0.297E+01   -.520E-01 -.504E+00 -.563E+00   -.390E-05 -.351E-05 -.279E-05
   0.605E+01 -.168E+02 -.369E+01   -.663E+01 0.173E+02 0.361E+01   0.213E+00 0.323E+00 0.114E+01   -.149E-04 0.161E-05 0.366E-05
   -.475E+01 -.166E+02 -.331E+02   0.559E+01 0.166E+02 0.355E+02   0.662E+00 0.488E+00 0.804E+01   0.225E-05 0.714E-05 0.303E-05
   0.730E+00 0.358E+00 0.307E+01   -.584E+00 -.561E+00 -.276E+01   -.119E+00 0.818E-01 -.350E-01   -.603E-05 0.736E-06 0.107E-04
   0.922E-01 -.236E+00 0.366E+00   -.652E-03 0.129E+00 -.416E+00   -.184E-01 -.182E-01 0.783E-01   -.108E-05 0.486E-05 0.488E-05
   0.496E-01 -.211E+00 -.472E+00   -.594E-01 0.126E+00 0.374E+00   0.427E-01 0.443E-01 0.293E-01   0.138E-05 0.442E-05 -.521E-05
   -.368E+00 0.803E+00 -.174E+01   0.293E+00 -.673E+00 0.221E+01   0.214E+00 -.278E+00 -.470E+00   -.649E-05 -.684E-05 -.127E-04
   0.518E+01 -.175E+02 0.125E+01   -.492E+01 0.172E+02 -.191E+01   0.267E+00 0.105E+01 0.819E+00   -.115E-04 -.153E-04 -.860E-05
   0.587E+01 -.246E+02 -.121E+01   -.678E+01 0.243E+02 0.136E+01   0.164E+00 0.902E+00 -.126E+01   0.706E-05 -.109E-04 0.943E-05
   -.248E+00 0.137E+01 0.358E+01   0.450E+00 -.125E+01 -.384E+01   -.234E+00 -.210E+00 0.158E+00   0.592E-05 -.118E-04 0.395E-05
   -.174E-02 -.148E+00 0.286E+00   -.689E-01 0.130E+00 -.274E+00   0.281E-01 -.972E-01 -.796E-01   0.374E-05 -.161E-05 0.479E-05
   -.125E+00 -.307E+00 -.262E+00   -.174E-01 0.157E+00 0.259E+00   0.427E-01 0.141E-01 0.185E-01   -.131E-05 0.414E-05 0.133E-04
   0.308E+00 0.140E+01 -.313E+01   -.497E+00 -.109E+01 0.360E+01   0.108E+00 -.379E+00 -.366E+00   0.366E-05 0.130E-04 0.557E-05
   -.536E+01 -.164E+02 -.318E+01   0.543E+01 0.165E+02 0.296E+01   -.548E+00 0.436E+00 0.819E+00   0.139E-04 0.114E-04 -.130E-04
   0.813E+01 -.818E+01 -.913E+01   -.786E+01 0.811E+01 0.922E+01   0.167E-01 0.271E+00 -.864E+00   0.484E-05 0.148E-04 0.485E-07
   -.110E+01 0.131E+01 0.169E+01   0.939E+00 -.115E+01 -.208E+01   0.100E+00 -.285E+00 0.328E+00   0.664E-05 0.415E-05 0.103E-04
   0.734E-01 -.253E+00 0.212E+00   -.160E-01 0.163E+00 -.274E+00   -.611E-02 -.457E-01 0.135E-01   0.332E-05 -.527E-05 0.975E-05
   -.114E+00 -.287E-01 -.273E+00   0.655E-02 0.109E+00 0.274E+00   0.436E-01 -.866E-01 0.244E-02   0.199E-05 -.901E-05 0.633E-05
   0.963E+00 0.135E+01 -.256E+01   -.100E+01 -.149E+01 0.234E+01   0.120E-01 -.312E-01 -.126E+00   0.470E-05 -.698E-05 0.859E-05
   -.702E+01 -.241E+02 0.114E+02   0.755E+01 0.242E+02 -.118E+02   0.473E+00 0.116E+01 0.166E+00   0.104E-04 0.737E-06 -.453E-05
   0.276E+01 -.145E+02 0.409E+01   -.267E+01 0.146E+02 -.389E+01   -.949E-01 0.478E+00 -.493E+00   -.473E-06 -.433E-05 0.132E-06
   -.619E+00 0.158E+01 0.312E+01   0.569E+00 -.146E+01 -.351E+01   0.129E+00 -.444E+00 0.315E+00   0.634E-05 0.950E-05 -.403E-06
   -.149E+00 -.701E-02 0.763E-01   0.705E-03 0.105E+00 -.261E+00   0.732E-01 -.978E-01 0.171E+00   0.169E-05 0.690E-05 0.942E-05
   0.426E-01 -.168E+00 -.297E+00   0.596E-01 0.132E+00 0.258E+00   -.424E-01 -.615E-01 0.778E-01   -.352E-06 0.533E-05 0.756E-05
   0.444E+00 0.752E+00 -.445E+01   -.286E+00 -.127E+01 0.391E+01   -.767E-01 0.145E+00 0.427E+00   0.249E-05 -.329E-05 -.192E-05
   -.678E+01 -.586E+01 0.140E+01   0.631E+01 0.585E+01 -.146E+01   -.723E-01 0.563E+00 0.926E+00   0.128E-04 -.153E-04 -.362E-05
   0.105E+01 -.280E+02 -.920E+01   -.281E+00 0.280E+02 0.904E+01   -.312E+00 0.134E+01 0.698E+00   0.127E-04 -.744E-05 0.161E-04
   0.612E+00 0.181E+01 0.303E+01   -.656E+00 -.159E+01 -.351E+01   0.618E-01 -.391E+00 0.284E+00   0.160E-05 -.129E-04 0.109E-04
   -.105E+00 -.268E+00 0.351E+00   0.307E-01 0.139E+00 -.238E+00   -.505E-02 0.592E-01 -.129E+00   0.164E-05 0.116E-06 0.973E-05
   -.443E-01 -.288E+00 -.399E+00   0.646E-01 0.168E+00 0.318E+00   0.608E-03 -.570E-03 0.877E-01   0.264E-05 0.150E-05 0.113E-04
   0.489E+00 0.839E+00 -.328E+01   -.420E+00 -.139E+01 0.272E+01   0.824E-01 0.386E+00 0.459E+00   0.660E-05 0.139E-04 -.185E-05
   0.116E+02 -.132E+02 0.273E+01   -.120E+02 0.132E+02 -.296E+01   -.108E+00 0.505E+00 0.280E+00   -.663E-05 0.135E-04 -.165E-04
   -.450E+01 -.437E+01 -.108E+02   0.473E+01 0.478E+01 0.105E+02   0.198E+00 0.100E+00 0.418E+00   0.131E-04 0.135E-04 0.129E-04
   -.419E+00 0.103E+01 0.371E+01   0.446E+00 -.128E+01 -.364E+01   -.589E-01 0.277E-01 0.537E-01   -.260E-07 0.217E-05 0.196E-04
   -.733E-01 -.121E+00 0.104E+00   0.569E-01 0.124E+00 -.316E+00   0.842E-01 -.136E+00 0.195E+00   -.323E-05 -.415E-05 0.968E-05
   -.149E-01 -.196E+00 -.417E+00   0.578E-01 0.923E-01 0.355E+00   -.694E-02 0.802E-01 -.324E-01   0.124E-05 -.659E-05 0.181E-05
   -.143E+00 0.157E+01 -.133E+01   0.238E+00 -.142E+01 0.152E+01   -.130E+00 -.132E+00 -.372E+00   0.585E-05 -.679E-05 -.150E-05
   -.634E+01 -.166E+02 -.102E+01   0.611E+01 0.167E+02 0.146E+01   0.143E+00 0.655E+00 0.729E+00   0.290E-05 -.115E-06 -.677E-05
   0.167E+02 -.140E+02 -.157E+02   -.169E+02 0.141E+02 0.152E+02   -.988E+00 0.524E-01 0.221E+01   0.121E-04 -.487E-05 0.257E-06
   0.275E+00 0.782E+00 0.366E+01   -.345E+00 -.989E+00 -.370E+01   0.940E-01 -.496E-01 0.550E-01   0.648E-05 0.647E-05 0.926E-05
   -.739E-01 0.117E-01 0.348E+00   0.653E-01 0.135E+00 -.338E+00   -.239E-01 -.121E+00 -.624E-02   -.159E-05 0.516E-05 0.132E-04
   -.795E-01 0.118E-01 -.342E+00   0.452E-01 0.138E+00 0.381E+00   0.950E-02 -.207E+00 -.288E-01   0.203E-05 0.541E-05 0.991E-06
   0.699E+00 0.968E+00 -.278E+01   -.786E+00 -.104E+01 0.285E+01   -.557E-01 -.181E+00 -.149E+00   0.692E-05 -.528E-05 -.123E-04
   0.397E+00 -.171E+02 -.198E+01   -.823E+00 0.166E+02 0.201E+01   -.112E+00 0.560E+00 0.124E+01   0.120E-05 -.149E-04 -.106E-04
   -.135E+01 -.132E+02 0.151E+01   0.131E+01 0.138E+02 -.206E+01   -.913E-01 0.350E+00 -.724E+00   -.743E-06 -.161E-04 0.285E-05
   -.768E+00 0.113E+01 0.301E+01   0.664E+00 -.156E+01 -.272E+01   0.361E-02 0.227E+00 -.269E+00   -.357E-06 -.711E-05 -.294E-05
   0.541E-01 0.337E-01 0.349E+00   -.305E-01 0.128E+00 -.393E+00   -.147E-01 -.174E+00 -.941E-02   -.193E-05 -.127E-05 -.275E-05
   0.387E-01 -.158E+00 -.274E+00   -.645E-01 0.131E+00 0.355E+00   0.448E-03 -.990E-01 -.263E-01   -.221E-05 0.381E-05 0.280E-05
   -.435E+00 0.170E+01 -.345E+01   0.411E+00 -.165E+01 0.366E+01   -.275E-02 -.158E+00 -.682E-01   -.517E-05 0.841E-05 0.849E-05
   -.160E+02 -.148E+02 0.202E+02   0.164E+02 0.150E+02 -.202E+02   0.177E+01 0.251E+00 -.359E+01   0.688E-05 0.114E-04 -.116E-04
[...]
   0.652E-01 -.103E+01 -.790E+00   -.514E-01 0.141E+01 0.274E+00   -.103E+00 -.760E-02 0.312E+00   0.117E-04 -.189E-04 0.184E-04
   0.179E+02 0.640E+01 -.170E+02   -.163E+02 -.519E+01 0.158E+02   -.166E+01 -.968E+00 0.111E+01   0.353E-06 0.176E-04 0.536E-05
   0.436E+01 -.282E+02 -.101E+02   -.340E+01 0.265E+02 0.799E+01   -.387E+00 0.175E+01 0.183E+01   -.318E-05 0.407E-05 0.175E-04
   -.102E+01 0.226E+00 0.341E+02   0.160E+01 0.289E+00 -.325E+02   -.385E+00 -.708E+00 -.240E+01   -.108E-04 -.169E-04 -.811E-05
   0.180E+02 -.121E+02 0.320E+02   -.164E+02 0.109E+02 -.315E+02   -.173E+01 0.135E+01 -.488E+00   -.397E-05 0.156E-04 -.233E-04
   0.418E+00 0.267E-01 0.844E+01   0.149E-01 -.453E+00 -.832E+01   -.163E+00 0.106E+00 -.405E-01   0.183E-05 -.444E-05 -.208E-04
   0.117E+01 -.770E-01 -.614E+00   -.393E-01 0.959E+00 0.141E+00   -.116E+01 -.524E+00 0.712E+00   -.168E-04 -.292E-04 -.355E-05
   0.165E+02 0.557E+01 -.200E+02   -.150E+02 -.407E+01 0.173E+02   -.236E+01 -.125E+01 0.334E+01   -.894E-05 0.130E-04 0.208E-05
   0.362E+01 -.224E+02 0.105E+02   -.333E+01 0.210E+02 -.106E+02   -.164E+01 0.183E+01 -.106E+02   -.196E-05 0.110E-04 -.906E-05
   0.257E+01 -.254E+01 0.302E+02   -.335E+01 0.414E+01 -.287E+02   0.117E+01 -.147E+01 -.222E+01   0.122E-04 -.187E-04 -.181E-05
   0.165E+02 -.120E+02 0.333E+02   -.156E+02 0.114E+02 -.311E+02   -.127E+01 0.607E+00 -.268E+01   -.914E-05 0.231E-04 -.244E-05
   -.558E+00 0.131E+01 0.742E+01   0.462E-02 -.841E+00 -.836E+01   0.688E+00 -.485E+00 0.974E+00   -.104E-04 -.427E-05 0.240E-05
   0.110E+00 -.133E+01 0.509E+00   0.733E-01 0.124E+01 0.232E+00   0.146E+00 0.374E+00 -.840E+00   0.502E-05 -.935E-05 -.696E-05
   0.187E+02 0.490E+01 -.200E+02   -.164E+02 -.339E+01 0.179E+02   -.255E+01 -.136E+01 0.213E+01   0.394E-05 0.135E-04 -.156E-04
   0.630E+01 -.126E+00 0.622E+00   -.639E-13 -.469E-12 -.191E-11   -.610E+01 0.145E+00 -.689E+00   -.100E-04 0.760E-05 -.187E-04

 POSITION                                       TOTAL-FORCE (eV/Angst)
     15.83768     16.74006      0.00000         0.614039      1.006361     -0.437732
     13.83734     13.91115      2.00033        -0.006728     -0.209384      0.059639
     11.83701     11.08225      4.00067         0.076808     -0.017397      0.009525
      9.83667      8.25335      6.00100         0.063510     -0.130270      0.040955
      7.83634      5.42445      8.00134        -0.054536     -0.128513      0.103669
      5.83600      2.59555     10.00167        -1.595575     -0.188450     -8.390689
     15.83768      5.42446      0.00000        -0.683014      1.010316     -0.724430
     13.83734      2.59555      2.00033         0.052584     -0.138517     -0.087002
     11.83701     16.74005      4.00067        -0.010239     -0.113328     -0.022523
      9.83667     13.91115      6.00100         0.042481     -0.156704      0.005790
      7.83634     11.08225      8.00134        -0.101808     -0.072088      0.094114
      5.83600      8.25335     10.00167        -0.363085      0.870412      1.062695
     15.83768     11.08226      0.00000         1.505570      0.451011     10.423741
     13.83734      8.25335      2.00033         0.025683     -0.121646      0.269865
     11.83701      5.42445      4.00067         0.072246     -0.125494      0.028964
      9.83667      2.59555      6.00100         0.032047     -0.039973     -0.068442
      7.83634     16.74005      8.00134         0.138372     -0.148123      0.001536
      5.83600     13.91115     10.00167         0.528713      0.750222      0.166349
      7.83634     16.74006      0.00000        -0.748209      0.553074     -1.104572
      5.83600     13.91115      2.00033        -0.032017     -0.093098     -0.109388
      3.83567     11.08225      4.00067        -0.043475     -0.116000     -0.067977
      1.83533      8.25335      6.00100        -0.101036     -0.135742      0.016444
     15.83768      5.42445      8.00134        -0.081428     -0.068824      0.103157
     13.83734      2.59555     10.00167        -0.480164      0.611686      0.595218
      7.83634      5.42446      0.00000         0.289583      0.203689     -0.772154
      5.83600      2.59555      2.00033        -0.065445     -0.118863     -0.054679
      3.83567     16.74005      4.00067         0.050312     -0.135375     -0.048349
      1.83533     13.91115      6.00100        -0.064743     -0.006192      0.004391
     15.83768     11.08225      8.00134        -0.030481     -0.169671     -0.338895
     13.83734      8.25335     10.00167         1.003961      1.294107     -0.252365
      7.83634     11.08226      0.00000        -0.005814      0.624272     -0.296429
      5.83600      8.25335      2.00033         0.077618     -0.328350     -0.079938
      3.83567      5.42445      4.00067        -0.075916      0.000190     -0.012956
      1.83533      2.59555      6.00100         0.058820     -0.097855      0.038883
     15.83768     16.74005      8.00134         0.080162     -0.373752     -0.115996
     13.83734     13.91115     10.00167        -0.547973      0.558811      0.872954
      3.83567     16.74006      0.00000         0.459520      1.379634      0.538021
      1.83533     13.91115      2.00033         0.017446     -0.169741     -0.199200
     15.83768     11.08225      4.00067        -0.079856     -0.070255     -0.015770
     13.83734      8.25335      6.00100         0.019957     -0.121342      0.006915
     11.83701      5.42445      8.00134         0.150139     -0.165588     -0.099870
      9.83667      2.59555     10.00167        -0.518760      0.543235      0.050797
      3.83567      5.42446      0.00000         0.424165      0.514067      0.070963
      1.83533      2.59555      2.00033        -0.032828     -0.225299      0.127394
     15.83768     16.74005      4.00067         0.066920     -0.133584     -0.016600
     13.83734     13.91115      6.00100         0.035085     -0.023162     -0.094442
     11.83701     11.08225      8.00134        -0.035508      0.019720     -0.176792
      9.83667      8.25335     10.00167        -0.084165      0.761081      1.171361
      3.83567     11.08226      0.00000        -1.193651      0.218630      1.677195
      1.83533      8.25335      2.00033         0.023436     -0.257036      0.016337
     15.83768      5.42445      4.00067        -0.033371      0.025354      0.003805
     13.83734      2.59555      6.00100        -0.025710     -0.057485      0.010157
     11.83701     16.74005      8.00134        -0.143304     -0.255890     -0.081962
      9.83667     13.91115     10.00167        -0.538836      0.080410      1.271161
     11.83701     16.74006      0.00000        -0.127484      0.875912     -1.273047
      9.83667     13.91115      2.00033        -0.101205     -0.205912      0.028721
      7.83634     11.08225      4.00067         0.007984     -0.012954     -0.053072
      5.83600      8.25335      6.00100        -0.026314     -0.126434      0.055131
      3.83567      5.42445      8.00134        -0.028030     -0.109869      0.144383
      1.83533      2.59555     10.00167         2.239967      0.455660     -3.595622
[...]
     12.93099     10.28734     13.60774        -0.106924     -0.204435     -0.149005
     10.26388     16.22803     14.46646        -0.090283      0.370579     -0.203770
      7.59677      5.19533     15.32518        -0.071035      0.240104     -0.014600
     10.26388     11.13602     16.18389         0.567081     -0.009863     -0.300720
      7.59677     15.37935     11.89031         0.195314     -0.192924     -0.773281
      4.92966      4.34664     12.74902        -0.106711      0.150165      0.076443
      2.26254     10.28734     13.60774         0.269448     -0.320801      0.078859
     15.59811     16.22803     14.46646        -0.024443      0.357314      0.239215
     12.93099      5.19533     15.32518        -0.821049      0.256347      0.599877
     15.59811     11.13602     16.18389        -1.343929      0.473718    -10.694955
     12.93100     15.37935     11.89031         0.389109      0.129918     -0.660586
     10.26388      4.34664     12.74902        -0.393623      0.001763     -0.507701
      7.59677     10.28734     13.60774         0.133256     -0.015511      0.030986
      4.92965     16.22803     14.46646         0.328016      0.284717     -0.098452
      2.26254      5.19533     15.32518        -0.281642      0.150043      0.083806
    total drift:                                0.200910      0.018933     -0.067713

  FREE ENERGIE OF THE ION-ELECTRON SYSTEM (eV)
  free  energy   TOTEN  =      -960.63321710 eV

  energy  without entropy=     -960.62948493  energy(sigma->0) =     -960.63135101