 vasp.6.4.3 19Mar24 (build Nov 20 2024 16:33:01) complex
 executed on             LinuxGNU date 2025.06.03  21:49:13

 INCAR:
   SYSTEM = Si and Ge interface calculation
   ISTART = 0
   ICHARG = 2
   LWAVE = .FALSE.
   LREAL = AUTO
   ENCUT = 700
   ENAUG = 900
   ADDGRID = .TRUE.
   LMAXMIX = 6
   LASPH = .TRUE.
   LMIXTAU = .TRUE.
   NCORE = 16
   NELM = 100
   NBANDS = 20
   EDIFF = 1d-7
   AMIX = 0.6
   ISMEAR = 0
   SIGMA = 0.01
   NELECT = 32
   ISPIN = 2
   NUPDOWN = 1
   LVTOT = .FALSE.
   LVHAR = .TRUE.

 POTCAR:    PAW_PBE C 08Apr2002
|           W    W    AA    RRRRR   N    N  II  N    N   GGGG   !!!           |
|           W    W   A  A   R    R  NN   N  II  NN   N  G    G  !!!           |
|           W    W  A    A  R    R  N N  N  II  N N  N  G       !!!           |
|           W WW W  AAAAAA  RRRRR   N  N N  II  N  N N  G  GGG   !            |
|           WW  WW  A    A  R   R   N   NN  II  N   NN  G    G                |
|           W    W  A    A  R    R  N    N  II  N    N   GGGG   !!!           |
|     You use a magnetic or noncollinear calculation, but did not specify     |
|     the initial magnetic moment with the MAGMOM tag. Note that a            |
|     default of 0.125 will be used for all atoms. This ferromagnetic         |
|     setup may break the symmetry of the crystal, in particular it may       |
|     rule out finding an antiferromagnetic solution. Thence, we              |
|     recommend setting the initial magnetic moment manually or verifying     |
|     carefully that this magnetic setup is desired.                          |

 POTCAR:    PAW_PBE C 08Apr2002
   VRHFIN =C: s2p2

   TITEL  = PAW_PBE C 08Apr2002
   POMASS =   12.011; ZVAL   =    4.000    mass and valenz
   ENMAX  =  400.000; ENMIN  =  300.000 eV

 Optimization of the real space projectors (new method)

 maximal supplied QI-value         = 25.13
 optimisation between [QCUT,QGAM] = [ 13.32, 26.89] = [ 49.69,202.52] Ry
 Optimized for a Real-space Cutoff    1.01 Angstroem

   l    n(q)    QCUT    max X(q) W(low)/X(q) W(high)/X(q)  e(spline)
   0      8    13.321   115.676    0.29E-03    0.42E-03    0.11E-06
   0      8    13.321    87.132    0.29E-03    0.42E-03    0.11E-06
   1      8    13.321     4.429    0.39E-03    0.33E-03    0.98E-07
   1      8    13.321     2.733    0.30E-03    0.26E-03    0.97E-07
  PAW_PBE C 08Apr2002                   :

 POSCAR: C
  positions in direct lattice

 exchange-correlation table for PE
   RHO(1)=    0.500       N(1)  =     2000
   RHO(2)=  100.500       N(2)  =     4000

 ion  position               nearest neighbor table
   1  0.000  0.000  0.000-   2 1.55   4 1.55   6 1.55   8 1.55
   2  0.250  0.250  0.250-   1 1.55   3 1.55   5 1.55   7 1.55
   3  0.000  0.500  0.500-   2 1.55   4 1.55   6 1.55   8 1.55
   4  0.250  0.750  0.750-   1 1.55   3 1.55   5 1.55   7 1.55
   5  0.500  0.000  0.500-   2 1.55   4 1.55   6 1.55   8 1.55
   6  0.750  0.250  0.750-   1 1.55   3 1.55   5 1.55   7 1.55
   7  0.500  0.500  0.000-   2 1.55   4 1.55   6 1.55   8 1.55
   8  0.750  0.750  0.250-   1 1.55   3 1.55   5 1.55   7 1.55

  LATTYP: Found a simple cubic cell.
 ALAT       =     3.5700000000

  Lattice vectors:

 A1 = (   3.5700000000,   0.0000000000,   0.0000000000)
 A2 = (   0.0000000000,   3.5700000000,   0.0000000000)
 A3 = (   0.0000000000,   0.0000000000,   3.5700000000)

Analysis of symmetry for initial positions (statically):
 Subroutine PRICEL returns following result:

  LATTYP: Found a face centered cubic cell.
 ALAT       =     3.5700000000

[...]

   4 primitive cells build up your supercell.

 Routine SETGRP: Setting up the symmetry group for a
 simple cubic supercell.

 Subroutine GETGRP returns: Found 48 space group operations
 (whereof 24 operations were pure point group operations)
 out of a pool of 48 trial point group operations.

The static configuration has the point symmetry T_d .
 The point group associated with its full space group is O_h .

Analysis of symmetry for dynamics (positions and initial velocities):
 Subroutine PRICEL returns following result:

[...]

The dynamic configuration has the point symmetry T_d .
 The point group associated with its full space group is O_h .

Analysis of structural, dynamic, and magnetic symmetry:
 Subroutine PRICEL returns following result:

  LATTYP: Found a face centered cubic cell.
 ALAT       =     3.5700000000

  Lattice vectors:

 A1 = (   1.7850000000,  -1.7850000000,   0.0000000000)
 A2 = (   1.7850000000,   0.0000000000,   1.7850000000)
 A3 = (   0.0000000000,  -1.7850000000,   1.7850000000)

   4 primitive cells build up your supercell.

 Routine SETGRP: Setting up the symmetry group for a
 simple cubic supercell.

 Subroutine GETGRP returns: Found 48 space group operations
 (whereof 24 operations were pure point group operations)
 out of a pool of 48 trial point group operations.

The overall configuration has the point symmetry T_d .
 The point group associated with its full space group is O_h .

 Subroutine INISYM returns: Found 48 space group operations
 (whereof 24 operations are pure point group operations),
 and found     4 'primitive' translations

                                     Primitive cell

  volume of cell :      11.3748

  direct lattice vectors                    reciprocal lattice vectors
     1.785000000 -1.785000000  0.000000000     0.280112045 -0.280112045 -0.280112045
     1.785000000  0.000000000  1.785000000     0.280112045  0.280112045  0.280112045
     0.000000000 -1.785000000  1.785000000    -0.280112045 -0.280112045  0.280112045

  length of vectors
     2.524371209  2.524371209  2.524371209     0.485168293  0.485168293  0.485168293

  position of ions in fractional coordinates (direct lattice)
     0.000000000  0.000000000  0.000000000
     0.750000000  0.750000000  0.750000000

  ion indices of the primitive-cell ions
   primitive index   ion index
                 1           1
                 2           2

 KPOINTS: Automatic KPOINTS generated

Automatic generation of k-mesh.
 Grid dimensions read from file:
 generate k-points for:    9    9    9

 Generating k-lattice:

  Cartesian coordinates                     Fractional coordinates (reciprocal lattice)
     0.031123561  0.000000000  0.000000000     0.111111111  0.000000000  0.000000000
     0.000000000  0.031123561  0.000000000     0.000000000  0.111111111  0.000000000
     0.000000000  0.000000000  0.031123561     0.000000000  0.000000000  0.111111111

  Length of vectors
     0.031123561  0.031123561  0.031123561

  Shift w.r.t. Gamma in fractional coordinates (k-lattice)
     0.000000000  0.000000000  0.000000000

 Subroutine IBZKPT returns following result:

 Found     35 irreducible k-points:

 Following reciprocal coordinates:
            Coordinates               Weight
  0.000000  0.000000  0.000000      1.000000
  0.111111  0.000000  0.000000      6.000000
  0.222222  0.000000  0.000000      6.000000
  0.333333  0.000000  0.000000      6.000000
  0.444444  0.000000  0.000000      6.000000
  0.111111  0.111111  0.000000     12.000000
  0.222222  0.111111  0.000000     24.000000
  0.333333  0.111111  0.000000     24.000000
  0.444444  0.111111  0.000000     24.000000
  0.222222  0.222222  0.000000     12.000000
  0.333333  0.222222  0.000000     24.000000
  0.444444  0.222222  0.000000     24.000000
  0.333333  0.333333  0.000000     12.000000
  0.444444  0.333333  0.000000     24.000000
  0.444444  0.444444  0.000000     12.000000
  0.111111  0.111111  0.111111      8.000000
  0.222222  0.111111  0.111111     24.000000
  0.333333  0.111111  0.111111     24.000000
  0.444444  0.111111  0.111111     24.000000
  0.222222  0.222222  0.111111     24.000000
  0.333333  0.222222  0.111111     48.000000
  0.444444  0.222222  0.111111     48.000000
  0.333333  0.333333  0.111111     24.000000
  0.444444  0.333333  0.111111     48.000000
  0.444444  0.444444  0.111111     24.000000
  0.222222  0.222222  0.222222      8.000000
  0.333333  0.222222  0.222222     24.000000
  0.444444  0.222222  0.222222     24.000000
  0.333333  0.333333  0.222222     24.000000
  0.444444  0.333333  0.222222     48.000000
  0.444444  0.444444  0.222222     24.000000
  0.333333  0.333333  0.333333      8.000000
  0.444444  0.333333  0.333333     24.000000
  0.444444  0.444444  0.333333     24.000000
  0.444444  0.444444  0.444444      8.000000

 Following cartesian coordinates:
            Coordinates               Weight
  0.000000  0.000000  0.000000      1.000000
  0.031124  0.000000  0.000000      6.000000
  0.062247  0.000000  0.000000      6.000000
  0.093371  0.000000  0.000000      6.000000
  0.124494  0.000000  0.000000      6.000000
  0.031124  0.031124  0.000000     12.000000
  0.062247  0.031124  0.000000     24.000000
  0.093371  0.031124  0.000000     24.000000
  0.124494  0.031124  0.000000     24.000000
  0.062247  0.062247  0.000000     12.000000
  0.093371  0.062247  0.000000     24.000000
  0.124494  0.062247  0.000000     24.000000
  0.093371  0.093371  0.000000     12.000000
  0.124494  0.093371  0.000000     24.000000
  0.124494  0.124494  0.000000     12.000000
  0.031124  0.031124  0.031124      8.000000
  0.062247  0.031124  0.031124     24.000000
  0.093371  0.031124  0.031124     24.000000
  0.124494  0.031124  0.031124     24.000000
  0.062247  0.062247  0.031124     24.000000
  0.093371  0.062247  0.031124     48.000000
  0.124494  0.062247  0.031124     48.000000
  0.093371  0.093371  0.031124     24.000000
  0.124494  0.093371  0.031124     48.000000
  0.124494  0.124494  0.031124     24.000000
  0.062247  0.062247  0.062247      8.000000
  0.093371  0.062247  0.062247     24.000000
  0.124494  0.062247  0.062247     24.000000
  0.093371  0.093371  0.062247     24.000000
  0.124494  0.093371  0.062247     48.000000
  0.124494  0.124494  0.062247     24.000000
  0.093371  0.093371  0.093371      8.000000
  0.124494  0.093371  0.093371     24.000000
  0.124494  0.124494  0.093371     24.000000
  0.124494  0.124494  0.124494      8.000000

 SYSTEM =  Si and Ge interface calculation
 POSCAR =  C

 Startparameter for this run:
   NWRITE =      2    write-flag & timer
   PREC   = normal    normal or accurate (medium, high low for compatibility)
   ISTART =      0    job   : 0-new  1-cont  2-samecut
   ICHARG =      2    charge: 1-file 2-atom 10-const
   ISPIN  =      2    spin polarized calculation?
   LNONCOLLINEAR =      F non collinear calculations
   LSORBIT =      F    spin-orbit coupling
   INIWAV =      1    electr: 0-lowe 1-rand  2-diag
   LASPH  =      T    aspherical Exc in radial PAW
 Electronic Relaxation 1
   ENCUT  =  700.0 eV  51.45 Ry    7.17 a.u.   7.70  7.70  7.70*2*pi/ulx,y,z
   ENINI  =  700.0     initial cutoff
   ENAUG  =  900.0 eV  augmentation charge cutoff
   NELM   =    100;   NELMIN=  2; NELMDL= -5     # of ELM steps
   EDIFF  = 0.1E-06   stopping-criterion for ELM
   LREAL  =      T    real-space projection
   NLSPLINE    = F    spline interpolate recip. space projectors
   LCOMPAT=      F    compatible to vasp.4.4
   GGA_COMPAT  = T    GGA compatible to vasp.4.4-vasp.4.6
   LMAXPAW     = -100 max onsite density
   LMAXMIX     =    6 max onsite mixed and CHGCAR
[...]
   0.12449424  0.09337068  0.03112356       0.066
   0.12449424  0.12449424  0.03112356       0.033
   0.06224712  0.06224712  0.06224712       0.011
   0.09337068  0.06224712  0.06224712       0.033
   0.12449424  0.06224712  0.06224712       0.033
   0.09337068  0.09337068  0.06224712       0.033
   0.12449424  0.09337068  0.06224712       0.066
   0.12449424  0.12449424  0.06224712       0.033
   0.09337068  0.09337068  0.09337068       0.011
   0.12449424  0.09337068  0.09337068       0.033
   0.12449424  0.12449424  0.09337068       0.033
   0.12449424  0.12449424  0.12449424       0.011

 k-points in reciprocal lattice and weights: Automatic KPOINTS generated
   0.00000000  0.00000000  0.00000000       0.001
   0.11111111  0.00000000  0.00000000       0.008
   0.22222222  0.00000000  0.00000000       0.008
   0.33333333  0.00000000  0.00000000       0.008
   0.44444444  0.00000000  0.00000000       0.008
   0.11111111  0.11111111  0.00000000       0.016
   0.22222222  0.11111111  0.00000000       0.033
   0.33333333  0.11111111  0.00000000       0.033
   0.44444444  0.11111111  0.00000000       0.033
   0.22222222  0.22222222  0.00000000       0.016
   0.33333333  0.22222222  0.00000000       0.033
   0.44444444  0.22222222  0.00000000       0.033
   0.33333333  0.33333333  0.00000000       0.016
   0.44444444  0.33333333  0.00000000       0.033
   0.44444444  0.44444444  0.00000000       0.016
   0.11111111  0.11111111  0.11111111       0.011
   0.22222222  0.11111111  0.11111111       0.033
   0.33333333  0.11111111  0.11111111       0.033
   0.44444444  0.11111111  0.11111111       0.033
   0.22222222  0.22222222  0.11111111       0.033
   0.33333333  0.22222222  0.11111111       0.066
   0.44444444  0.22222222  0.11111111       0.066
   0.33333333  0.33333333  0.11111111       0.033
   0.44444444  0.33333333  0.11111111       0.066
   0.44444444  0.44444444  0.11111111       0.033
   0.22222222  0.22222222  0.22222222       0.011
   0.33333333  0.22222222  0.22222222       0.033
   0.44444444  0.22222222  0.22222222       0.033
   0.33333333  0.33333333  0.22222222       0.033
   0.44444444  0.33333333  0.22222222       0.066
   0.44444444  0.44444444  0.22222222       0.033
   0.33333333  0.33333333  0.33333333       0.011
   0.44444444  0.33333333  0.33333333       0.033
   0.44444444  0.44444444  0.33333333       0.033
   0.44444444  0.44444444  0.44444444       0.011

 position of ions in fractional coordinates (direct lattice)
   0.00000000  0.00000000  0.00000000
   0.25000000  0.25000000  0.25000000
   0.00000000  0.50000000  0.50000000
   0.25000000  0.75000000  0.75000000
   0.50000000  0.00000000  0.50000000
   0.75000000  0.25000000  0.75000000
   0.50000000  0.50000000  0.00000000
   0.75000000  0.75000000  0.25000000

 position of ions in cartesian coordinates  (Angst):
   0.00000000  0.00000000  0.00000000
   0.89250000  0.89250000  0.89250000
   0.00000000  1.78500000  1.78500000
   0.89250000  2.67750000  2.67750000
   1.78500000  0.00000000  1.78500000
   2.67750000  0.89250000  2.67750000
   1.78500000  1.78500000  0.00000000
   2.67750000  2.67750000  0.89250000

 k-point     1 :   0.0000 0.0000 0.0000  plane waves:    1935
 k-point     2 :   0.1111 0.0000 0.0000  plane waves:    1903
 k-point     3 :   0.2222 0.0000 0.0000  plane waves:    1919
 k-point     4 :   0.3333 0.0000 0.0000  plane waves:    1924
 k-point     5 :   0.4444 0.0000 0.0000  plane waves:    1912
 k-point     6 :   0.1111 0.1111 0.0000  plane waves:    1905
 k-point     7 :   0.2222 0.1111 0.0000  plane waves:    1916
 k-point     8 :   0.3333 0.1111 0.0000  plane waves:    1923
 k-point     9 :   0.4444 0.1111 0.0000  plane waves:    1908
 k-point    10 :   0.2222 0.2222 0.0000  plane waves:    1905
 k-point    11 :   0.3333 0.2222 0.0000  plane waves:    1920
 k-point    12 :   0.4444 0.2222 0.0000  plane waves:    1914
 k-point    13 :   0.3333 0.3333 0.0000  plane waves:    1915
 k-point    14 :   0.4444 0.3333 0.0000  plane waves:    1917
 k-point    15 :   0.4444 0.4444 0.0000  plane waves:    1927
 k-point    16 :   0.1111 0.1111 0.1111  plane waves:    1899
 k-point    17 :   0.2222 0.1111 0.1111  plane waves:    1921
 k-point    18 :   0.3333 0.1111 0.1111  plane waves:    1914
 k-point    19 :   0.4444 0.1111 0.1111  plane waves:    1918
 k-point    20 :   0.2222 0.2222 0.1111  plane waves:    1910
 k-point    21 :   0.3333 0.2222 0.1111  plane waves:    1914
 k-point    22 :   0.4444 0.2222 0.1111  plane waves:    1910
 k-point    23 :   0.3333 0.3333 0.1111  plane waves:    1920
 k-point    24 :   0.4444 0.3333 0.1111  plane waves:    1908
 k-point    25 :   0.4444 0.4444 0.1111  plane waves:    1928
 k-point    26 :   0.2222 0.2222 0.2222  plane waves:    1899
 k-point    27 :   0.3333 0.2222 0.2222  plane waves:    1904
 k-point    28 :   0.4444 0.2222 0.2222  plane waves:    1920
 k-point    29 :   0.3333 0.3333 0.2222  plane waves:    1910
 k-point    30 :   0.4444 0.3333 0.2222  plane waves:    1909
 k-point    31 :   0.4444 0.4444 0.2222  plane waves:    1907
 k-point    32 :   0.3333 0.3333 0.3333  plane waves:    1896
 k-point    33 :   0.4444 0.3333 0.3333  plane waves:    1905
 k-point    34 :   0.4444 0.4444 0.3333  plane waves:    1908
 k-point    35 :   0.4444 0.4444 0.4444  plane waves:    1881

 maximum and minimum number of plane-waves per node :      1935     1881

 maximum number of plane-waves:      1935
 maximum index in each direction:
   IXMAX=    7   IYMAX=    7   IZMAX=    7
   IXMIN=   -8   IYMIN=   -8   IZMIN=   -8

 serial   3D FFT for wavefunctions
 parallel 3D FFT for charge:
    minimum data exchange during FFTs selected (reduces bandwidth)

 Broyden mixing: mesh for mixing (old mesh)
   NGX = 15   NGY = 15   NGZ = 15
  (NGX  = 48   NGY  = 48   NGZ  = 48)
  gives a total of   3375 points

 initial charge density was supplied:
 charge density of overlapping atoms calculated
 number of electron      32.0000000 magnetization       1.0000000
 keeping initial charge density in first step

 Maximum index for non-local projection operator          274
 Maximum index for augmentation-charges        27825 (set IRDMAX)

 First call to EWALD:  gamma=   0.496
 Maximum number of real-space cells 3x 3x 3
 Maximum number of reciprocal cells 3x 3x 3

--------------------------------------- Ionic step        1  -------------------------------------------

--------------------------------------- Iteration      1(   1)  ---------------------------------------

 eigenvalue-minimisations  :  2800
 total energy-change (2. order) : 0.1257783E+03  (-0.2080066E+04)
 number of electron      32.0000000 magnetization       1.0000000
 augmentation part       32.0000000 magnetization       1.0000000

 Free energy of the ion-electron system (eV)
  alpha Z        PSCENC =       115.54882455
  Ewald energy   TEWEN  =     -1390.58821841
  -Hartree energ DENC   =       -70.69423182
  -exchange      EXHF   =         0.00000000
  -V(xc)+E(xc)   XCENC  =       109.57431809
  PAW double counting   =       868.16039942     -872.71459486
  entropy T*S    EENTRO =        -0.00015950
  eigenvalues    EBANDS =       189.26992762
  atomic energy  EATOM  =      1177.22206133
  Solvation  Ediel_sol  =         0.00000000
  free energy    TOTEN  =       125.77832641 eV

  energy without entropy =      125.77848591  energy(sigma->0) =      125.77840616

[...]

 eigenvalue-minimisations  :  4008
 total energy-change (2. order) :-0.1914949E+03  (-0.1854607E+03)
 number of electron      32.0000000 magnetization       1.0000000
 augmentation part       32.0000000 magnetization       1.0000000

[...]

 Broyden mixing:
  rms(total) = 0.10602E+01    rms(broyden)= 0.10602E+01
  rms(prec ) = 0.21931E+01
  weight for this iteration     100.00

[...]

 eigenvalues of (default mixing * dielectric matrix)
  average eigenvalue GAMMA=   1.4977
  1.4977

[...]

 eigenvalue-minimisations  :  3240
 total energy-change (2. order) : 0.1361763E-01  (-0.1215458E-01)
 number of electron      31.9999999 magnetization       1.0000000
 augmentation part        0.7222941 magnetization       0.0463587

[...]

 Broyden mixing:
  rms(total) = 0.25028E-04    rms(broyden)= 0.25027E-04
  rms(prec ) = 0.25496E-04
  weight for this iteration     100.00

 eigenvalues of (default mixing * dielectric matrix)
  average eigenvalue GAMMA=   1.0078
  2.0051  1.6825  1.6532  1.3585  0.9449  0.5746  0.4889  0.4889  0.4552  0.4259

[...]

--------------------------------------- Iteration      1(  16)  ---------------------------------------

 eigenvalue-minimisations  :  2024
 total energy-change (2. order) :-0.5190145E-07  (-0.4815565E-07)
 number of electron      31.9999999 magnetization       1.0000000
 augmentation part        0.7218893 magnetization       0.0431722

 Free energy of the ion-electron system (eV)
  alpha Z        PSCENC =       115.54882455
  Ewald energy   TEWEN  =     -1390.58821841
  -Hartree energ DENC   =      -103.27316409
  -exchange      EXHF   =         0.00000000
  -V(xc)+E(xc)   XCENC  =       112.55093834
  PAW double counting   =      2982.66104210    -2987.94498871
  entropy T*S    EENTRO =        -0.00017855
  eigenvalues    EBANDS =        24.01761404
  atomic energy  EATOM  =      1177.22206133
  Solvation  Ediel_sol  =         0.00000000
  free energy    TOTEN  =       -69.80606939 eV

  energy without entropy =      -69.80589084  energy(sigma->0) =      -69.80598012

 average (electrostatic) potential at core
  the test charge radii are     0.6991
  (the norm of the test charge is              1.0000)
       1 -45.5809       2 -45.5809       3 -45.5809       4 -45.5809       5 -45.5809
       6 -45.5809       7 -45.5809       8 -45.5809

 E-fermi :   8.0761     XC(G=0): -13.2763     alpha+bet :-17.6219

 val. band max:       15.0753339702   @ k =   0.2222   0.2222   0.1111
 cond. band min:       8.0804029336   @ k =   0.3333   0.1111   0.1111
 fundamental gap:     -6.9949310367
 Fermi energy:        15.0754449674

 spin component 1

 k-point     1 :       0.0000    0.0000    0.0000
  band No.  band energies     occupation
      1     -11.9165      1.00000
      2      -3.2336      1.00000
      3      -3.2336      1.00000
      4      -3.2336      1.00000
      5      -3.2336      1.00000
      6      -3.2336      1.00000
      7      -3.2336      1.00000
      8       3.2267      1.00000
      9       3.2267      1.00000
     10       3.2267      1.00000
     11       3.2267      1.00000
     12       3.2267      1.00000
     13       3.2267      1.00000
     14       9.4852      1.00000
     15       9.4852      1.00000
     16       9.4852      1.00000
     17      14.2740      1.00000
     18      14.2740      1.00000
     19      14.2740      1.00000
     20      14.2740      1.00000

[...]

 k-point    35 :       0.4444    0.4444    0.4444
  band No.  band energies     occupation
      1      -6.8102      1.00000
      2      -6.1921      1.00000
      3      -6.1921      1.00000
      4      -6.1921      1.00000
      5      -3.6447      1.00000
      6      -3.6447      1.00000
      7      -3.6447      1.00000
      8      -3.0386      1.00000
      9       6.4044      1.00000
     10       6.4044      1.00000
     11       6.4044      1.00000
     12       6.5425      1.00000
     13       6.5425      1.00000
     14       6.5425      1.00000
     15       6.7559      1.00000
     16       6.7559      1.00000
     17      17.7931      0.00000
     18      17.7931      0.00000
     19      17.7936      0.00000
     20      17.9531      0.00000
 Fermi energy:         8.0760874985

 spin component 2

[...]

 k-point    35 :       0.4444    0.4444    0.4444
  band No.  band energies     occupation
      1      -6.5950      1.00000
      2      -5.9772      1.00000
      3      -5.9772      1.00000
      4      -5.9772      1.00000
      5      -3.4278      1.00000
      6      -3.4278      1.00000
      7      -3.4278      1.00000
      8      -2.8220      1.00000
      9       6.6206      1.00000
     10       6.6206      1.00000
     11       6.6206      1.00000
     12       6.7583      1.00000
     13       6.7583      1.00000
     14       6.7583      1.00000
     15       6.9719      1.00000
     16       6.9719      1.00000
     17      18.0149      0.00000
     18      18.0149      0.00000
     19      18.0157      0.00000
     20      18.1723      0.00000

 soft charge-density along one line, spin component           1
         0         1         2         3         4         5         6         7         8         9
 total charge-density along one line

 soft charge-density along one line, spin component           2
         0         1         2         3         4         5         6         7         8         9
 total charge-density along one line

------------------------ aborting loop because EDIFF is reached ----------------------------------------

  FORCE on cell =-STRESS in cart. coord.  units (eV):
  Direction    XX          YY          ZZ          XY          YZ          ZX
  Alpha Z   115.54882   115.54882   115.54882
  Ewald    -463.53020  -463.53020  -463.53020    -0.00000     0.00000     0.00000
  Hartree    34.42439    34.42439    34.42439    -0.00000    -0.00000    -0.00000
  E(xc)    -121.37597  -121.37597  -121.37597     0.00000    -0.00000     0.00000
  Local     -43.96545   -43.96545   -43.96545    -0.00000    -0.00000    -0.00000
  n-local   -25.29811   -25.78309   -25.89251    -0.50483     0.73830     0.18057
  augment    -2.74186    -2.74186    -2.74186    -0.00000     0.00000     0.00000
  Kinetic   493.54053   514.41624   519.80256    -1.22046    -5.89240    -2.45530
  Fock        0.00000     0.00000     0.00000     0.00000     0.00000     0.00000
  Total       1.95495     1.95495     1.95495    -0.00000    -0.00000     0.00000
  in kB      68.84013    68.84013    68.84013    -0.00000    -0.00000     0.00000

 VOLUME and BASIS-vectors are now :
  energy-cutoff  :      700.00
  volume of cell :       45.50
      direct lattice vectors                 reciprocal lattice vectors
     3.570000000  0.000000000  0.000000000     0.280112045  0.000000000  0.000000000
     0.000000000  3.570000000  0.000000000     0.000000000  0.280112045  0.000000000
     0.000000000  0.000000000  3.570000000     0.000000000  0.000000000  0.280112045

  length of vectors
     3.570000000  3.570000000  3.570000000     0.280112045  0.280112045  0.280112045

 FORCES acting on ions
    electron-ion (+dipol)            ewald-force                    non-local-force                 convergence-correction
   -.266E-13 0.510E-15 -.123E-13   -.284E-13 -.711E-14 0.711E-14   0.412E-17 0.654E-17 0.645E-17   -.219E-14 0.184E-14 0.379E-14
   0.331E-13 0.185E-12 -.566E-14   0.420E-14 -.687E-14 -.711E-14   0.249E-16 -.209E-16 0.687E-17   0.476E-14 -.425E-19 0.172E-14
   -.195E-13 0.103E-13 0.229E-14   -.284E-13 0.711E-14 0.711E-14   -.197E-16 -.104E-16 -.209E-16   -.174E-14 0.338E-14 0.244E-14
   0.198E-13 0.199E-12 0.972E-14   0.482E-14 0.708E-14 -.659E-14   0.179E-16 -.974E-17 0.204E-16   0.500E-14 0.177E-14 0.892E-15
   0.948E-15 0.327E-15 -.659E-12   0.711E-14 -.711E-14 0.711E-14   -.279E-16 0.170E-16 -.284E-17   -.112E-14 0.264E-14 0.236E-14
   0.379E-13 -.164E-12 -.323E-12   0.213E-13 -.912E-14 -.659E-14   0.544E-17 -.172E-16 -.933E-17   0.230E-14 -.463E-15 -.428E-16
   0.258E-14 -.336E-12 -.359E-12   0.711E-14 0.711E-14 0.711E-14   -.125E-16 0.696E-17 -.210E-16   -.183E-14 0.406E-14 0.355E-14
   0.405E-13 -.470E-12 -.242E-13   0.213E-13 0.720E-14 -.700E-14   0.194E-16 0.433E-17 0.194E-16   0.229E-14 0.243E-14 0.103E-14
   0.888E-13 -.575E-12 -.137E-11   0.898E-14 -.171E-14 0.113E-14   0.117E-16 -.233E-16 -.938E-18   0.747E-14 0.157E-13 0.158E-13

 POSITION                                       TOTAL-FORCE (eV/Angst)
      0.00000      0.00000      0.00000         0.000000     -0.000000     -0.000000
      0.89250      0.89250      0.89250        -0.000000      0.000000      0.000000
      0.00000      1.78500      1.78500         0.000000     -0.000000     -0.000000
      0.89250      2.67750      2.67750         0.000000      0.000000      0.000000
      1.78500      0.00000      1.78500        -0.000000     -0.000000     -0.000000
      2.67750      0.89250      2.67750         0.000000      0.000000      0.000000
      1.78500      1.78500      0.00000        -0.000000     -0.000000     -0.000000
      2.67750      2.67750      0.89250        -0.000000      0.000000      0.000000
    total drift:                                0.000000     -0.000000     -0.000000

  FREE ENERGIE OF THE ION-ELECTRON SYSTEM (eV)
  free  energy   TOTEN  =       -69.80606939 eV

  energy  without entropy=      -69.80589084  energy(sigma->0) =      -69.80598012