 vasp.6.4.3 19Mar24 (build Oct 22 2024 11:23:12) complex

 executed on             LinuxIFC date 2025.03.27  22:05:27

 INCAR:
   SYSTEM = Si and Ge interface calculation
   ISTART = 0
   ICHARG = 2
   ENCUT = 600.00 eV
   ALGO = VeryFast
   NELM = 60
   EDIFF = 1E-06
   SIGMA = 0.05
   ISMEAR = 0
   EDIFFG = -1E-02
   NSW = 20
   IBRION = 2
   POTIM = .5
   ISIF = 3
   KPAR = 4
   NCORE = 4
   LREAL = A

 POTCAR:    PAW_PBE Si 05Jan2001
 POTCAR:    PAW_PBE Ge 05Jan2001
|           W    W    AA    RRRRR   N    N  II  N    N   GGGG   !!!           |
|           W    W   A  A   R    R  NN   N  II  NN   N  G    G  !!!           |
|           W    W  A    A  R    R  N N  N  II  N N  N  G       !!!           |
|           W WW W  AAAAAA  RRRRR   N  N N  II  N  N N  G  GGG   !            |
|           WW  WW  A    A  R   R   N   NN  II  N   NN  G    G                |
|           W    W  A    A  R    R  N    N  II  N    N   GGGG   !!!           |
|     The value NCORE = 4 specified in the INCAR file was overwritten,        |
|     because it was not compatible with the 1 processes available:           |
|     NCORE = 1                                                               |
|     was used instead, please check that this makes sense for your           |
|     machine.                                                                |

 POTCAR:    PAW_PBE Si 05Jan2001
   VRHFIN =Si: s2p2

   TITEL  = PAW_PBE Si 05Jan2001
   POMASS =   28.085; ZVAL   =    4.000    mass and valenz
   ENMAX  =  245.345; ENMIN  =  184.009 eV

 POTCAR:    PAW_PBE Ge 05Jan2001
   VRHFIN =Ge: s2p2

   TITEL  = PAW_PBE Ge 05Jan2001
   POMASS =   72.610; ZVAL   =    4.000    mass and valenz
   ENMAX  =  173.807; ENMIN  =  130.355 eV

 Optimization of the real space projectors (new method)

 maximal supplied QI-value         = 19.84
 optimisation between [QCUT,QGAM] = [ 12.50, 25.00] = [ 43.76,175.03] Ry
 Optimized for a Real-space Cutoff    1.06 Angstroem

   l    n(q)    QCUT    max X(q) W(low)/X(q) W(high)/X(q)  e(spline)
   0      8    12.501   159.560    0.25E-03    0.87E-04    0.85E-07
   0      8    12.501   115.863    0.25E-03    0.85E-04    0.84E-07
   1      7    12.501    88.339    0.32E-03    0.53E-03    0.87E-07
   1      7    12.501    48.592    0.31E-03    0.51E-03    0.85E-07
 Optimization of the real space projectors (new method)

 maximal supplied QI-value         = 16.25
 optimisation between [QCUT,QGAM] = [ 12.51, 25.03] = [ 43.85,175.40] Ry
 Optimized for a Real-space Cutoff    1.23 Angstroem

   l    n(q)    QCUT    max X(q) W(low)/X(q) W(high)/X(q)  e(spline)
   0      9    12.514    65.336    0.42E-03    0.23E-03    0.14E-06
   0      9    12.514    52.220    0.42E-03    0.23E-03    0.13E-06
   1      9    12.514    36.409    0.35E-03    0.65E-03    0.33E-06
   1      9    12.514    21.334    0.35E-03    0.63E-03    0.32E-06
   2      8    12.514     4.673    0.48E-03    0.34E-03    0.74E-07
  PAW_PBE Si 05Jan2001                  :
  PAW_PBE Ge 05Jan2001                  :

 POSCAR: Si Ge
  positions in cartesian coordinates

 exchange-correlation table for PE
   RHO(1)=    0.500       N(1)  =     2000
   RHO(2)=  100.500       N(2)  =     4000

 ion  position               nearest neighbor table
   1  0.156  0.185  0.001-  18 2.12  19 2.15  20 2.17   2 2.35  19 2.58  20 2.60
   2  0.156  0.185  0.085-  20 2.10   1 2.35   3 2.40   3 2.40   3 2.40  20 2.54
   3  0.823  0.851  0.113-  20 2.00   4 2.35   2 2.40   2 2.40   2 2.40
   4  0.823  0.851  0.197-   3 2.35   5 2.40   5 2.40   5 2.40
   5  0.490  0.518  0.226-   6 2.35   4 2.40   4 2.40   4 2.40
   6  0.490  0.518  0.310-   5 2.35   7 2.40   7 2.40   7 2.40
   7  0.156  0.185  0.338-   8 2.35   6 2.40   6 2.40   6 2.40
   8  0.156  0.185  0.422-  11 2.00   7 2.35   9 2.40   9 2.40   9 2.40
   9  0.823  0.851  0.450-  11 2.02  10 2.35   8 2.40   8 2.40   8 2.40  11 2.67  11 3.03
  10  0.823  0.851  0.534-  12 2.07  11 2.10  13 2.13   9 2.35  12 2.71  11 2.73
  11  0.002  0.163  0.490-   8 2.00   9 2.02  10 2.10  12 2.45   9 2.67  10 2.73   9 3.03
  12  0.002  0.163  0.578-  10 2.07  13 2.41  13 2.41  13 2.41  11 2.45  10 2.71
  13  0.668  0.830  0.607-  10 2.13  12 2.41  12 2.41  12 2.41  14 2.45
  14  0.668  0.830  0.695-  15 2.41  15 2.41  15 2.41  13 2.45
  15  0.335  0.497  0.724-  14 2.41  14 2.41  14 2.41  16 2.45
  16  0.335  0.497  0.812-  17 2.41  17 2.41  17 2.41  15 2.45
  17  0.002  0.163  0.841-  16 2.41  16 2.41  16 2.41  18 2.45
  18  0.002  0.163  0.929-   1 2.12  19 2.41  19 2.41  19 2.41  17 2.45
  19  0.668  0.830  0.958-   1 2.15  18 2.41  18 2.41  18 2.41  20 2.45   1 2.58
  20  0.668  0.830  0.046-   3 2.00   2 2.10   1 2.17  19 2.45   2 2.54   1 2.60

  LATTYP: Found a hexagonal cell.
 ALAT       =     3.9201999949
 C/A-ratio  =     7.1218317847

  Lattice vectors:

 A1 = (  -1.9600999974,  -3.3949927835,   0.0000000000)
 A2 = (   3.9201999949,   0.0000000000,   0.0000000000)
 A3 = (   0.0000000000,   0.0000000000,  27.9190049262)

Analysis of symmetry for initial positions (statically):
 Subroutine PRICEL returns:
 Original cell was already a primitive cell.

 Routine SETGRP: Setting up the symmetry group for a
 hexagonal supercell.

 Subroutine GETGRP returns: Found  1 space group operations
 (whereof  1 operations were pure point group operations)
 out of a pool of 24 trial point group operations.

The static configuration has the point symmetry C_1 .

Analysis of symmetry for dynamics (positions and initial velocities):
 Subroutine PRICEL returns:
 Original cell was already a primitive cell.

 Routine SETGRP: Setting up the symmetry group for a
 hexagonal supercell.

 Subroutine GETGRP returns: Found  1 space group operations
 (whereof  1 operations were pure point group operations)
 out of a pool of 24 trial point group operations.

The dynamic configuration has the point symmetry C_1 .

 Subroutine INISYM returns: Found  1 space group operations
 (whereof  1 operations are pure point group operations),
 and found     1 'primitive' translations

                                     Primitive cell

  volume of cell :     371.5755

  direct lattice vectors                    reciprocal lattice vectors
     3.920199995  0.000000000  0.000000000     0.255089026 -0.147275718  0.000000000
     1.960099997  3.394992783  0.000000000     0.000000000  0.294551436  0.000000000
     0.000000000  0.000000000 27.919004926     0.000000000  0.000000000  0.035817895

  length of vectors
     3.920199995  3.920199995 27.919004926     0.294551436  0.294551436  0.035817895

  position of ions in fractional coordinates (direct lattice)
     0.156344371  0.184733044  0.000938275
     0.156344371  0.184733044  0.085155423
     0.823011038  0.851399711  0.113227806
     0.823011038  0.851399711  0.197444954
     0.489677704  0.518066378  0.225517337
     0.489677704  0.518066378  0.309734485
     0.156344371  0.184733044  0.337806867
     0.156344371  0.184733044  0.422024015
     0.823011038  0.851399711  0.450096398
     0.823011038  0.851399711  0.534313546
     0.001615452  0.163298189  0.489751451
     0.001615452  0.163298189  0.577504789
     0.668282119  0.829964856  0.606755901
     0.668282119  0.829964856  0.694509239
     0.334948785  0.496631522  0.723760351
     0.334948785  0.496631522  0.811513689
     0.001615452  0.163298189  0.840764802
     0.001615452  0.163298189  0.928518139
     0.668282119  0.829964856  0.957769252
     0.668282119  0.829964856  0.045522590

  ion indices of the primitive-cell ions
   primitive index   ion index
                 1           1
                 2           2
                 3           3
                 4           4
                 5           5
                 6           6
                 7           7
                 8           8
                 9           9
                10          10
                11          11
                12          12
                13          13
                14          14
                15          15
                16          16
                17          17
                18          18
                19          19
                20          20

 KPOINTS: 4x4x4

Automatic generation of k-mesh.
 Grid dimensions read from file:
 generate k-points for:    4    4    4

 Generating k-lattice:

  Cartesian coordinates                     Fractional coordinates (reciprocal lattice)
     0.063772257 -0.036818930  0.000000000     0.250000000  0.000000000  0.000000000
     0.000000000  0.073637859  0.000000000     0.000000000  0.250000000  0.000000000
     0.000000000  0.000000000  0.008954474     0.000000000  0.000000000  0.250000000

  Length of vectors
     0.073637859  0.073637859  0.008954474

  Shift w.r.t. Gamma in fractional coordinates (k-lattice)
     0.000000000  0.000000000  0.000000000

 Subroutine IBZKPT returns following result:

 Found     36 irreducible k-points:

 Following reciprocal coordinates:
            Coordinates               Weight
  0.000000  0.000000  0.000000      1.000000
  0.250000 -0.000000  0.000000      2.000000
  0.250000  0.250000  0.000000      2.000000
  0.000000  0.250000  0.000000      2.000000
  0.500000 -0.000000  0.000000      1.000000
  0.500000  0.500000  0.000000      1.000000
  0.000000  0.500000  0.000000      1.000000
  0.500000  0.250000  0.000000      2.000000
  0.250000  0.500000  0.000000      2.000000
 -0.250000  0.250000  0.000000      2.000000
  0.000000  0.000000  0.250000      2.000000
  0.250000 -0.000000  0.250000      2.000000
  0.250000  0.250000  0.250000      2.000000
  0.000000  0.250000  0.250000      2.000000
 -0.250000  0.000000  0.250000      2.000000
 -0.250000 -0.250000  0.250000      2.000000
  0.000000 -0.250000  0.250000      2.000000
  0.500000 -0.000000  0.250000      2.000000
  0.500000  0.500000  0.250000      2.000000
  0.000000  0.500000  0.250000      2.000000
  0.500000  0.250000  0.250000      2.000000
  0.250000  0.500000  0.250000      2.000000
 -0.250000  0.250000  0.250000      2.000000
  0.500000 -0.250000  0.250000      2.000000
 -0.250000  0.500000  0.250000      2.000000
  0.250000 -0.250000  0.250000      2.000000
  0.000000  0.000000  0.500000      1.000000
  0.250000 -0.000000  0.500000      2.000000
  0.250000  0.250000  0.500000      2.000000
  0.000000  0.250000  0.500000      2.000000
  0.500000 -0.000000  0.500000      1.000000
  0.500000  0.500000  0.500000      1.000000
  0.000000  0.500000  0.500000      1.000000
  0.500000  0.250000  0.500000      2.000000
  0.250000  0.500000  0.500000      2.000000
 -0.250000  0.250000  0.500000      2.000000

 Following cartesian coordinates:
            Coordinates               Weight
  0.000000  0.000000  0.000000      1.000000
  0.063772 -0.036819  0.000000      2.000000
  0.063772  0.036819  0.000000      2.000000
  0.000000  0.073638  0.000000      2.000000
  0.127545 -0.073638  0.000000      1.000000
  0.127545  0.073638  0.000000      1.000000
  0.000000  0.147276  0.000000      1.000000
  0.127545  0.000000  0.000000      2.000000
  0.063772  0.110457  0.000000      2.000000
 -0.063772  0.110457  0.000000      2.000000
  0.000000  0.000000  0.008954      2.000000
[...]
      0.97500      0.62717      9.43123         0.053171      0.038450     -0.486805
      0.97500      0.62717     11.78249         3.221782      0.114791     -7.515077
      4.89520      2.89050     12.56624        -4.402898     -3.097182     -5.233024
      4.89520      2.89050     14.91750        -4.721985     -4.480020     -4.278453
      0.32641      0.55440     13.67337         4.836598      5.258565      7.061277
      0.32641      0.55440     16.12336         3.456137      2.231043      4.097494
      4.24661      2.81772     16.94002        -2.360109      0.006965      5.336391
      4.24661      2.81772     19.39001        -0.115758     -0.079355      0.168331
      2.28651      1.68606     20.20667        -0.004373      0.043071      0.260354
      2.28651      1.68606     22.65665        -0.026698     -0.040018     -0.251746
      0.32641      0.55440     23.47332        -0.097946     -0.051413     -0.161491
      0.32641      0.55440     25.92330        -2.385545     -0.421794     -5.545010
      4.24661      2.81772     26.73996         2.543526     -1.561877     -3.407442
      4.24661      2.81772      1.27095         2.368989     -4.153310     -6.920165
    total drift:                               -0.059968     -0.320126     -0.110462

  FREE ENERGIE OF THE ION-ELECTRON SYSTEM (eV)
  free  energy   TOTEN  =       -78.88600552 eV

  energy  without entropy=      -78.87592339  energy(sigma->0) =      -78.88096446

[...]

 E-fermi :   2.5291     XC(G=0):  -8.3175     alpha+bet : -8.0484

[...]

 d Force = 0.1619136E+02[-0.348E+01, 0.359E+02]  d Energy = 0.8206391E+01 0.798E+01
 d Force = 0.1710745E+03[ 0.637E+02, 0.278E+03]  d Ewald  =-0.1465628E+03 0.318E+03

 Steepest descent step on ions:
 trial-energy change:   -8.206391  1 .order  -23.471260  -61.510761   14.568241
  (g-gl).g = 0.615E+02      g.g   = 0.615E+02  gl.gl    = 0.000E+00
 g(Force)  = 0.301E+02   g(Stress)= 0.315E+02 ortho     = 0.000E+00
 gamma     =   0.00000
 trial     =   1.00000
 opt step  =   0.50761  (harmonic =   0.80851) maximal distance =0.19303059
 next E    =   -92.501255   (d E  = -13.61525)

[...]

 d Force = 0.5847977E+00[-0.257E+00, 0.143E+01]  d Energy = 0.4036759E+01-0.345E+01
 d Force =-0.3553735E+02[-0.492E+02,-0.219E+02]  d Ewald  = 0.9549349E+02-0.131E+03

[...]

 d Force =-0.6673891E-02[-0.739E-02,-0.596E-02]  d Energy = 0.9462438E-02-0.161E-01
 d Force =-0.1125193E+01[-0.113E+01,-0.112E+01]  d Ewald  = 0.1779864E+01-0.291E+01

[...]

 d Force =-0.1456363E-01[-0.168E-01,-0.123E-01]  d Energy = 0.5879421E-02-0.204E-01
 d Force =-0.1912078E+01[-0.193E+01,-0.189E+01]  d Ewald  = 0.2956070E+01-0.487E+01

[...]

 d Force = 0.6829932E+00[ 0.586E+00, 0.780E+00]  d Energy = 0.7908713E+00-0.108E+00
 d Force = 0.2098522E+02[ 0.200E+02, 0.219E+02]  d Ewald  = 0.3075991E+02-0.977E+01

 Conjugate gradient step on ions:
 trial-energy change:   -0.790871  1 .order   -0.790769   -0.939184   -0.642354
  (g-gl).g = 0.103E+01      g.g   = 0.105E+01  gl.gl    = 0.615E+02
 g(Force)  = 0.856E+00   g(Stress)= 0.191E+00 ortho     = 0.196E-01
 gamma     =   0.01672
 trial     =   0.89610
 opt step  =   2.83529  (harmonic =   2.83529) maximal distance =0.21234361
 next E    =   -92.630309   (d E  =  -1.48581)

[...]

 Conjugate gradient step on ions:
 trial-energy change:   -0.482729  1 .order   -0.476604   -0.580604   -0.372603
  (g-gl).g = 0.131E+01      g.g   = 0.124E+01  gl.gl    = 0.105E+01
 g(Force)  = 0.880E+00   g(Stress)= 0.363E+00 ortho     =-0.352E-01
 gamma     =   1.25218
 trial     =   0.48414
 opt step  =   1.10257  (harmonic =   1.35140) maximal distance =0.10833830
 next E    =   -93.361931   (d E  =  -0.73347)

[...]

 d Force = 0.2431060E+00[ 0.198E+00, 0.289E+00]  d Energy = 0.3317833E+00-0.887E-01
 d Force = 0.4598144E+01[ 0.416E+01, 0.504E+01]  d Ewald  =-0.7018824E+00 0.530E+01

[...]

 d Force = 0.1919908E+00[ 0.908E-01, 0.293E+00]  d Energy = 0.1803133E+00 0.117E-01
 d Force = 0.5212205E+01[ 0.426E+01, 0.616E+01]  d Ewald  =-0.3189665E+01 0.840E+01

[...]

 d Force = 0.2042394E+00[ 0.158E+00, 0.250E+00]  d Energy = 0.2219043E+00-0.177E-01
 d Force = 0.9510879E+00[ 0.609E+00, 0.129E+01]  d Ewald  = 0.7063918E+01-0.611E+01

 Conjugate gradient step on ions:
 trial-energy change:   -0.221904  1 .order   -0.220484   -0.279759   -0.161209
  (g-gl).g = 0.367E+00      g.g   = 0.357E+00  gl.gl    = 0.681E+00
 g(Force)  = 0.264E+00   g(Stress)= 0.928E-01 ortho     =-0.379E-02
 gamma     =   0.53902
 trial     =   0.78855
 opt step  =   1.71581  (harmonic =   1.86086) maximal distance =0.11740566
 next E    =   -94.196079   (d E  =  -0.31900)

[...]

 d Force = 0.1180950E+00[ 0.502E-01, 0.186E+00]  d Energy = 0.1064974E+00 0.116E-01
 d Force = 0.2617966E+00[-0.191E+00, 0.715E+00]  d Ewald  = 0.7485468E+01-0.722E+01

[...]

 d Force = 0.1745612E+00[ 0.140E+00, 0.209E+00]  d Energy = 0.1870308E+00-0.125E-01
 d Force =-0.7447055E+00[-0.939E+00,-0.550E+00]  d Ewald  =-0.4721925E+01 0.398E+01

[...]

 E-fermi :   4.1591     XC(G=0):  -9.1362     alpha+bet :-10.0624

[...]

 d Force = 0.5854765E-01[ 0.494E-01, 0.677E-01]  d Energy = 0.6814814E-01-0.960E-02
 d Force =-0.2783689E+00[-0.297E+00,-0.260E+00]  d Ewald  =-0.1174383E+01 0.896E+00

 Conjugate gradient step on ions:
 trial-energy change:   -0.068148  1 .order   -0.068436   -0.077248   -0.059625
  (g-gl).g = 0.170E+01      g.g   = 0.161E+01  gl.gl    = 0.384E+00
 g(Force)  = 0.851E+00   g(Stress)= 0.754E+00 ortho     = 0.525E-01
 gamma     =   4.43597
 trial     =   0.04203
 opt step  =   0.16811  (harmonic =   0.18422) maximal distance =0.11235479
 next E    =   -96.048172   (d E  =  -0.16930)

--------------------------------------- Ionic step       20  -------------------------------------------

[...]

 eigenvalue-minimisations  :  2770
 total energy-change (2. order) : 0.9470476E-05  (-0.4695599E-06)
 number of electron      80.0000000 magnetization
 augmentation part       -8.7434474 magnetization

 Broyden mixing:
  rms(total) = 0.14813E-03    rms(broyden)= 0.14813E-03
  rms(prec ) = 0.21923E-03
  weight for this iteration     100.00

 eigenvalues of (default mixing * dielectric matrix)
  average eigenvalue GAMMA=   1.2158
  2.7369  2.5228  1.5058  1.5058  1.1404  0.9801  0.9801  0.2674  0.3419  0.7806
  0.6116

[...]

--------------------------------------- Iteration     20(  13)  ---------------------------------------

 eigenvalue-minimisations  :  2455
 total energy-change (2. order) :-0.2367801E-06  (-0.2008595E-06)
 number of electron      80.0000000 magnetization
 augmentation part       -8.7434474 magnetization

 Free energy of the ion-electron system (eV)
  alpha Z        PSCENC =        98.45596235
  Ewald energy   TEWEN  =     -2128.17800074
  -Hartree energ DENC   =      -220.53580977
  -exchange      EXHF   =         0.00000000
  -V(xc)+E(xc)   XCENC  =      -164.86842087
  PAW double counting   =      5659.42995469    -5340.87111170
  entropy T*S    EENTRO =        -0.00508749
  eigenvalues    EBANDS =       -80.07682484
  atomic energy  EATOM  =      2080.62436032
  Solvation  Ediel_sol  =         0.00000000
  free energy    TOTEN  =       -96.02497805 eV

  energy without entropy =      -96.01989056  energy(sigma->0) =      -96.02243431

 average (electrostatic) potential at core
  the test charge radii are     0.9892  1.1631
  (the norm of the test charge is              1.0000)
       1 -85.3922       2 -85.2340       3 -85.3465       4 -85.2678       5 -85.1971
       6 -85.1866       7 -85.2326       8 -85.3221       9 -85.2461      10 -85.4044
      11 -32.3787      12 -32.4091      13 -32.4366      14 -32.4449      15 -32.4498
      16 -32.4389      17 -32.4323      18 -32.4384      19 -32.3873      20 -32.3682

 E-fermi :   4.1438     XC(G=0):  -9.0005     alpha+bet : -9.7919

 val. band max:        3.9489213708   @ k =   0.0000   0.0000   0.2500
 cond. band min:       4.1503446733   @ k =   0.5000  -0.0000   0.0000
 fundamental gap:      0.2014233024
 Fermi energy:         4.1437585904

[...]

 k-point    36 :      -0.2500    0.2500    0.5000
  band No.  band energies     occupation
      1      -6.3091      2.00000
      2      -6.2269      2.00000
      3      -6.0268      2.00000
      4      -5.7448      2.00000
      5      -5.4456      2.00000
      6      -5.3248      2.00000
      7      -4.8921      2.00000
      8      -4.6664      2.00000
      9      -4.2840      2.00000
     10      -4.0642      2.00000
     11      -3.8314      2.00000
     12      -3.5626      2.00000
     13      -3.1324      2.00000
     14      -3.0334      2.00000
     15      -2.6892      2.00000
     16      -2.5957      2.00000
     17      -2.1640      2.00000
     18      -1.9256      2.00000
     19      -1.5557      2.00000
     20      -1.3590      2.00000
     21      -0.2270      2.00000
     22      -0.1383      2.00000
     23       0.3256      2.00000
     24       0.3976      2.00000
     25       0.5026      2.00000
     26       0.6073      2.00000
     27       0.8328      2.00000
     28       0.8688      2.00000
     29       0.9127      2.00000
     30       0.9841      2.00000
     31       1.1827      2.00000
     32       1.2800      2.00000
     33       1.6172      2.00000
     34       1.7610      2.00000
     35       2.0899      2.00000
     36       2.2349      2.00000
     37       2.3518      2.00000
     38       2.6361      2.00000
     39       2.9319      2.00000
     40       3.0452      2.00000
     41       5.6601      0.00000
     42       5.8895      0.00000
     43       6.0677      0.00000
     44       6.3268      0.00000
     45       6.5908      0.00000
     46       6.7546      0.00000
     47       6.9334      0.00000
     48       7.0509      0.00000
     49       7.1057      0.00000
     50       7.2756      0.00000
     51       7.5456      0.00000

 soft charge-density along one line, spin component           1
         0         1         2         3         4         5         6         7         8         9
 total charge-density along one line

------------------------ aborting loop because EDIFF is reached ----------------------------------------

  FORCE on cell =-STRESS in cart. coord.  units (eV):
  Direction    XX          YY          ZZ          XY          YZ          ZX
  Alpha Z    98.45596    98.45596    98.45596
  Ewald    -698.58569  -687.16464  -742.43349    14.71410     5.47063    -7.26671
  Hartree   100.93352   102.79637    16.80648     2.54416     1.49262    -0.95678
  E(xc)    -261.29864  -261.42797  -261.38683    -0.17045    -0.01703     0.09425
  Local    -349.92860  -363.22616  -218.36209   -16.42720    -7.42465     7.70746
  n-local   575.33238   577.50279   580.30199     2.19907     0.99426    -1.19084
  augment   -46.56310   -46.75282   -47.36357    -0.07764    -0.04925     0.03055
  Kinetic   568.42478   569.46314   586.38857    -1.04699    -1.26979     0.74842
  Fock        0.00000     0.00000     0.00000     0.00000     0.00000     0.00000
  Total     -13.22939   -10.35333    12.40703     1.73506    -0.80322    -0.83365
  in kB     -46.41678   -36.32578    43.53141     6.08766    -2.81818    -2.92495

 VOLUME and BASIS-vectors are now :
  energy-cutoff  :      600.00
  volume of cell :      456.64
      direct lattice vectors                 reciprocal lattice vectors
     4.112654633 -0.009441315  0.006586019     0.242830044 -0.139990497  0.000334277
     2.048542571  3.553492626  0.022487199     0.000647343  0.281048574 -0.001340547
     0.042794502  0.148747164 31.205818940    -0.000051716 -0.000172981  0.032046201

  length of vectors
     4.112670744  4.101748674 31.206202793     0.280292492  0.281052517  0.032046710

 FORCES acting on ions
    electron-ion (+dipol)            ewald-force                    non-local-force                 convergence-correction
   0.303E+01 0.360E+01 0.539E+02   -.191E+01 -.283E+01 -.499E+02   -.677E+00 -.121E+01 -.541E+01   0.245E-03 -.117E-03 -.475E-02
   -.643E+01 -.966E+00 -.698E+01   0.553E+01 0.864E+00 0.347E+01   0.131E+01 -.603E-02 0.516E+01   0.391E-03 -.200E-03 0.492E-02
   0.225E+01 -.372E+00 0.563E+01   -.180E+01 0.393E+00 -.415E+01   -.883E+00 0.931E-01 0.102E+00   -.270E-03 0.105E-03 0.743E-02
   -.108E+00 0.107E+01 0.917E+01   0.866E-01 -.103E+01 -.104E+02   0.440E-01 -.350E+00 0.915E-01   0.652E-06 -.137E-03 0.131E-01
   0.397E+00 -.734E+00 0.221E+02   -.293E+00 0.699E+00 -.190E+02   -.143E+00 0.341E+00 -.375E+01   -.728E-04 -.166E-04 0.135E-01
   -.301E+00 0.656E+00 -.149E+02   0.330E+00 -.591E+00 0.119E+02   0.112E-01 -.357E+00 0.369E+01   0.981E-05 -.124E-03 0.152E-01
   0.237E+00 -.126E+01 0.137E+00   -.241E+00 0.118E+01 0.160E+01   -.119E+00 0.294E+00 -.118E+01   -.499E-04 -.816E-05 0.148E-01
   -.403E+00 -.414E+00 -.134E+02   0.580E+00 0.419E+00 0.112E+02   0.119E+00 0.228E+00 0.108E+01   0.150E-03 0.420E-04 0.993E-02
   -.292E+01 0.129E+01 0.184E+01   0.235E+01 -.126E+01 0.155E+01   0.280E+00 -.256E+00 -.501E+01   -.167E-03 -.818E-04 0.748E-02
   0.372E+01 -.134E+01 -.561E+02   -.268E+01 0.923E+00 0.522E+02   -.660E+00 0.579E+00 0.534E+01   -.285E-03 -.303E-04 -.182E-02
   -.274E+01 0.103E+01 -.451E+02   0.203E+01 -.868E+00 0.453E+02   0.703E-01 -.326E+00 0.361E+00   0.185E-03 0.576E-04 -.515E-02
   0.234E+01 -.629E+00 -.378E+02   -.192E+01 0.828E+00 0.374E+02   0.155E+00 0.835E-01 0.482E+00   0.214E-04 0.189E-04 -.968E-02
   0.707E+00 0.762E+00 -.306E+02   -.114E+01 -.866E+00 0.308E+02   0.150E+00 -.207E+00 -.450E+00   0.243E-04 0.371E-04 -.961E-02
   -.130E+01 0.684E+00 -.185E+02   0.146E+01 -.766E+00 0.184E+02   0.167E+00 0.158E-01 0.890E+00   0.488E-04 0.237E-04 -.794E-02
   0.690E+00 0.156E+00 -.643E+01   -.801E+00 -.117E+00 0.638E+01   -.188E+00 0.146E+00 -.900E+00   -.140E-04 0.621E-04 -.744E-02
   -.765E+00 0.406E+00 0.421E+01   0.883E+00 -.523E+00 -.413E+01   0.279E+00 -.181E+00 0.787E+00   0.378E-04 0.199E-04 -.674E-02
   0.489E+00 -.102E+01 0.147E+02   -.545E+00 0.113E+01 -.143E+02   -.241E+00 0.220E+00 -.557E+00   -.151E-04 0.660E-04 -.675E-02
   -.822E+00 -.103E+01 0.351E+02   0.595E+00 0.111E+01 -.354E+02   0.476E+00 0.243E+00 -.828E-01   0.545E-04 0.389E-04 -.754E-02
   0.405E+01 0.880E+00 0.399E+02   -.384E+01 -.104E+01 -.394E+02   -.133E+00 -.121E+00 -.362E+00   -.263E-04 0.832E-04 -.773E-02
   -.210E+01 -.260E+01 0.430E+02   0.133E+01 0.234E+01 -.434E+02   0.822E-02 0.675E+00 -.323E+00   -.255E-03 0.126E-03 -.623E-02
   0.206E-01 0.179E+00 0.651E-02   -.644E-14 0.178E-14 -.426E-13   0.224E-01 -.101E+00 -.536E-01   0.131E-04 -.344E-04 0.501E-02

 POSITION                                       TOTAL-FORCE (eV/Angst)
      0.71798      0.62921      1.21690         0.438121     -0.443602     -1.398416
      1.05659      0.75786      3.39778         0.405046     -0.112010      1.656068
      5.21020      3.10128      4.02205        -0.438810      0.110675      1.589993
      5.15632      3.07542      6.58160         0.020481     -0.310287     -1.085460
      3.10490      1.85815      7.24661        -0.041216      0.301697     -0.607411
      3.10086      1.89759      9.53832         0.037811     -0.296696      0.621054
      1.04968      0.68294     10.21634        -0.125887      0.212293      0.569872
      1.02660      0.63526     12.66309         0.293784      0.229527     -1.095488
      5.15370      3.01472     13.29651        -0.284544     -0.231086     -1.613798
      4.83858      3.06699     15.48868         0.374153      0.158220      1.424870
      0.76795      0.72655     16.11411        -0.649028     -0.164621      0.624339
      4.39245      0.70451     18.59682         0.573411      0.279028      0.032006
      4.40425      3.10892     19.43461        -0.282418     -0.314990     -0.323995
      4.46359      3.05211     21.86311         0.320907     -0.070115      0.761219
      2.44212      1.85264     22.76242        -0.301281      0.181208     -0.952633
      2.39892      1.89802     25.16245         0.395237     -0.302467      0.859405
      0.38735      0.67453     26.04287        -0.298421      0.325515     -0.143827
      4.38329      0.63967     28.56334         0.246218      0.316340     -0.427002
      4.40363      3.03868     29.33433         0.074217     -0.282893      0.213660
      4.86714      2.93661      0.61018        -0.757781      0.414263     -0.704457
    total drift:                                0.042969      0.078320     -0.042055

  FREE ENERGIE OF THE ION-ELECTRON SYSTEM (eV)
  free  energy   TOTEN  =       -96.02497805 eV

  energy  without entropy=      -96.01989056  energy(sigma->0) =      -96.02243431

 d Force = 0.4241020E-01[-0.638E-01, 0.149E+00]  d Energy = 0.7795967E-01-0.355E-01
 d Force =-0.1140585E+01[-0.139E+01,-0.893E+00]  d Ewald  =-0.3775076E+01 0.263E+01

 writing wavefunctions