 vasp.6.4.3 19Mar24 (build Oct 22 2024 11:23:12) complex

 executed on             LinuxIFC date 2025.06.04  04:39:57

 INCAR:
   SYSTEM = Si and Ge interface calculation
   ISTART = 0
   ICHARG = 2
   LWAVE = .FALSE.
   LREAL = AUTO
   ENCUT = 700
   ENAUG = 900
   ADDGRID = .TRUE.
   LMAXMIX = 6
   LASPH = .TRUE.
   LMIXTAU = .TRUE.
   NCORE = 16
   NELM = 100
   NBANDS = 231
   EDIFF = 1d-7
   AMIX = 0.6
   ISMEAR = 0
   SIGMA = 0.01
   NELECT = 384
   ISPIN = 2
   NUPDOWN = 1
   LVTOT = .FALSE.
   LVHAR = .TRUE.

 POTCAR:    PAW_PBE Ge 05Jan2001
 POTCAR:    PAW_PBE Sn 08Apr2002
|           W    W    AA    RRRRR   N    N  II  N    N   GGGG   !!!           |
|           W    W   A  A   R    R  NN   N  II  NN   N  G    G  !!!           |
|           W    W  A    A  R    R  N N  N  II  N N  N  G       !!!           |
|           W WW W  AAAAAA  RRRRR   N  N N  II  N  N N  G  GGG   !            |
|           WW  WW  A    A  R   R   N   NN  II  N   NN  G    G                |
|           W    W  A    A  R    R  N    N  II  N    N   GGGG   !!!           |
|     You use a magnetic or noncollinear calculation, but did not specify     |
|     the initial magnetic moment with the MAGMOM tag. Note that a            |
|     default of 0.01 will be used for all atoms. This ferromagnetic          |
|     setup may break the symmetry of the crystal, in particular it may       |
|     rule out finding an antiferromagnetic solution. Thence, we              |
|     recommend setting the initial magnetic moment manually or verifying     |
|     carefully that this magnetic setup is desired.                          |

 POTCAR:    PAW_PBE Ge 05Jan2001
   VRHFIN =Ge: s2p2

   TITEL  = PAW_PBE Ge 05Jan2001
   POMASS =   72.610; ZVAL   =    4.000    mass and valenz
   ENMAX  =  173.807; ENMIN  =  130.355 eV

 POTCAR:    PAW_PBE Sn 08Apr2002
   VRHFIN =Sn: s2p2

   TITEL  = PAW_PBE Sn 08Apr2002
   POMASS =  118.710; ZVAL   =    4.000    mass and valenz
   ENMAX  =  103.236; ENMIN  =   77.427 eV

 Optimization of the real space projectors (new method)

 maximal supplied QI-value         = 16.25
 optimisation between [QCUT,QGAM] = [ 13.49, 26.98] = [ 50.95,203.80] Ry
 Optimized for a Real-space Cutoff    1.25 Angstroem

   l    n(q)    QCUT    max X(q) W(low)/X(q) W(high)/X(q)  e(spline)
   0     10    13.489    65.336    0.91E-04    0.11E-03    0.34E-06
   0     10    13.489    52.220    0.89E-04    0.11E-03    0.34E-06
   1     10    13.489    36.409    0.22E-03    0.27E-03    0.14E-06
   1     10    13.489    21.334    0.21E-03    0.27E-03    0.14E-06
   2      9    13.489     4.673    0.11E-03    0.12E-03    0.19E-06
 Optimization of the real space projectors (new method)

 maximal supplied QI-value         = 12.47
 optimisation between [QCUT,QGAM] = [ 12.47, 27.06] = [ 43.56,205.12] Ry
 Optimized for a Real-space Cutoff    1.58 Angstroem

   l    n(q)    QCUT    max X(q) W(low)/X(q) W(high)/X(q)  e(spline)
   0     13    12.472    14.688    0.45E-04    0.45E-04    0.25E-05
   0     13    12.472     7.308    0.94E-04    0.11E-03    0.61E-05
   1     12    12.472    45.102    0.34E-03    0.14E-03    0.21E-05
   1     12    12.472    30.691    0.31E-03    0.13E-03    0.20E-05
   2     12    12.472     7.156    0.86E-04    0.11E-03    0.17E-05
 WARNING: PSMAXN for non-local potential too small
          PSMAXN should be >   13.5545592237991       NTYP=           2
  PAW_PBE Ge 05Jan2001                  :
  PAW_PBE Sn 08Apr2002                  :

 POSCAR: Ge+Sn
  positions in direct lattice

 exchange-correlation table for PE
   RHO(1)=    0.500       N(1)  =     2000
   RHO(2)=  100.500       N(2)  =     4000

 ion  position               nearest neighbor table
   1  0.946  0.076  0.000-  71 2.44  45 2.45  14 2.45  76 2.70  95 3.25
   2  0.696  0.426  0.081-  46 2.45  43 2.45  15 2.45  53 2.48  89 2.81  96 3.11  66 3.22
   3  0.446  0.776  0.161-  72 1.99  44 2.45  47 2.45  19 2.45  16 2.45  84 2.75
   4  0.196  0.126  0.242-  61 1.98  48 2.45  17 2.45  45 2.45  20 2.45  54 3.13
   5  0.946  0.476  0.322-  55 1.33  46 2.45  21 2.45  18 2.45  86 2.79  91 2.97
   6  0.696  0.826  0.403-  74 1.80  62 2.23  22 2.45  47 2.45  49 3.17
   7  0.446  0.076  0.000-  90 0.93  54 2.12  39 2.45  20 2.45  83 2.77
   8  0.196  0.426  0.081-  40 2.45  37 2.45  21 2.45  60 2.47  78 2.59
   9  0.946  0.776  0.161-  41 2.45  38 2.45  13 2.45  22 2.45  79 3.27
  10  0.696  0.126  0.242-  42 2.45  23 2.45  14 2.45  39 2.45  73 3.31
  11  0.446  0.476  0.322-  40 2.45  15 2.45  24 2.45  50 3.08  91 3.27
  12  0.196  0.826  0.403-  85 1.72  16 2.45  41 2.45  67 2.76  81 3.25
  13  0.071  0.826  0.000-  84 2.25  32 2.45   9 2.45  88 2.97  52 3.13  95 3.33
  14  0.821  0.176  0.081-  71 2.24  33 2.45  10 2.45   1 2.45
  15  0.571  0.526  0.161-  96 1.94  31 2.45  34 2.45  11 2.45   2 2.45
  16  0.321  0.876  0.242-  12 2.45  32 2.45  35 2.45   3 2.45  85 2.53  84 3.10
  17  0.071  0.226  0.322-  61 1.81  73 2.06   4 2.45  33 2.45  36 2.45
  18  0.821  0.576  0.403-  86 1.46  79 2.12  34 2.45   5 2.45  50 2.90  55 3.03
  19  0.571  0.826  0.000-  72 0.82  59 2.19  26 2.45   3 2.45  77 3.07
  20  0.321  0.176  0.081-  78 2.43  27 2.45   4 2.45   7 2.45  54 2.56  66 3.21  90 3.31
  21  0.071  0.526  0.161-  25 2.45  28 2.45   5 2.45   8 2.45  60 2.85
  22  0.821  0.876  0.242-  49 2.33   6 2.45  29 2.45  26 2.45   9 2.45
  23  0.571  0.226  0.322-  10 2.45  27 2.45  30 2.45  80 2.57
  24  0.321  0.576  0.403-  67 2.33  28 2.45  11 2.45  91 3.18  57 3.22
  25  0.946  0.576  0.000-  65 2.44  21 2.45  38 2.45  82 2.70  89 3.25
  26  0.696  0.926  0.081-  19 2.45  22 2.45  39 2.45  59 2.48  95 2.81  90 3.11  72 3.22
  27  0.446  0.276  0.161-  66 1.99  20 2.45  23 2.45  43 2.45  40 2.45  78 2.75
  28  0.196  0.626  0.242-  67 1.98  21 2.45  41 2.45  24 2.45  44 2.45  60 3.13
  29  0.946  0.976  0.322-  49 1.33  22 2.45  45 2.45  42 2.45  92 2.79  85 2.97
  30  0.696  0.326  0.403-  80 1.80  68 2.23  46 2.45  23 2.45  55 3.17
  31  0.446  0.576  0.000-  96 0.93  60 2.12  15 2.45  44 2.45  77 2.77
  32  0.196  0.926  0.081-  13 2.45  16 2.45  45 2.45  54 2.47  84 2.59
  33  0.946  0.276  0.161-  14 2.45  17 2.45  37 2.45  46 2.45  73 3.27
  34  0.696  0.626  0.242-  18 2.45  38 2.45  47 2.45  15 2.45  79 3.31
  35  0.446  0.976  0.322-  16 2.45  39 2.45  48 2.45  56 3.08  85 3.27
  36  0.196  0.326  0.403-  91 1.72  40 2.45  17 2.45  61 2.76  75 3.25
  37  0.071  0.326  0.000-  78 2.25  33 2.45   8 2.45  94 2.97  58 3.13  89 3.33
  38  0.821  0.676  0.081-  65 2.24  34 2.45   9 2.45  25 2.45
  39  0.571  0.026  0.161-  90 1.94   7 2.45  35 2.45  26 2.45  10 2.45
  40  0.321  0.376  0.242-   8 2.45  11 2.45  36 2.45  27 2.45  91 2.53  78 3.10
  41  0.071  0.726  0.322-  67 1.81  79 2.06   9 2.45  28 2.45  12 2.45
  42  0.821  0.076  0.403-  92 1.46  73 2.12  10 2.45  29 2.45  56 2.90  49 3.03
  43  0.571  0.326  0.000-  66 0.82  53 2.19   2 2.45  27 2.45  83 3.07
  44  0.321  0.676  0.081-  84 2.43   3 2.45  28 2.45  31 2.45  60 2.56  72 3.21  96 3.31
  45  0.071  0.026  0.161-   1 2.45  29 2.45  32 2.45   4 2.45  54 2.85
  46  0.821  0.376  0.242-  55 2.33   2 2.45   5 2.45  30 2.45  33 2.45
  47  0.571  0.726  0.322-  34 2.45   3 2.45   6 2.45  74 2.57
  48  0.321  0.076  0.403-  61 2.33   4 2.45  35 2.45  85 3.18  51 3.22
  49  0.931  0.922  0.403-  29 1.33  22 2.33  92 2.77  62 2.77  85 2.83  42 3.03   6 3.17
  50  0.597  0.547  0.522-  93 2.77  63 2.77  86 2.83  18 2.90  11 3.08
  51  0.264  0.172  0.642-  94 2.77  64 2.77  61 2.81  87 2.83  48 3.22
  52  0.931  0.797  0.761-  95 2.77  65 2.77  62 2.81  88 2.83  13 3.13
  53  0.597  0.422  0.881-  43 2.19   2 2.48  96 2.77  66 2.77  63 2.81  89 2.83
  54  0.264  0.047  1.000-   7 2.12  32 2.47  20 2.56  64 2.81  90 2.83  45 2.85   4 3.13
  55  0.931  0.422  0.403-   5 1.33  46 2.33  86 2.77  68 2.77  91 2.83  18 3.03  30 3.17
  56  0.597  0.047  0.522-  87 2.77  69 2.77  92 2.83  42 2.90  35 3.08
  57  0.264  0.672  0.642-  88 2.77  70 2.77  67 2.81  93 2.83  24 3.22
  58  0.931  0.297  0.761-  89 2.77  71 2.77  68 2.81  94 2.83  37 3.13
  59  0.597  0.922  0.881-  19 2.19  26 2.48  90 2.77  72 2.77  69 2.81  95 2.83
  60  0.264  0.547  0.000-  31 2.12   8 2.47  44 2.56  70 2.81  96 2.83  21 2.85  28 3.13
[...]
  82  0.931  0.547  0.761-  25 2.70  65 2.77  89 2.77  86 2.81  70 2.83
  83  0.597  0.172  0.881-  66 2.77  90 2.77   7 2.77  87 2.81  71 2.83  43 3.07
  84  0.264  0.797  0.000-  13 2.25  44 2.43  32 2.59   3 2.75  88 2.81  72 2.83  16 3.10
  85  0.181  0.922  0.403-  12 1.72  16 2.53  81 2.81  49 2.83  29 2.97  48 3.18  35 3.27
  86  0.847  0.547  0.522-  18 1.46  55 2.77  79 2.77   5 2.79  82 2.81  50 2.83
  87  0.514  0.172  0.642-  56 2.77  80 2.77  83 2.81  51 2.83
  88  0.181  0.797  0.761-  57 2.77  81 2.77  84 2.81  52 2.83  13 2.97
  89  0.847  0.422  0.881-  58 2.77  82 2.77   2 2.81  53 2.83  25 3.25  37 3.33
  90  0.514  0.047  1.000-   7 0.93  39 1.94  59 2.77  83 2.77  54 2.83  26 3.11  20 3.31
  91  0.181  0.422  0.403-  36 1.72  40 2.53  75 2.81  55 2.83   5 2.97  24 3.18  11 3.27
  92  0.847  0.047  0.522-  42 1.46  49 2.77  73 2.77  29 2.79  76 2.81  56 2.83
  93  0.514  0.672  0.642-  50 2.77  74 2.77  77 2.81  57 2.83
  94  0.181  0.297  0.761-  51 2.77  75 2.77  78 2.81  58 2.83  37 2.97
  95  0.847  0.922  0.881-  52 2.77  76 2.77  26 2.81  59 2.83   1 3.25  13 3.33
  96  0.514  0.547  1.000-  31 0.93  15 1.94  53 2.77  77 2.77  60 2.83   2 3.11  44 3.31

  LATTYP: Found a simple orthorhombic cell.
 ALAT       =    11.0959062580
 B/A-ratio  =     1.0197995668
 C/A-ratio  =     1.6124446610

  Lattice vectors:

 A1 = (   0.0000000000,  -0.0000002560,  11.0959062580)
 A2 = (  11.3156003950,   0.0000000000,   0.0000000000)
 A3 = (   0.0000000000,  17.8915348050,   0.0000000000)

Analysis of symmetry for initial positions (statically):
 Subroutine PRICEL returns following result:

[...]

   2 primitive cells build up your supercell.

 Routine SETGRP: Setting up the symmetry group for a
 simple orthorhombic supercell.

 Subroutine GETGRP returns: Found  1 space group operations
 (whereof  1 operations were pure point group operations)
 out of a pool of  8 trial point group operations.

The static configuration has the point symmetry C_1 .

Analysis of symmetry for dynamics (positions and initial velocities):
 Subroutine PRICEL returns following result:

[...]

The dynamic configuration has the point symmetry C_1 .

Analysis of structural, dynamic, and magnetic symmetry:
 Subroutine PRICEL returns following result:

  LATTYP: Found a simple orthorhombic cell.
 ALAT       =     8.9457677961
 B/A-ratio  =     1.2403525903
 C/A-ratio  =     1.2649110342

  Lattice vectors:

 A1 = (   0.0000000000,   8.9457677961,   0.0000000444)
 A2 = (   0.0000000000,  -0.0000002560,  11.0959062580)
 A3 = (  11.3156003950,   0.0000000000,   0.0000000000)

   2 primitive cells build up your supercell.

 Routine SETGRP: Setting up the symmetry group for a
 simple orthorhombic supercell.

 Subroutine GETGRP returns: Found  1 space group operations
 (whereof  1 operations were pure point group operations)
 out of a pool of  8 trial point group operations.

[...]
     0.000000000 -0.000000256 11.095906258     0.000000000  0.000000000  0.090123328

  length of vectors
    11.315600395 17.891534805 11.095906258     0.088373570  0.055892354  0.090123328

 FORCES acting on ions
    electron-ion (+dipol)            ewald-force                    non-local-force                 convergence-correction
   -.959E+01 0.138E+02 0.377E+02   0.104E+02 -.151E+02 -.370E+02   0.609E+00 -.971E+00 0.150E+01   0.273E-05 0.243E-04 0.500E-04
   -.335E+02 -.813E+01 0.102E+02   0.340E+02 0.749E+01 -.931E+01   0.129E+01 -.154E+00 0.152E+01   -.102E-04 -.372E-04 -.165E-04
   0.252E+01 0.817E+01 -.434E+02   -.495E+01 -.101E+02 0.511E+02   -.386E+01 -.213E+01 0.108E+02   -.292E-04 -.138E-04 0.467E-04
   -.527E+01 0.980E+01 0.157E+02   0.674E+01 -.145E+02 -.247E+02   0.535E+00 -.300E+01 -.729E+01   -.502E-04 0.368E-04 0.515E-04
   -.105E+02 -.839E+01 -.386E+01   0.226E+02 0.739E+02 -.563E+02   0.430E+01 0.210E+02 -.221E+02   0.132E-04 -.325E-04 -.479E-04
   0.142E+02 -.208E+02 -.186E+02   -.635E+01 0.273E+02 0.417E+01   0.688E+01 0.415E+01 -.123E+02   -.419E-05 0.804E-05 0.142E-04
   -.113E+02 -.115E+01 0.566E+02   -.189E+03 0.135E+03 -.593E+02   -.855E+01 0.129E+02 0.183E+00   0.298E-05 0.419E-04 0.287E-04
   0.711E+01 -.420E+01 0.403E+02   -.748E+01 0.418E+01 -.400E+02   -.306E+00 -.315E+00 0.350E+00   -.140E-04 -.172E-04 0.974E-05
   0.369E+01 -.161E+01 0.276E+02   -.334E+01 0.172E+01 -.286E+02   -.215E+00 -.762E-01 0.440E+00   0.429E-04 -.752E-05 0.244E-04
   0.609E+01 -.185E+01 -.632E+01   -.613E+01 0.191E+01 0.668E+01   -.219E+00 -.104E+00 -.322E+00   0.416E-04 0.426E-04 0.707E-04
   -.171E+02 0.841E+01 -.452E+02   0.179E+02 -.844E+01 0.468E+02   0.168E+00 0.180E+00 -.903E+00   0.300E-05 -.316E-04 -.261E-04
   -.184E+02 0.212E+02 -.622E+02   0.209E+02 -.442E+02 0.640E+02   0.205E+01 -.177E+02 -.122E+01   -.208E-04 -.942E-05 -.163E-04
   0.270E+02 0.457E+00 0.517E+02   -.298E+02 -.313E+00 -.524E+02   -.326E+01 0.120E+01 0.563E+00   0.110E-04 -.170E-04 0.223E-04
   0.676E+01 -.766E+01 0.190E+02   -.761E+01 0.827E+01 -.169E+02   -.868E-01 0.444E-01 0.356E+01   0.893E-05 0.545E-04 0.634E-04
   -.181E+02 0.671E+01 -.379E+02   0.215E+02 -.890E+01 0.472E+02   0.460E+01 -.237E+01 0.113E+02   0.749E-05 -.594E-04 -.196E-04
   -.171E+02 0.185E+01 -.159E+02   0.182E+02 -.148E+01 0.147E+02   0.497E+00 -.868E+00 -.421E+00   -.325E-04 -.876E-05 0.360E-04
   0.784E+01 -.236E+02 -.632E+01   -.168E+02 0.362E+02 -.441E+01   -.471E+01 0.950E+01 -.931E+01   -.266E-04 -.779E-05 0.993E-06
   0.284E+02 -.380E+01 -.285E+02   -.439E+02 0.232E+02 -.278E+02   -.897E+01 0.907E+01 -.265E+02   -.115E-05 -.165E-05 -.358E-04
   -.127E+02 0.207E+02 0.393E+02   0.261E+03 0.182E+03 -.419E+02   0.957E+01 0.263E+01 0.359E+01   0.101E-04 -.190E-04 0.623E-05
   0.189E+02 -.334E+01 0.269E+02   -.189E+02 0.338E+01 -.269E+02   0.631E+00 -.108E+01 0.979E+00   -.431E-04 0.932E-04 0.595E-04
   0.127E+02 -.707E-01 0.215E+02   -.131E+02 -.165E+00 -.216E+02   -.417E+00 0.271E+00 0.427E+00   -.444E-05 -.206E-04 -.148E-04
   0.164E+02 0.465E+01 0.202E+02   -.186E+02 -.645E+01 -.228E+02   -.829E+00 -.558E+00 -.142E+01   0.259E-04 0.276E-04 0.375E-04
   0.193E+02 0.134E+02 -.333E+02   -.209E+02 -.151E+02 0.334E+02   0.634E+00 0.282E+00 -.105E+01   0.435E-04 0.266E-04 0.854E-05
   -.251E+02 0.562E+01 -.589E+02   0.272E+02 -.719E+01 0.612E+02   0.845E+00 -.161E+01 -.114E+01   -.200E-04 -.731E-05 -.153E-04
   -.959E+01 0.138E+02 0.377E+02   0.104E+02 -.151E+02 -.370E+02   0.609E+00 -.971E+00 0.150E+01   0.220E-04 -.515E-04 0.710E-05
   -.335E+02 -.813E+01 0.102E+02   0.340E+02 0.749E+01 -.931E+01   0.129E+01 -.154E+00 0.152E+01   0.376E-04 0.491E-05 0.499E-04
   0.252E+01 0.817E+01 -.434E+02   -.495E+01 -.101E+02 0.511E+02   -.386E+01 -.213E+01 0.108E+02   0.282E-04 0.599E-04 0.858E-05
   -.527E+01 0.980E+01 0.157E+02   0.674E+01 -.145E+02 -.247E+02   0.535E+00 -.300E+01 -.729E+01   -.273E-04 -.409E-05 0.559E-05
   -.105E+02 -.839E+01 -.386E+01   0.226E+02 0.739E+02 -.563E+02   0.430E+01 0.210E+02 -.221E+02   -.580E-05 0.530E-04 0.226E-04
   0.142E+02 -.208E+02 -.186E+02   -.635E+01 0.273E+02 0.417E+01   0.688E+01 0.415E+01 -.123E+02   0.513E-05 -.276E-04 -.163E-04
   -.113E+02 -.115E+01 0.566E+02   -.189E+03 0.135E+03 -.593E+02   -.855E+01 0.129E+02 0.183E+00   0.600E-05 -.617E-04 0.461E-05
   0.711E+01 -.421E+01 0.403E+02   -.748E+01 0.418E+01 -.400E+02   -.306E+00 -.315E+00 0.350E+00   -.343E-04 -.366E-04 0.437E-04
   0.369E+01 -.161E+01 0.276E+02   -.334E+01 0.172E+01 -.286E+02   -.215E+00 -.762E-01 0.440E+00   -.542E-05 0.227E-04 0.266E-04
   0.609E+01 -.185E+01 -.632E+01   -.613E+01 0.191E+01 0.668E+01   -.219E+00 -.104E+00 -.322E+00   0.140E-05 -.344E-04 0.102E-04
   -.171E+02 0.841E+01 -.452E+02   0.179E+02 -.844E+01 0.468E+02   0.168E+00 0.180E+00 -.903E+00   0.321E-05 -.281E-05 0.402E-04
   -.184E+02 0.212E+02 -.622E+02   0.209E+02 -.442E+02 0.640E+02   0.205E+01 -.177E+02 -.122E+01   -.140E-04 -.458E-05 -.301E-04
   0.270E+02 0.457E+00 0.517E+02   -.298E+02 -.313E+00 -.524E+02   -.326E+01 0.120E+01 0.563E+00   -.872E-05 0.307E-04 0.337E-04
   0.676E+01 -.766E+01 0.190E+02   -.761E+01 0.827E+01 -.169E+02   -.868E-01 0.444E-01 0.356E+01   0.304E-04 -.404E-04 0.112E-04
   -.181E+02 0.671E+01 -.379E+02   0.215E+02 -.890E+01 0.472E+02   0.460E+01 -.237E+01 0.113E+02   0.569E-04 0.947E-05 0.107E-03
   -.171E+02 0.185E+01 -.159E+02   0.182E+02 -.148E+01 0.147E+02   0.497E+00 -.868E+00 -.421E+00   -.390E-05 -.551E-05 -.197E-04
   0.784E+01 -.236E+02 -.632E+01   -.168E+02 0.362E+02 -.441E+01   -.471E+01 0.950E+01 -.931E+01   0.272E-04 -.895E-05 0.335E-05
   0.284E+02 -.380E+01 -.285E+02   -.439E+02 0.232E+02 -.278E+02   -.897E+01 0.907E+01 -.265E+02   0.102E-04 0.217E-04 -.130E-04
   -.127E+02 0.207E+02 0.393E+02   0.261E+03 0.182E+03 -.419E+02   0.957E+01 0.263E+01 0.359E+01   0.223E-04 0.499E-04 0.824E-05
   0.189E+02 -.334E+01 0.269E+02   -.189E+02 0.338E+01 -.269E+02   0.631E+00 -.108E+01 0.979E+00   -.417E-04 -.280E-04 0.183E-04
   0.127E+02 -.709E-01 0.215E+02   -.131E+02 -.165E+00 -.216E+02   -.417E+00 0.271E+00 0.427E+00   -.301E-04 0.177E-04 0.681E-04
   0.164E+02 0.465E+01 0.202E+02   -.186E+02 -.645E+01 -.228E+02   -.829E+00 -.558E+00 -.142E+01   -.524E-05 -.267E-04 -.186E-04
   0.193E+02 0.134E+02 -.333E+02   -.209E+02 -.151E+02 0.334E+02   0.634E+00 0.282E+00 -.105E+01   0.209E-05 -.544E-05 0.269E-04
   -.251E+02 0.562E+01 -.589E+02   0.272E+02 -.719E+01 0.612E+02   0.845E+00 -.161E+01 -.114E+01   -.240E-04 0.181E-04 -.130E-04
   -.814E+01 0.257E+02 -.792E+02   -.819E+00 -.780E+02 0.129E+03   -.342E+01 -.357E+02 0.335E+02   0.433E-05 0.427E-04 0.121E-05
   0.129E+02 0.197E+01 -.425E+02   -.133E+02 -.193E+01 0.409E+02   -.957E+00 -.327E+00 0.845E+00   -.543E-05 -.222E-04 -.528E-05
   -.291E+01 -.213E+01 -.223E+02   0.279E+01 0.258E+01 0.226E+02   0.273E+00 -.351E+00 -.213E+00   -.168E-04 0.340E-04 -.431E-04
   0.160E+01 0.119E+01 0.200E+02   -.147E+01 -.625E+00 -.197E+02   0.509E-02 -.633E+00 -.627E+00   0.166E-04 -.119E-04 -.141E-04
   -.451E+01 -.228E+02 0.892E+02   0.439E+01 0.208E+02 -.894E+02   0.506E+00 0.804E+01 -.878E+01   0.814E-05 -.375E-04 0.431E-04
   0.404E+02 0.883E+01 0.612E+02   -.396E+02 -.826E+01 -.612E+02   -.109E+02 -.312E+01 -.227E+01   -.755E-04 0.217E-05 0.387E-04
   -.814E+01 0.257E+02 -.792E+02   -.819E+00 -.780E+02 0.129E+03   -.342E+01 -.357E+02 0.335E+02   -.854E-06 -.460E-04 -.253E-04
   0.129E+02 0.197E+01 -.425E+02   -.133E+02 -.193E+01 0.409E+02   -.957E+00 -.327E+00 0.845E+00   0.467E-04 0.204E-04 -.489E-04
   -.291E+01 -.213E+01 -.223E+02   0.279E+01 0.258E+01 0.226E+02   0.273E+00 -.351E+00 -.213E+00   -.157E-04 -.157E-04 -.100E-04
   0.160E+01 0.119E+01 0.200E+02   -.147E+01 -.625E+00 -.197E+02   0.509E-02 -.633E+00 -.627E+00   -.139E-04 0.327E-04 0.339E-05
   -.451E+01 -.228E+02 0.892E+02   0.439E+01 0.208E+02 -.894E+02   0.506E+00 0.804E+01 -.878E+01   0.167E-04 -.230E-04 -.309E-04
   0.404E+02 0.883E+01 0.612E+02   -.396E+02 -.826E+01 -.612E+02   -.109E+02 -.312E+01 -.227E+01   -.222E-04 -.328E-04 0.119E-04
[...]
   -.150E+02 -.102E+01 0.637E+02   0.157E+02 0.118E+01 -.643E+02   -.207E-01 0.349E+00 -.117E+01   0.385E-04 0.106E-03 -.677E-05
   0.512E+01 0.339E+01 0.629E+02   -.577E+01 -.366E+01 -.630E+02   0.377E+01 -.695E+00 -.248E+01   -.389E-04 -.183E-04 0.173E-04
   -.208E+01 -.431E+02 -.568E+02   0.106E+01 0.574E+02 0.566E+02   -.274E+01 0.282E+02 0.207E+01   -.237E-04 -.237E-05 -.140E-04
   0.120E+00 0.103E+02 -.103E+03   0.102E+02 -.281E+02 0.147E+03   0.720E+01 -.142E+02 0.434E+02   0.105E-04 -.175E-04 0.473E-05
   0.318E+01 -.756E+00 -.146E+02   -.309E+01 0.345E+00 0.145E+02   -.445E+00 0.354E+00 0.339E+00   0.310E-04 0.389E-04 -.483E-04
   -.945E+00 0.286E+01 0.217E+02   0.177E+01 -.315E+01 -.220E+02   -.922E+00 0.345E+00 -.322E+00   -.110E-04 -.181E-04 -.757E-05
   -.121E+02 0.865E+00 0.406E+02   0.123E+02 -.123E+01 -.403E+02   0.235E+00 0.440E+00 0.454E+00   -.118E-04 -.828E-05 0.267E-04
   -.188E+02 0.932E+01 0.727E+02   0.200E+03 -.131E+03 -.754E+02   0.286E+02 -.184E+02 -.144E+02   0.457E-04 0.464E-05 0.252E-04
   -.208E+01 -.431E+02 -.568E+02   0.106E+01 0.574E+02 0.566E+02   -.274E+01 0.282E+02 0.207E+01   -.776E-05 -.266E-04 -.269E-04
   0.120E+00 0.103E+02 -.103E+03   0.102E+02 -.281E+02 0.147E+03   0.720E+01 -.142E+02 0.434E+02   -.273E-05 0.204E-04 -.583E-04
   0.318E+01 -.756E+00 -.146E+02   -.309E+01 0.345E+00 0.145E+02   -.445E+00 0.354E+00 0.339E+00   -.252E-05 -.955E-05 -.143E-04
   -.945E+00 0.286E+01 0.217E+02   0.177E+01 -.315E+01 -.220E+02   -.922E+00 0.345E+00 -.322E+00   -.871E-05 0.331E-04 0.737E-05
   -.121E+02 0.865E+00 0.406E+02   0.123E+02 -.123E+01 -.403E+02   0.235E+00 0.440E+00 0.454E+00   0.231E-04 -.615E-05 -.667E-05
   -.188E+02 0.932E+01 0.727E+02   0.200E+03 -.131E+03 -.754E+02   0.286E+02 -.184E+02 -.144E+02   0.943E-05 -.677E-04 0.128E-04
   -.532E+00 0.663E+02 -.670E+02   0.284E-12 -.398E-12 0.469E-12   0.318E+00 -.666E+02 0.671E+02   -.674E-05 0.309E-05 0.254E-03

 POSITION                                       TOTAL-FORCE (eV/Angst)
     10.69968      1.36340      0.00000         1.454671     -2.337136      2.145035
      7.87078      7.62544      0.89458         1.771891     -0.793017      2.360183
      5.04188     13.88748      1.78916        -6.283652     -4.110714     18.533050
      2.21298      2.25799      2.68374         2.004947     -7.704150    -16.347738
     10.69968      8.52002      3.57831        16.376154     86.521426    -82.218043
      7.87078     14.78206      4.47289        14.745467     10.697190    -26.744766
      5.04188      1.36340      0.00000      -209.227247    147.249349     -2.436284
      2.21298      7.62544      0.89458        -0.666904     -0.337657      0.602046
     10.69968     13.88748      1.78916         0.145406      0.040453     -0.510966
      7.87078      2.25799      2.68374        -0.250324     -0.047480      0.041900
      5.04188      8.52002      3.57831         1.010470      0.150101      0.692696
      2.21298     14.78206      4.47289         4.619505    -40.630484      0.537037
      0.79853     14.78206      0.00000        -6.094101      1.349973     -0.210252
      9.28523      3.15256      0.89458        -0.929715      0.658133      5.651396
      6.45633      9.41460      1.78916         8.054622     -4.561423     20.546180
      3.62743     15.67664      2.68373         1.577222     -0.490682     -1.573589
      0.79853      4.04714      3.57831       -13.640813     22.184198    -20.042226
      9.28523     10.30918      4.47289       -24.462377     28.477717    -82.905707
      6.45633     14.78206      0.00000       257.657951    205.335012      1.007001
      3.62743      3.15256      0.89458         0.582568     -1.035768      0.947473
      0.79853      9.41460      1.78916        -0.838494      0.038333      0.334323
      9.28523     15.67664      2.68373        -3.034193     -2.360277     -4.031296
      6.45633      4.04714      3.57831        -0.910872     -1.453849     -0.995345
      3.62743     10.30918      4.47289         2.971634     -3.176708      1.138585
     10.69968     10.30917      0.00000         1.454671     -2.337136      2.145035
      7.87078     16.57121      0.89458         1.771891     -0.793017      2.360183
      5.04188      4.94171      1.78916        -6.283652     -4.110714     18.533050
      2.21298     11.20375      2.68373         2.004947     -7.704150    -16.347738
     10.69968     17.46579      3.57831        16.376154     86.521426    -82.218043
      7.87078      5.83630      4.47289        14.745467     10.697190    -26.744766
      5.04188     10.30917      0.00000      -209.227247    147.249349     -2.436284
      2.21298     16.57121      0.89458        -0.666904     -0.337657      0.602046
     10.69968      4.94171      1.78916         0.145406      0.040453     -0.510966
      7.87078     11.20375      2.68373        -0.250324     -0.047480      0.041900
      5.04188     17.46579      3.57831         1.010470      0.150101      0.692696
      2.21298      5.83630      4.47289         4.619505    -40.630484      0.537037
      0.79853      5.83629      0.00000        -6.094101      1.349973     -0.210252
      9.28523     12.09833      0.89458        -0.929715      0.658133      5.651396
      6.45633      0.46883      1.78916         8.054622     -4.561423     20.546180
      3.62743      6.73087      2.68373         1.577222     -0.490682     -1.573589
      0.79853     12.99291      3.57831       -13.640813     22.184198    -20.042226
      9.28523      1.36341      4.47289       -24.462377     28.477717    -82.905707
      6.45633      5.83629      0.00000       257.657951    205.335012      1.007001
      3.62743     12.09833      0.89458         0.582568     -1.035768      0.947473
      0.79853      0.46883      1.78916        -0.838494      0.038333      0.334323
      9.28523      6.73087      2.68373        -3.034193     -2.360277     -4.031296
      6.45633     12.99291      3.57831        -0.910872     -1.453849     -0.995345
      3.62743      1.36341      4.47289         2.971634     -3.176708      1.138585
     10.53253     16.49862      4.47289       -12.383001    -88.011818     83.719134
      6.76066      9.78929      5.79749        -1.354439     -0.290021     -0.716181
      2.98879      3.07996      7.12210         0.160808      0.100166      0.116504
     10.53252     14.26217      8.44670         0.138724     -0.067092     -0.316432
      6.76065      7.55284      9.77130         0.379733      6.040463     -9.026766
      2.98879      0.84352     11.09590       -10.023766     -2.546713     -2.244541
     10.53253      7.55285      4.47289       -12.383001    -88.011818     83.719134
      6.76066      0.84352      5.79749        -1.354439     -0.290021     -0.716181
      2.98879     12.02573      7.12210         0.160808      0.100166      0.116504
     10.53252      5.31640      8.44670         0.138724     -0.067092     -0.316432
      6.76065     16.49861      9.77130         0.379733      6.040463     -9.026766
      2.98878      9.78929      0.00000       -10.023766     -2.546713     -2.244541
[...]
     10.53252      9.78929      8.44670         0.259382     -0.408092     -1.371509
      6.76065      3.07996      9.77130         0.703655      0.505943     -1.757602
      2.98878     14.26217      0.00000         3.114018     -0.956271     -2.616030
      2.04583     16.49862      4.47289        -3.752930     42.455004      1.913172
      9.58956      9.78929      5.79749        17.542720    -32.020827     86.982273
      5.81769      3.07996      7.12210        -0.351668     -0.053621      0.327660
      2.04582     14.26217      8.44670        -0.089832      0.056492     -0.610628
      9.58955      7.55284      9.77130         0.483526      0.078590      0.704829
      5.81769      0.84352     11.09590       209.899303   -140.311997    -17.131471
      2.04583      7.55285      4.47289        -3.752930     42.455004      1.913172
      9.58956      0.84352      5.79749        17.542720    -32.020827     86.982273
      5.81769     12.02573      7.12210        -0.351668     -0.053621      0.327660
      2.04582      5.31640      8.44670        -0.089832      0.056492     -0.610628
      9.58955     16.49861      9.77130         0.483526      0.078590      0.704829
      5.81769      9.78929     11.09590       209.899303   -140.311997    -17.131471
    total drift:                               -0.213256     -0.292593      0.121573

  FREE ENERGIE OF THE ION-ELECTRON SYSTEM (eV)
  free  energy   TOTEN  =       432.39728989 eV

  energy  without entropy=      432.39895960  energy(sigma->0) =      432.39812474